12
Properties=species:S:1:pos:R:3:forces:R:3 id=20307 bond=C-S smiles="[H:12][P:9]([S:7][C:10]([F:1])([F:2])[F:3])[S:8][C:11]([F:4])([F:5])[F:6]" dataset=PubChem energy=-49362.67751237834 pbc="F F F"
F        3.81278966       2.90149587       1.21725613      -1.54871432      -1.28211769       1.36450478
F        3.16827915       0.90041119       2.07001502       0.00904721       1.97825188      -0.28333813
F        2.49822948       2.76428574       3.03811854       0.47378121      -0.14582552      -0.96224978
F       -2.61475152      -0.23260732      -0.06595220       0.54359814      -0.52053106      -0.14352390
F       -2.61423296      -2.26881804      -0.94272651       1.13993393       1.39742296       1.73685469
F       -2.10403424      -1.90532150       1.23173092       0.25723562       0.31204791      -1.56028801
S        1.25346915       2.22231501       0.86025745       0.03625892      -0.60573145      -1.36508479
S        1.32844031      -1.15138894      -0.79685705      -0.61649424       3.59671370       0.44652846
P        1.68119324       0.97128672      -0.81497400      -0.76477331      -2.70955522       0.97494851
C        2.77266238       2.20731836       1.84398097       1.35734534      -0.89436416      -0.15623700
C       -2.00158590      -1.41035332      -0.02532961      -0.60858467      -1.06952482      -0.46702022
H        2.20512722       1.58755952      -1.96867281      -0.27719869      -0.05590027       0.41160405
