12
Properties=species:S:1:pos:R:3:forces:R:3 id=20307 bond=C-S smiles="[H:12][P:9]([S:7][C:10]([F:1])([F:2])[F:3])[S:8][C:11]([F:4])([F:5])[F:6]" dataset=PubChem energy=-49363.162120539826 pbc="F F F"
F        3.66626851       2.89010144       1.25120333      -1.53992432      -1.27446497       1.36568983
F        3.02175800       0.88901676       2.10396222       0.02305885       1.96731585      -0.27295060
F        2.35170833       2.75289131       3.07206574       0.48232660      -0.14392916      -0.93398917
F       -2.46823037      -0.22121289      -0.09989940       0.62309200      -0.58140547      -0.14831635
F       -2.46771181      -2.25742361      -0.97667371       1.18040692       1.43576998       1.77323541
F       -1.95751309      -1.89392707       1.19778372       0.30058696       0.34256890      -1.63216954
S        1.10694800       2.21092058       0.89420465       0.07225377      -0.65846229      -1.37995219
S        1.18191916      -1.16278337      -0.76290985      -1.03827449       3.36783434       0.59557927
P        1.53467209       0.95989229      -0.78102680      -0.72615170      -2.43357815       0.98036233
C        2.62614123       2.19592393       1.87792817       1.32129750      -0.88893007      -0.18449098
C       -1.85506475      -1.39895889      -0.05927681      -0.37320076      -1.04061879      -0.56405776
H        2.05860607       1.57616509      -1.93472561      -0.32406216      -0.08961240       0.40120223
