24
Properties=species:S:1:pos:R:3:forces:R:3 id=10005 bond=C-S smiles="[H:12][C:4]([H:13])([H:14])[C:9]([C:5]([H:15])([H:16])[H:17])([C:6]([H:18])([H:19])[H:20])[S:2][S:1][C:7]([H:21])([H:22])[C:8]([H:23])([H:24])[N:3]([H:10])[H:11]" dataset=PubChem energy=-29634.27324295399 pbc="F F F"
S       -1.07243722      -0.43151709       0.29579554       0.39812861       1.61083496       0.99416902
S        0.38984749      -0.93746170       1.76248011     -12.42224439      -3.36086309       4.12129876
N       -1.45773261       1.80186049      -1.76513424      -0.24695616       1.63795888       1.21623167
C        2.10993479      -1.13903522       0.01897193       2.41332804       0.51570715      -1.87074169
C        2.69990800      -0.83085369       2.43913788      -1.15069872       1.66836258       1.36675399
C        1.87221989       1.09008045       1.08677417      -1.27362020       1.15769772       1.18396930
C       -1.44951051       1.44677100       0.64450730       1.44172621       0.78812721       0.85100607
C       -2.18107503       2.15627256      -0.48213115       1.60249078      -1.90419627      -2.32106680
C        1.71723483      -0.41619395       1.27116329      10.25857517       4.08184820      -2.93925319
H       -1.90152447       2.25089577      -2.54008808      -0.19707220       0.06581960      -0.43801794
H       -1.43682116       0.82607444      -1.90813222      -0.08738533      -1.04017463      -0.19765958
H        2.95382855      -0.51884835      -0.43109029      -0.54376897      -1.37041608       0.37789773
H        1.35193900      -1.14133012      -0.77488356      -0.03550111      -0.02093807       0.60339529
H        2.40608976      -2.17402672       0.27178056      -0.02255321       0.55754017      -0.42303752
H        3.70937607      -0.56022035       2.18446178       0.35674442      -0.31385531      -0.27429259
H        2.52074645      -1.86239027       2.65103525       0.53124583      -0.79377797       0.10171606
H        2.45602009      -0.26106393       3.42081780       0.20141489      -0.80747748      -1.75777462
H        1.64996288       1.64949251       2.02824635       0.08493667      -0.64955397      -0.46318953
H        2.82340500       1.44258321       0.78024581       1.11939127      -0.19477160      -0.37791700
H        1.15112195       1.47334743       0.38232704       0.00178151      -0.15053053      -0.46326890
H       -2.10724085       1.52710286       1.47693894      -0.41640722      -0.53182080       0.93532249
H       -0.51194256       2.06292132       0.99435757      -1.70862783      -1.62866501      -1.11039051
H       -3.22606747       1.90073196      -0.56410661      -0.41623273      -0.29968343       0.35755561
H       -2.10778397       3.21124581      -0.41709586       0.11084628       0.98559218       0.52810866
