24
Properties=species:S:1:pos:R:3:forces:R:3 id=10005 bond=C-S smiles="[H:12][C:4]([H:13])([H:14])[C:9]([C:5]([H:15])([H:16])[H:17])([C:6]([H:18])([H:19])[H:20])[S:2][S:1][C:7]([H:21])([H:22])[C:8]([H:23])([H:24])[N:3]([H:10])[H:11]" dataset=PubChem energy=-29634.897396605036 pbc="F F F"
S       -1.09657154      -0.44099468       0.30472858       0.49864547       1.60575707       1.02431405
S        0.36571317      -0.94693929       1.77141315      -9.15627703      -2.11171590       2.80438418
N       -1.48186693       1.79238290      -1.75620120      -0.24938169       1.63643126       1.21820777
C        2.13406911      -1.12955763       0.01003889       2.19248705       0.50168706      -1.72905094
C        2.72404232      -0.82137610       2.43020484      -1.30475361       1.67448463       1.30595324
C        1.89635421       1.09955804       1.07784113      -1.46755130       1.06239859       1.22968445
C       -1.47364483       1.43729341       0.65344034       1.46040153       0.78449294       0.85015517
C       -2.20520935       2.14679497      -0.47319811       1.60555107      -1.90453840      -2.32465239
C        1.74136915      -0.40671636       1.26223025       7.43306925       2.93844596      -1.77267089
H       -1.92565879       2.24141818      -2.53115504      -0.19708607       0.06547067      -0.43811057
H       -1.46095548       0.81659685      -1.89919918      -0.08575395      -1.03932740      -0.20076845
H        2.97796287      -0.50937076      -0.44002333      -0.55823122      -1.36024128       0.40168039
H        1.37607332      -1.13185253      -0.78381660      -0.04383841      -0.02728114       0.58046619
H        2.43022408      -2.16454913       0.26284752      -0.02049783       0.55396048      -0.43664128
H        3.73351039      -0.55074276       2.17552874       0.36265857      -0.31693738      -0.26440417
H        2.54488077      -1.85291268       2.64210221       0.53518277      -0.79708875       0.10639200
H        2.48015441      -0.25158634       3.41188476       0.21021736      -0.80741784      -1.74618063
H        1.67409720       1.65897010       2.01931331       0.09071022      -0.63843888      -0.46861716
H        2.84753932       1.45206080       0.77131277       1.11908742      -0.21589607      -0.37790714
H        1.17525627       1.48282502       0.37339400      -0.03732187      -0.11595686      -0.47002009
H       -2.13137517       1.51762527       1.48587198      -0.41508481      -0.53328315       0.93599960
H       -0.53607688       2.05344373       1.00329061      -1.66888192      -1.63979610      -1.11373004
H       -3.25020179       1.89125437      -0.55517357      -0.41626393      -0.29951422       0.35863610
H       -2.13191829       3.20176822      -0.40816282       0.11122079       0.98477221       0.52915872
