16
Properties=species:S:1:pos:R:3:forces:R:3 id=46406 bond=N-O smiles="[H:12][C:8]([H:13])([H:14])/[C:5](=[C:6](/[C:9]([H:15])([H:16])[Br:2])[N:3]=[O:1])/[N:7]([H:11])[O:4][H:10]" dataset=PubChem energy=-81385.69542925879 pbc="F F F"
O        0.13714969      -1.43431442       2.99618316      -0.02712171       0.38386345      -1.74374161
Br       2.24887060       1.92511947       2.56593729       0.17549926      -0.79579656      -0.15109870
N       -0.21005005      -1.04417710       1.86720706      -0.30364536      -0.12307906       1.73854385
O        0.97962647       1.61362705      -1.70978614       0.09027095       0.67599461      -5.20790030
C        0.12843435       0.59880914       0.17645324      -0.56454759      -0.65878518      -0.52831453
C        0.61788161      -0.13439923       1.24127276       1.68182646       1.34270585      -0.29062827
N        0.90891739       1.56078572      -0.42584728      -0.61915190      -0.56139519       5.76655967
C       -1.26659370       0.39877663      -0.37681185       0.46238684       1.00409757       1.02519601
C        2.06141257       0.12865616       1.67131806      -0.59675622      -1.08210331       0.30974766
H        0.82417743       2.51906190      -2.04639884      -0.10843147      -0.59670583       0.58542382
H        1.74296021       1.78686876       0.09728090       0.25276894       0.05451217      -0.47092488
H       -1.82711268      -0.28645068       0.24250425      -0.01285643      -0.00490087      -0.00037719
H       -1.20524049       0.04288826      -1.36260806       0.05912372      -0.60196276      -1.34455082
H       -1.76394225       1.38035423      -0.43578659       0.12625762      -0.38079627       0.18006595
H        2.41637385      -0.67853062       2.35469032      -0.42104166       1.03816526      -0.27950785
H        2.71906233       0.12345762       0.79243953      -0.19580975       0.30228336       0.40872473
