11
Properties=species:S:1:pos:R:3:forces:R:3 id=25808 bond=C-S smiles="[H:10][C:4]([H:11])([C:3]([H:8])([H:9])[S:1][H:5])[N:2]([H:6])[H:7]" dataset="DES370K Monomers" energy=-14517.224857494084 pbc="F F F"
S        1.99927220      -1.09744816      -0.79131823      -0.82110345       1.78474691       1.40825275
N       -1.12925896       1.44648212       0.69639944       0.80899955       0.06172524      -0.05736641
C        1.05236568       0.31783830       0.31266188       1.02975619      -0.70173993      -0.25779834
C       -0.40793420       0.42787986      -0.08834185      -0.47594003      -0.71059519       0.12532227
H        3.20537684      -1.08485239      -0.15545380      -0.68507480       0.19335425      -0.13731494
H       -1.07085392       1.25003343       1.68875532      -0.04426926      -0.06436689      -0.14757950
H       -2.10358641       1.47445267       0.44492524      -0.07700029      -0.05543543      -0.07051551
H        1.11127176      -0.00804201       1.34959059       0.08420268      -0.27966328      -0.10191369
H        1.56463041       1.28978508       0.28353266      -0.03884991      -0.48712169      -0.52838838
H       -0.87131843      -0.55665756       0.03836614       0.14421496      -0.11052645       0.00882952
H       -0.50905252       0.64028006      -1.14293058       0.07669683       0.37097664      -0.24034026
