11
Properties=species:S:1:pos:R:3:forces:R:3 id=25808 bond=C-S smiles="[H:10][C:4]([H:11])([C:3]([H:8])([H:9])[S:1][H:5])[N:2]([H:6])[H:7]" dataset="DES370K Monomers" energy=-14513.588295213827 pbc="F F F"
S        2.26798892      -1.49908350      -1.10460988      -0.58254355       1.47088900       1.33726021
N       -1.39797568       1.84811746       1.00969109       1.08227129       0.18465719       0.20129379
C        0.78364896       0.71947364       0.62595353      -0.66541819       1.13057083       0.89837266
C       -0.67665092       0.82951520       0.22494980      -0.33765373      -1.45118042      -0.52228338
H        3.47409356      -1.48648773      -0.46874545      -0.58967648       0.14458313      -0.14477447
H       -1.33957064       1.65166877       2.00204697      -0.07197473      -0.05409365      -0.14111496
H       -2.37230313       1.87608801       0.75821689      -0.06573648      -0.08223121      -0.16418611
H        0.84255504       0.39359333       1.66288224       0.56700666      -0.97226407      -0.34927846
H        1.29591369       1.69142042       0.59682431       0.44099427      -0.69467727      -0.92223936
H       -1.14003515      -0.15502222       0.35165779       0.16014713      -0.05093015       0.01144049
H       -0.77776924       1.04191540      -0.82963893       0.06405855       0.37437943      -0.20341206
