16
Properties=species:S:1:pos:R:3:forces:R:3 id=30398 bond=C-N smiles="[H:7][C:2]([H:8])([H:9])[C:4]([H:13])([H:14])[N:1]([H:6])[C:5]([H:15])([H:16])[C:3]([H:10])([H:11])[H:12]" dataset="DES370K Monomers" energy=-5814.011759183448 pbc="F F F"
N       -0.06757248       0.50539285      -0.07390137     -23.33619551     -17.04814208     -34.69716198
C        1.84505636       0.68209552       0.52692379       3.04762922       0.84285895       1.04067963
C       -1.61494285      -1.11760789      -1.20905615       0.69732119       0.16196436      -3.13716303
C        0.37377107       0.83141571       0.81758798      17.82108138      13.41266117      33.04898995
C       -0.52508861      -0.93804783      -0.19346042      -0.16519903       1.05169660      -0.40824871
H        0.29795801       0.84967375      -0.89652492       0.13224772       0.34109036      -2.52603332
H        1.99298841       1.15810781      -0.46523307       0.35337740      -0.12760440       0.69037398
H        2.12564093      -0.37734401       0.44484575      -0.23744038       0.29862859       0.00996231
H        2.46469742       1.14227623       1.25474621       1.22726328       0.44595507       0.60786645
H       -2.50940734      -0.48789531      -1.17603625       0.45073322       0.15949883       0.60167949
H       -1.98164255      -2.15330607      -1.26911284       0.39933137       0.24499588       0.01846568
H       -1.10445088      -0.85935974      -2.22342397      -1.16988020      -0.62654319       1.32341343
H        0.05305365       1.89736324       1.01785113       1.01520762       0.33421465       1.47500777
H        0.16869748       0.21460542       1.67527379      -0.29101180       0.22656668       1.07978854
H       -0.97710854      -1.19673365       0.75914841       0.60012611       0.00486373       0.39862523
H        0.32637818      -1.60730892      -0.46167143      -0.54389600       0.27785745       0.47341721
