6
Properties=species:S:1:pos:R:3:forces:R:3 id=21541 bond=C-O smiles="[H:4][C:2]([H:5])([H:6])[O:1][H:3]" dataset="DES370K Monomers" energy=-3145.8772446912785 pbc="F F F"
O       -0.53152008      -0.91731461       0.55438496       0.75595241       0.91004005      -2.35931822
C        1.26509432       0.52413108      -0.70428123       0.04673140      -1.47964913      -2.53439206
H       -1.15624968      -1.26923122      -0.15575869       1.41924232       0.89273659       1.03290547
H        1.45078460       1.42800184      -0.23910560      -0.15424277       1.15355233       2.47324703
H        2.14795235      -0.13314838      -0.82278846      -1.14784592      -0.18266885       0.78755232
H        0.97720937       0.90631380      -1.71099089      -0.91955916      -1.29389651       0.60017540
