6
Properties=species:S:1:pos:R:3:forces:R:3 id=21541 bond=C-O smiles="[H:4][C:2]([H:5])([H:6])[O:1][H:3]" dataset="DES370K Monomers" energy=-3150.7100357821546 pbc="F F F"
O       -0.11918235      -0.58649101       0.26551075      -1.89314370      -0.35047475      -1.86577628
C        0.85275659       0.19330748      -0.41540702       0.14934335      -1.80956005      -2.05431119
H       -0.74391195      -0.93840762      -0.44463290       1.34004366       0.68229236       1.78356691
H        1.03844687       1.09717824       0.04976861       0.66978928       1.44317940       1.74890098
H        1.73561462      -0.46397198      -0.53391425      -0.04812950       0.85774128       0.02512308
H        0.56487164       0.57549020      -1.42211668      -0.21777018      -0.82282498       0.36256548
