6
Properties=species:S:1:pos:R:3:forces:R:3 id=21541 bond=C-O smiles="[H:4][C:2]([H:5])([H:6])[O:1][H:3]" dataset="DES370K Monomers" energy=-3150.312704844758 pbc="F F F"
O       -0.07500330      -0.55104562       0.23455995      -6.49356069      -3.66736030       0.67898951
C        0.80857754       0.15786209      -0.38445622       3.90105926       1.10750158      -4.29037988
H       -0.69973290      -0.90296223      -0.47558370       1.14310519       0.44527792       2.08944086
H        0.99426782       1.06173285       0.08071941       0.97986293       1.68651162       1.58155867
H        1.69143557      -0.49941737      -0.50296345       0.47351538       1.02882709      -0.23819966
H        0.52069259       0.54004481      -1.39116588      -0.00440649      -0.60080940       0.17892981
