31
Properties=species:S:1:pos:R:3:forces:R:3 id=20526 bond=C-O smiles="[H:30][C@@:14]12[C@:15]([C@@:13]([C@:11]([O:3][C@@:12]1([O:2][C:9]([O:5]2)([C:8]([H:21])([H:22])[H:23])[O:1][C:7]([H:18])([H:19])[H:20])[H:28])([H:27])[C:10]([H:24])([H:25])[H:26])([H:29])[O:4][H:16])([H:31])[O:6][H:17]" dataset=PubChem energy=-21876.873891066687 pbc="F F F"
O        2.30665926      -0.74316025       2.00476089      45.93596895     -15.37345781      74.60955505
O        2.16342521       0.65573904       0.71306725      -0.29202422       3.51404076      -2.35223284
O        1.12944764       2.83293121       0.59227912       0.09541741      -0.82792177       0.98770813
O       -2.12856841       2.08539515      -0.93729853       1.15439709       0.63536346       0.09255329
O        0.42665809      -0.45111782       1.56061597      -5.20588726       2.16112769      -0.58515233
O       -2.18207073       0.60976582       1.51210124       0.45313744      -0.76936845       0.42204394
C        1.89447538      -1.80311168       2.90740553       0.83768601      -1.35584179       2.25341303
C        1.97950530      -1.71772296       0.19837703      -1.60202770       0.26410885      -3.00267439
C        1.82125103      -0.60045082       1.25604762     -41.70034197      12.85315687     -69.13181882
C        1.14990192       2.00043767      -1.64713131       1.07964725      -0.86977313      -1.75297470
C        0.32691240       2.61330931      -0.58104025      -1.40099661      -0.31514280      -0.07973174
C        1.41631418       1.68941062       1.41188199       0.97866343      -0.15331900      -1.09054122
C       -0.89488399       1.64988940      -0.30764769      -0.85388369      -0.03862683       0.90124332
C        0.17463058       0.93891521       1.88773764      -0.00194411       0.24004003      -0.00577710
C       -1.10852063       1.50136035       1.22460641       1.01664658      -1.13558871      -0.46686196
H       -2.76746249       1.37112104      -0.98457562       0.34343575      -0.15875689       0.31074672
H       -1.77947188      -0.24369551       1.81858672      -0.55557558       1.25023746      -0.67399475
H        2.46801309      -1.75213874       3.83879152       0.21230620       0.30462303      -0.60429529
H        2.06579702      -2.77204240       2.44540516       0.12130686       0.24575891      -0.12459797
H        0.84172283      -1.72833550       3.19018903       0.45526762       0.35957672      -0.55075547
H        2.98994636      -2.07119806       0.05562301       0.45258462       0.42178332       0.16108639
H        1.56239390      -1.39176519      -0.76407741       0.25012957      -0.32107833       0.18316019
H        1.41426938      -2.56528575       0.50857068      -0.60265077      -0.63829671       0.10329689
H        0.71037860       2.16725462      -2.64257728      -0.05201734      -0.06261198       0.35645236
H        1.24637717       0.91581537      -1.50116311       0.00232957       0.45900073      -0.09609377
H        2.17479980       2.38379161      -1.69617687      -0.29699703       0.16579379       0.19411417
H       -0.06593907       3.58887641      -0.96021139       0.36323426      -0.59252103       0.93459215
H        2.06476903       2.02332680       2.25392152      -0.68979767       0.32130663      -0.75412067
H       -0.66279829       0.65605133      -0.69460856       0.12485420       0.08074769       0.06113884
H        0.11016303       1.14582621       2.97550357      -0.24165728      -0.72428254      -0.36320937
H       -1.27314281       2.48318987       1.65577377      -0.37807784       0.05613217       0.06439640
