31
Properties=species:S:1:pos:R:3:forces:R:3 id=20526 bond=C-O smiles="[H:30][C@@:14]12[C@:15]([C@@:13]([C@:11]([O:3][C@@:12]1([O:2][C:9]([O:5]2)([C:8]([H:21])([H:22])[H:23])[O:1][C:7]([H:18])([H:19])[H:20])[H:28])([H:27])[C:10]([H:24])([H:25])[H:26])([H:29])[O:4][H:16])([H:31])[O:6][H:17]" dataset=PubChem energy=-21885.741873381623 pbc="F F F"
O        2.34710995      -0.75505270       2.06715366      17.37482433      -6.08593283      29.30975782
O        2.12297452       0.66763149       0.65067448      -0.16797671       1.86865081      -1.16700507
O        1.08899695       2.84482366       0.52988635       0.13361953      -0.92341213       0.98171217
O       -2.16901910       2.09728760      -0.99969130       1.17181108       0.63080889       0.09988335
O        0.38620740      -0.43922537       1.49822320      -3.03523527       1.45006262      -0.22209868
O       -2.22252142       0.62165827       1.44970847       0.47278211      -0.78616708       0.41450050
C        1.93492607      -1.81500413       2.96979830       0.44859761      -0.52198600       0.98350140
C        1.93905461      -1.70583051       0.13598426      -1.15758601       0.71147344      -1.70259861
C        1.78080034      -0.58855837       1.19365485     -15.23155625       4.68790120     -25.95273918
C        1.10945123       2.01233012      -1.70952408       1.08194632      -0.86142238      -1.74730743
C        0.28646171       2.62520176      -0.64343302      -1.41833176      -0.30560569      -0.09820236
C        1.37586349       1.70130307       1.34948922       0.90340321      -0.01619454      -0.91107573
C       -0.93533468       1.66178185      -0.37004046      -0.87152429      -0.02758484       0.89209061
C        0.13417989       0.95080766       1.82534487       0.06978285       0.38577912       0.09544774
C       -1.14897132       1.51325280       1.16221364       1.02278343      -1.18022583      -0.48538226
H       -2.80791318       1.38301349      -1.04696839       0.33915922      -0.15934413       0.30952241
H       -1.81992257      -0.23180306       1.75619395      -0.59184809       1.24866671      -0.65455197
H        2.50846378      -1.76403119       3.90118429       0.17991938       0.30091178      -0.59454518
H        2.10624771      -2.78393485       2.50779793       0.07052589       0.09247056      -0.09272255
H        0.88217352      -1.74022795       3.25258180       0.28946564       0.28951197      -0.45567279
H        2.94949567      -2.05930561      -0.00676976       0.41108941       0.41897567       0.15293343
H        1.52194321      -1.37987274      -0.82647018       0.22665057      -0.19991559       0.27205683
H        1.37381869      -2.55339330       0.44617791      -0.58675831      -0.63023101       0.22366268
H        0.66992791       2.17914707      -2.70497005      -0.04863493      -0.06721403       0.36061922
H        1.20592648       0.92770782      -1.56355588      -0.00109974       0.45531994      -0.10117150
H        2.13434911       2.39568406      -1.75856964      -0.29714748       0.16755213       0.19193989
H       -0.10638976       3.60076886      -1.02260416       0.36491089      -0.59481182       0.93506676
H        2.02431834       2.03521925       2.19152875      -0.69288626       0.27500071      -0.77373690
H       -0.70324898       0.66794378      -0.75700133       0.12340863       0.07855808       0.05620196
H        0.06971234       1.15771866       2.91311080      -0.21971012      -0.75562214      -0.39364196
H       -1.31359350       2.49508232       1.59338100      -0.36389681       0.05136286       0.07035590
