31
Properties=species:S:1:pos:R:3:forces:R:3 id=20526 bond=C-O smiles="[H:30][C@@:14]12[C@:15]([C@@:13]([C@:11]([O:3][C@@:12]1([O:2][C:9]([O:5]2)([C:8]([H:21])([H:22])[H:23])[O:1][C:7]([H:18])([H:19])[H:20])[H:28])([H:27])[C:10]([H:24])([H:25])[H:26])([H:29])[O:4][H:16])([H:31])[O:6][H:17]" dataset=PubChem energy=-21886.61760462551 pbc="F F F"
O        2.65915809      -0.84679447       2.54846933      -1.68691454      -0.02419466      -1.41157130
O        1.81092638       0.75937326       0.16935881       0.60305003      -1.65540633       1.70571406
O        0.77694881       2.93656543       0.04857068       0.25088933      -1.23148628       1.02312936
O       -2.48106724       2.18902937      -1.48100697       1.27981663       0.60164394       0.15139168
O        0.07415926      -0.34748360       1.01690753       1.70631440       0.09692652       0.96326960
O       -2.53456956       0.71340004       0.96839280       0.58304718      -0.80537004       0.37240066
C        2.24697421      -1.90674590       3.45111397      -0.16193476       0.95926367      -1.41430268
C        1.62700647      -1.61408874      -0.34533141       0.39425896       0.43824300       0.86510959
C        1.46875220      -0.49681660       0.71233918      -1.87693090       1.83650936      -1.25638278
C        0.79740309       2.10407189      -2.19083975       1.10371164      -0.79919046      -1.69585520
C       -0.02558643       2.71694353      -1.12474869      -1.50657036      -0.26456849      -0.19520521
C        1.06381535       1.79304484       0.86817355       0.50661916       0.78184465      -0.44552792
C       -1.24738282       1.75352362      -0.85135613      -0.96488378       0.03929543       0.84892617
C       -0.17786825       1.04254943       1.34402920       0.07846783       0.97410706       0.39280219
C       -1.46101946       1.60499457       0.68089797       0.94631819      -1.29435031      -0.55317517
H       -3.11996132       1.47475526      -1.52828406       0.31343381      -0.16396537       0.30119970
H       -2.13197071      -0.14006129       1.27487828      -0.72610810       1.23370389      -0.57345438
H        2.82051192      -1.85577296       4.38249996       0.18843063       0.26704528      -0.25873769
H        2.41829585      -2.87567662       2.98911360       0.00919933      -0.25712943       0.05020282
H        1.19422166      -1.83196972       3.73389747      -0.08177253       0.04487235      -0.06637763
H        2.63744753      -1.96756384      -0.48808543       0.30604991       0.35531275       0.12925574
H        1.20989507      -1.28813097      -1.30778585       0.17764864       0.28571698       0.47995319
H        1.06177055      -2.46165153      -0.03513776      -0.48814307      -0.55260747       0.42586428
H        0.35787977       2.27088884      -3.18628572      -0.03318352      -0.09891709       0.38284413
H        0.89387834       1.01944959      -2.04487155      -0.01507465       0.40707585      -0.12676587
H        1.82230097       2.48742583      -2.23988531      -0.30013349       0.17666267       0.17977079
H       -0.41843790       3.69251063      -1.50391983       0.37483848      -0.60614399       0.94272737
H        1.71227020       2.12696102       1.71021308      -0.64486202       0.07824146      -0.83948701
H       -1.01529712       0.75968555      -1.23831700       0.11901430       0.05517842       0.02943514
H       -0.24233580       1.24946043       2.43179513      -0.13903552      -0.90670653      -0.49669059
H       -1.62564164       2.58682409       1.11206533      -0.31593944       0.03283508       0.09077269
