9
Properties=species:S:1:pos:R:3:forces:R:3 id=18750 bond=C-S smiles="[H:5][C:2]([H:6])([H:7])[C:3]([H:8])([H:9])[S:1][H:4]" dataset="DES370K Monomers" energy=-13009.721452054357 pbc="F F F"
S        1.21316136       0.44577795       0.98765519       3.69645053       2.79327728       3.74800896
C        0.57294513      -0.63932514      -1.21023896       0.69545528      -1.59406083      -2.75331727
C        0.13542609      -0.51198172       0.19474678      -3.86583028      -1.04240726      -1.46091732
H        0.87719418       1.67975652       0.57714882      -0.21980736      -0.29962668      -0.19321198
H        1.51954470      -1.22822773      -1.37219634      -0.39722177       0.99739210       0.86763423
H        0.68568497       0.30122880      -1.79307273      -0.28932023      -0.58289329       0.64141264
H       -0.06892702      -1.33587014      -1.73489180      -0.80847967       0.26613916      -0.48343775
H       -0.89129145      -0.05299119       0.31699616       0.88541569      -0.69541918      -0.53297799
H        0.04028486      -1.49716567       0.65438244       0.30415396       0.16081276       0.16518973
