9
Properties=species:S:1:pos:R:3:forces:R:3 id=18750 bond=C-S smiles="[H:5][C:2]([H:6])([H:7])[C:3]([H:8])([H:9])[S:1][H:4]" dataset="DES370K Monomers" energy=-13002.671191334337 pbc="F F F"
S        1.09640671       0.34202065       0.90175678      27.73181099      24.63411810      22.71162814
C        0.68969978      -0.53556784      -1.12434055      -0.11996390      -2.69013530      -4.21122180
C        0.25218074      -0.40822442       0.28064519     -26.15714353     -21.18664025     -18.27883917
H        0.76043953       1.57599922       0.49125041       0.29842795       0.21099029      -0.02731461
H        1.63629935      -1.12447043      -1.28629793      -0.41802264       1.01848154       0.99817551
H        0.80243962       0.40498610      -1.70717432      -0.31240500      -0.51350188       0.77883362
H        0.04782763      -1.23211284      -1.64899339      -0.84285135       0.19443703      -0.73842096
H       -0.77453680       0.05076611       0.40289457      -0.03788939      -1.40315539      -0.95677533
H        0.15703951      -1.39340837       0.74028085      -0.14310274      -0.25949859      -0.27632908
