9
Properties=species:S:1:pos:R:3:forces:R:3 id=18750 bond=C-S smiles="[H:5][C:2]([H:6])([H:7])[C:3]([H:8])([H:9])[S:1][H:4]" dataset="DES370K Monomers" energy=-13007.015887539203 pbc="F F F"
S        1.14131234       0.38192731       0.93479463      13.89067599      12.09332634      11.90573640
C        0.64479415      -0.57547450      -1.15737840       0.20745183      -2.21357647      -3.52104833
C        0.20727511      -0.44813108       0.24760734     -13.08163429      -9.35958365      -8.46374012
H        0.80534516       1.61590588       0.52428826       0.04620347      -0.07264554      -0.09777575
H        1.59139372      -1.16437709      -1.31933578      -0.40326624       1.00971037       0.93686107
H        0.75753399       0.36507944      -1.74021217      -0.29873946      -0.54326486       0.70982602
H        0.00292200      -1.27201950      -1.68203124      -0.81445458       0.23586396      -0.62936720
H       -0.81944243       0.01085945       0.36985672       0.40365512      -1.09066029      -0.76767178
H        0.11213388      -1.43331503       0.70724300       0.04429626      -0.06172743      -0.07821914
