38
Properties=species:S:1:pos:R:3:forces:R:3 id=2677 bond=C-O smiles="[H:32][C:11]1([C:13]2([C:14]([C:15]([C:18]3([O:5]1)[C:12]([O:2][C:17]([O:6]3)([C:9]([H:26])([H:27])[H:28])[C:10]([H:29])([H:30])[H:31])([H:34])[H:35])([H:38])[O:1][H:19])([O:4][C:16]([O:3]2)([C:7]([H:20])([H:21])[H:22])[C:8]([H:23])([H:24])[H:25])[H:37])[H:36])[H:33]" dataset=PubChem energy=-25063.435097322956 pbc="F F F"
O       -0.66052350       2.70141649      -1.44782255       0.50958451      -1.48996307       0.64579666
O        3.40745772       0.49416671      -1.44456813      -0.56201684      -0.75508629      -0.92770724
O       -1.19472026      -1.92418547       1.91441264       0.95821406      -0.84309330      -1.30724795
O       -1.23203157       0.19058926       1.12455138       0.94463906       0.62284252       0.36866570
O        1.48875929      -1.69872291      -0.65825996      -0.42005962       0.17062813      -0.10804203
O        1.74306751       0.55605482       0.07801559      -0.97171624      -0.90442921       0.19122738
C       -3.08012925      -0.59927492       2.48981323      -0.03309538      -0.42917246       0.03394131
C       -0.87017714      -0.13006457       3.51946428       0.43569473       0.47335275      -0.03334007
C        3.94209541      -0.10630153       0.85318076       0.39183828       0.47623819      -0.47277199
C        3.39793218       2.24636118       0.16191032       0.14920689       0.70662731       0.15497847
C        0.92449767      -2.14072140       0.57019913       0.24471611       1.21763626       1.83563196
C        2.17930270       0.10389258      -2.08640048       0.39298816       0.03849409      -0.34041437
C       -0.61173200      -1.94778533       0.57972704       0.50548289      -1.44523154       0.46120789
C       -1.06353592      -0.64076848      -0.01736710      -1.23819004       1.91436665      -0.32526825
C       -0.17886996      -0.08367876      -1.17059646      -0.00509744      -1.36346621       1.83203415
C       -1.58088766      -0.60228349       2.26907196      -0.20899461      -0.00091726      -0.92476024
C        3.10704912       0.79688697      -0.09641937       1.17443078      -0.35177208       0.75145960
C        1.30743057      -0.31774630      -0.93473217      -0.20985391       2.04288936       0.35887428
H       -0.42928024       3.14189303      -0.59517668      -0.15137365      -0.94677316      -0.70344264
H       -3.26553380      -1.14347531       3.41491058      -0.19594082       0.00581728      -0.06347756
H       -3.43716799       0.41328226       2.59932616      -0.12727400       0.22753126      -0.02345274
H       -3.60395037      -1.11443968       1.68084040       0.10835709       0.22139632       0.06994994
H       -1.14393305       0.91086690       3.72553995       0.06212416      -0.20254955      -0.14730111
H       -1.18631875      -0.71535833       4.38787511       0.15740828      -0.04812454      -0.30416551
H        0.21744848      -0.17854139       3.39477947      -0.30010694      -0.05440385       0.04809916
H        3.54409492      -0.09014542       1.86104908      -0.05931351       0.30509850       0.11758849
H        4.98558677       0.24494098       0.86138653      -0.40937211      -0.09504380       0.08198529
H        3.95918549      -1.13885153       0.54018488      -0.17762402      -0.21742676      -0.35212388
H        3.32993616       2.48029368       1.22403046      -0.02065251      -0.05186949      -0.03881334
H        4.40630830       2.46538846      -0.17736134       0.12093678      -0.07747213       0.10049921
H        2.73694289       2.91730325      -0.38322661      -0.19401363      -0.24982725      -0.04470011
H        1.41347260      -1.61968596       1.45449623      -0.70179075      -0.32395919      -1.14288283
H        1.15622098      -3.18838842       0.70225888       0.09465597      -0.16871542      -0.34512168
H        2.27148486      -0.71377517      -2.81103799       0.59170686       0.17894383       0.30522359
H        1.74341274       0.96398990      -2.60491750      -0.08027777      -0.08510014       0.23674612
H       -0.99297702      -2.82210715      -0.00192842      -0.20518983       0.76717410       0.63787188
H       -2.07146155      -0.76245822      -0.39266179      -0.17116132      -0.25060954      -0.55021904
H       -0.44608437      -0.56855158      -2.11387680      -0.39739758       0.98587033      -0.07698726
