39
Properties=species:S:1:pos:R:3:forces:R:3 id=12195 bond=C-C smiles="[H:29][c:13]1[c:12]([c:15]2[c:16]([c:14]([c:17]1[C:23]3([C:11]4=[C:6]([C:5](=[C:7]([N:18]4[C:8]5=[C:10]([C:9](=[C:4]([S:3]5)[H:24])[C:21]([H:34])([H:35])[H:36])[C:22]([N:19]3[H:31])([H:37])[H:38])[H:27])[H:25])[H:26])[H:39])[H:30])[O:2][C:20]([O:1]2)([H:32])[H:33])[H:28]" dataset=PubChem energy=-36853.42895073518 pbc="F F F"
O        2.77888319      -0.85195597      -3.64964949      -0.18312439      -0.82176246       1.41212570
O        2.71422359      -1.68946000      -1.42888247       0.63405962      -0.34396485      -0.63186172
S        0.20064898      -0.18972134       4.34843341       0.11544550      -0.26474233      -0.35307171
C        1.60950656       0.77226916       4.57694427      -0.48278656       1.05547473      -1.24005534
C       -2.76972668      -1.47506285       1.40237740       0.24334117       0.56646475      -0.37126055
C       -2.50456040      -0.61690306       0.27630261       0.88956817       0.39272183       1.28452047
C       -1.96307747      -1.05963742       2.43103925      -0.35661226      -0.10918325      -1.14683049
C       -0.14474623       0.54535546       2.79678122       1.25119722       0.95692032       0.33726989
C        1.75109918       1.71649385       3.59035102      -0.52384573      -0.79641638       0.58545813
C        0.74859461       1.56356084       2.52081695       0.43265686      -0.35865339       0.52245314
C       -1.51586430       0.30864522       0.65588510      -2.48954706      -2.59796978       0.99585993
C        0.86635184       0.66334411      -3.34053599       0.00058645       0.09280481       0.53037796
C       -0.04606399       1.22274039      -2.41217457       1.40848787      -0.53586942      -1.17179408
C        0.78428403      -0.26599290      -0.71602010       1.15976505      -0.32531168       0.49850728
C        1.75845847      -0.29402645      -2.91228067      -0.67602838       0.70380932      -0.14674382
C        1.73649165      -0.77512105      -1.60408174      -1.63855757       1.46486024      -0.19540575
C       -0.07358596       0.79394881      -1.10678183       3.27283599      -2.42835170      -3.57285390
N       -1.16238337       0.02115250       1.99666671      -1.27949350      -0.84494080      -0.46001191
N       -0.46165924       2.48039055       0.50132646       1.02672031       0.50476705      -0.57248421
C        3.24291131      -1.89866014      -2.76027190       0.50456325      -0.74234640      -0.51658805
C        2.81825287       2.78559494       3.68591562       0.39373432      -0.86302441      -0.42931496
C        0.81127338       2.36116433       1.23281882      -0.41465391      -0.00392977      -0.24176339
C       -1.00000481       1.34894788      -0.24472287      -2.61482636       2.09578322       3.29226339
H        2.27458782       0.68509010       5.40760890      -0.11961790      -0.19492068       0.46639908
H       -3.49357264      -2.29704666       1.42887393       0.48701832       0.51511951       0.10255647
H       -2.96465008      -0.70806312      -0.69987520       0.16257050       0.26096951       0.18386743
H       -1.95133154      -1.52857685       3.39512006       0.50189451       0.42043748       0.28048960
H        0.90279588       1.00165741      -4.35674941      -0.02209360       0.13961668      -0.27134806
H       -0.65214565       2.03513805      -2.76513492      -0.39011337       0.09597561       0.12785279
H        0.79064828      -0.62050815       0.32716683      -0.12568579       0.12930572      -0.70147498
H       -1.16685121       2.80087805       1.11577967      -0.62022170       0.46992994       0.67563511
H        2.93577000      -2.89600821      -3.13308655      -0.30229613       0.56716111       0.18202214
H        4.33045098      -1.89418145      -2.75249420      -0.03021662       0.28771133       0.27774714
H        2.38247461       3.75171614       3.87150041      -0.19164752       0.40046586       0.12948764
H        3.29082710       2.82575655       2.70537368       0.38048982       0.26392352       0.11282629
H        3.59570844       2.58337641       4.46954480      -0.88308322       0.02460239      -0.77437957
H        1.59985561       1.94747710       0.56434078      -0.60234906       0.35109206       0.38430980
H        1.07730869       3.39976835       1.46690396       0.23001225      -0.33928019       0.01107463
H       -1.89447873       1.72564495      -0.80441328       0.85456532      -0.19048038       0.40184584
