39
Properties=species:S:1:pos:R:3:forces:R:3 id=12195 bond=C-C smiles="[H:29][c:13]1[c:12]([c:15]2[c:16]([c:14]([c:17]1[C:23]3([C:11]4=[C:6]([C:5](=[C:7]([N:18]4[C:8]5=[C:10]([C:9](=[C:4]([S:3]5)[H:24])[C:21]([H:34])([H:35])[H:36])[C:22]([N:19]3[H:31])([H:37])[H:38])[H:27])[H:25])[H:26])[H:39])[H:30])[O:2][C:20]([O:1]2)([H:32])[H:33])[H:28]" dataset=PubChem energy=-36830.70168994399 pbc="F F F"
O        2.60903973      -0.75020614      -3.49160535      -0.13448459      -0.90057978       1.37310320
O        2.54438013      -1.58771017      -1.27083833       0.61908939      -0.37203008      -0.68830671
S        0.37049244      -0.29147117       4.19038927       0.11489107      -0.27636599      -0.35920959
C        1.77935002       0.67051933       4.41890013      -0.49242598       1.06431360      -1.25463738
C       -2.59988322      -1.57681268       1.24433326       0.36150076       0.62447096      -0.32103144
C       -2.33471694      -0.71865289       0.11825847       0.85172526       0.57770809       1.15417056
C       -1.79323401      -1.16138725       2.27299511      -0.42626181      -0.31274379      -1.12995252
C        0.02509723       0.44360563       2.63873708       1.11619179       0.96428334       0.34620776
C        1.92094264       1.61474402       3.43230688      -0.50914607      -0.79265894       0.59225364
C        0.91843807       1.46181101       2.36277281       0.44458038      -0.32953953       0.51186050
C       -1.34602084       0.20689539       0.49784096      -4.80200307      -2.36366830       3.25303230
C        0.69650838       0.76509394      -3.18249185       0.04404080       0.29254829       0.49649611
C       -0.21590745       1.32449022      -2.25413043       3.60650341      -1.41374031      -3.54674271
C        0.61444057      -0.16424307      -0.55797596       4.00854017      -1.60832675      -1.07224718
C        1.58861501      -0.19227662      -2.75423653      -0.64059879       0.74950186      -0.20948923
C        1.56664819      -0.67337122      -1.44603760      -1.52569834       1.52684474       0.02343408
C       -0.24342942       0.89569864      -0.94873769      81.08039139     -49.64551040     -77.81428750
N       -0.99253991      -0.08059733       1.83862257      -1.59043695      -0.55885969      -0.20403417
N       -0.29181578       2.37864072       0.34328232       0.82235831       2.64326560       1.32393260
C        3.07306785      -1.79691031      -2.60222776       0.49141659      -0.74087602      -0.54236013
C        2.98809633       2.68384511       3.52787148       0.39160108      -0.86197801      -0.43187744
C        0.98111684       2.25941450       1.07477468      -0.37397548      -0.12080897      -0.22721848
C       -0.83016135       1.24719805      -0.40276701     -81.35094760      47.85199294      76.09081645
H        2.44443128       0.58334027       5.24956476      -0.11914496      -0.19430387       0.46525204
H       -3.32372918      -2.39879649       1.27082979       0.49076144       0.51908942       0.09281129
H       -2.79480662      -0.80981295      -0.85791934       0.16948711       0.25727711       0.17314423
H       -1.78148808      -1.63032668       3.23707592       0.52229732       0.39559824       0.26938253
H        0.73295242       1.10340724      -4.19870527      -0.03211333       0.09809613      -0.31420494
H       -0.82198911       2.13688788      -2.60709078      -0.60258659       0.00297851       0.29583699
H        0.62080482      -0.51875832       0.48521097       0.15095804       0.08877838      -1.12965678
H       -0.99700775       2.69912822       0.95773553      -0.70434654       0.50159798       0.82895960
H        2.76592654      -2.79425838      -2.97504241      -0.29983982       0.56333833       0.18215131
H        4.16060752      -1.79243162      -2.59445006      -0.02705927       0.28555501       0.27605539
H        2.55231807       3.64996631       3.71345627      -0.19125873       0.40107859       0.13189941
H        3.46067056       2.72400672       2.54732954       0.38250649       0.26251028       0.11229294
H        3.76555190       2.48162658       4.31150066      -0.88423242       0.02539598      -0.77606642
H        1.76969907       1.84572727       0.40629664      -0.56536270       0.34524599       0.37041856
H        1.24715215       3.29801852       1.30885982       0.16743268      -0.33359865      -0.06472978
H       -1.72463527       1.62389512      -0.96245742      -0.56145208       0.78389658       1.72022335
