39
Properties=species:S:1:pos:R:3:forces:R:3 id=12195 bond=C-C smiles="[H:29][c:13]1[c:12]([c:15]2[c:16]([c:14]([c:17]1[C:23]3([C:11]4=[C:6]([C:5](=[C:7]([N:18]4[C:8]5=[C:10]([C:9](=[C:4]([S:3]5)[H:24])[C:21]([H:34])([H:35])[H:36])[C:22]([N:19]3[H:31])([H:37])[H:38])[H:27])[H:25])[H:26])[H:39])[H:30])[O:2][C:20]([O:1]2)([H:32])[H:33])[H:28]" dataset=PubChem energy=-36846.20153194104 pbc="F F F"
O        2.67080099      -0.78720608      -3.54907595      -0.16235641      -0.85988395       1.39351460
O        2.60614139      -1.62471011      -1.32830893       0.62837455      -0.35691530      -0.66141296
S        0.30873118      -0.25447123       4.24785987       0.11529699      -0.27144530      -0.35501935
C        1.71758876       0.70751927       4.47637073      -0.48761768       1.06099151      -1.24807945
C       -2.66164448      -1.53981274       1.30180386       0.29781336       0.59272005      -0.35166241
C       -2.39647820      -0.68165295       0.17572907       0.87258724       0.48880004       1.24849056
C       -1.85499527      -1.12438731       2.33046571      -0.38557026      -0.21086092      -1.13664749
C       -0.03666403       0.48060557       2.69620768       1.18807154       0.95981784       0.34029563
C        1.85918138       1.65174396       3.48977748      -0.51568077      -0.79453033       0.59055684
C        0.85667681       1.49881095       2.42024341       0.43964935      -0.34522614       0.50965123
C       -1.40778210       0.24389533       0.55531156      -3.73868177      -2.50105141       2.22114136
C        0.75826964       0.72809400      -3.23996245       0.01658791       0.20070677       0.50390370
C       -0.15414619       1.28749028      -2.31160103       2.50154894      -0.98895270      -2.36504726
C        0.67620183      -0.20124301      -0.61544656       2.54194036      -0.95835732      -0.29086855
C        1.65037627      -0.22927656      -2.81170713      -0.65036819       0.72034874      -0.18594282
C        1.62840945      -0.71037116      -1.50350820      -1.57698606       1.49675838      -0.08501296
C       -0.18166816       0.85869870      -1.00620829      30.13353633     -18.74201109     -29.50007767
N       -1.05430117      -0.04359739       1.89609317      -1.42010214      -0.70761883      -0.37571816
N       -0.35357704       2.41564066       0.40075292       0.85145034       1.54323358       0.39777511
C        3.13482911      -1.83391025      -2.65969836       0.49857448      -0.74206861      -0.52698158
C        2.92633507       2.72084505       3.58534208       0.39289677      -0.86247047      -0.43060031
C        0.91935558       2.29641444       1.13224528      -0.38862148      -0.02705129      -0.22714144
C       -0.89192261       1.28419799      -0.34529641     -29.84462537      17.71202126      28.38438166
H        2.38267002       0.62034021       5.30703536      -0.11920398      -0.19471709       0.46574185
H       -3.38549044      -2.36179655       1.32830039       0.48841282       0.51647993       0.09914744
H       -2.85656788      -0.77281301      -0.80044874       0.16591744       0.25814806       0.17781406
H       -1.84324934      -1.59332674       3.29454652       0.51144792       0.40903686       0.27507827
H        0.79471368       1.06640730      -4.25617587      -0.02264898       0.11833671      -0.29158001
H       -0.76022785       2.09988794      -2.66456138      -0.48553624       0.05157105       0.19388303
H        0.68256608      -0.55575826       0.42774037      -0.00318748       0.09880071      -0.89655556
H       -1.05876901       2.73612816       1.01520613      -0.64317357       0.49584657       0.75376062
H        2.82768780      -2.83125832      -3.03251301      -0.30104904       0.56534926       0.18204682
H        4.22236878      -1.82943156      -2.65192066      -0.02864625       0.28654744       0.27673065
H        2.49055681       3.68696625       3.77092687      -0.19144478       0.40056348       0.13045920
H        3.39890930       2.76100666       2.60480014       0.38102759       0.26321759       0.11258350
H        3.70379064       2.51862652       4.36897126      -0.88369258       0.02486735      -0.77506943
H        1.70793781       1.88272721       0.46376724      -0.57897395       0.35366576       0.38681264
H        1.18539089       3.33501846       1.36633042       0.20129331      -0.33995422      -0.02275896
H       -1.78639653       1.66089506      -0.90498682       0.20263019       0.28454940       1.08071289
