47
Properties=species:S:1:pos:R:3:forces:R:3 id=12485 bond=C-C smiles="[H:34][c:12]1[c:10]([c:14]([c:11]([c:13]([c:15]1[C:18]([H:38])([H:39])[N:16]([C:9](=[S:1])[S:8][H:31])[C:19]([H:40])([H:41])[C@@:21]([H:44])([C@:23]([H:46])([C@@:24]([H:47])([C@@:22]([H:45])([C:20]([H:42])([H:43])[O:3][H:26])[O:5][H:28])[O:7][H:30])[O:6][H:29])[O:4][H:27])[H:35])[H:33])[C:17]([H:36])([H:37])[O:2][H:25])[H:32]" dataset=PubChem energy=-51395.818314724114 pbc="F F F"
S        2.84914483       3.22068493      -1.45444415       0.09013957       0.11845577       0.26829080
O       -4.52733789      -1.55520136      -2.24614737      -0.53988983       0.55540011       0.26302032
O       -0.05205432       3.35722100       3.11277964      -0.98322353      -0.35133450      -0.91929332
O        1.11075409       2.51749938       0.88897582      -0.20587254      -0.87426025       0.57006210
O        0.68634463       1.63550710       5.19351174      -1.34907100       0.15618136      -0.50329018
O        1.28998228      -0.85542596       2.29871800      -0.10097705       0.31188727       0.18983481
O        2.62807288       0.09770244       4.18378951      -0.36370437       0.49386128       0.58276247
S        2.73896922       1.62337201      -3.81824896      -0.28558508      -0.95576361      -0.58438437
C        2.58509173       1.70257287      -2.09304259      -0.10918656      -1.42816119       2.35422113
C       -1.90406452      -0.30870945      -2.05425546       1.18396747      -0.38854767      -0.12340818
C       -1.42687104      -2.07184965      -0.53243289       1.14650741      -0.68863461      -0.32245030
C       -0.53734241      -0.12867791      -2.31524060      -0.46736115       0.05839312       0.11662699
C       -0.03821300      -1.94832666      -0.77967808      -0.58564040       0.69422693      -0.63964135
C       -2.36540256      -1.31515832      -1.21319792       0.71241493       0.26018957       0.47090435
C        0.40062169      -0.98082680      -1.71985004      -0.47049166      -0.09777182       1.34837989
N        2.34280731       0.56155757      -1.30217955       0.18785517       1.08143391      -1.97054286
C       -3.83304534      -1.53824003      -0.99701855      -0.34193836      -0.27717919      -0.25463817
C        1.87790968      -0.73995561      -1.90480826      -0.18048545       0.75402333      -0.01295493
C        2.49252750       0.60816263       0.17911928       0.12055119      -0.24359855      -0.01804198
C        1.15316900       3.55045258       3.78601028       0.21596499      -0.21346844      -0.12656086
C        1.22252400       1.08507286       0.92352413      -0.23560687      -0.10072229      -1.71089023
C        1.66369178       2.20735120       4.34606864       0.02440793       0.92851881      -0.87539028
C        1.09375950       0.56634155       2.32182874       0.69323388      -0.81853162       1.25438122
C        2.14795222       1.14616346       3.30155017      -0.15764245       0.47438786       1.26481237
H       -4.15333829      -2.18663342      -2.86056588       0.28711140      -0.13081186       0.24927655
H        0.15078720       3.13656103       2.17552998      -0.07611222       0.15023925       0.66907797
H        1.46176954       2.84420435       0.04296114       0.13965330       0.04871317       0.08549247
H       -0.20098713       1.80208659       4.77475335       1.33000082      -0.21673000       0.48481714
H        1.70758608      -1.03586746       3.17127730      -0.24243825       0.02983379      -0.68278518
H        2.23904600       0.33672475       5.06354834       0.42159544      -0.78668371      -1.13868385
H        2.85801615       2.95167987      -3.89849160       0.02316483      -0.08369442      -0.10434663
H       -2.61420165       0.29770232      -2.54138205      -0.66142492       0.69670302      -0.48656926
H       -1.77732525      -2.85060580       0.13127723       0.08286417       0.04408772       0.14198219
H       -0.21541778       0.72054704      -2.94946835      -0.17985115      -0.77392771       0.38831698
H        0.69759466      -2.57265837      -0.25188921      -0.52430768       0.38580697      -0.27108977
H       -4.00174985      -2.50019128      -0.48019252       0.14176001       0.47752839       0.02623742
H       -4.27366052      -0.71895285      -0.38842241       0.16831882      -0.56851727      -0.52035082
H        2.08004309      -0.79736383      -2.97194908       0.35404972       0.43829481       0.03912027
H        2.42132749      -1.54223330      -1.44122300       0.36785999      -0.20370732       0.27387318
H        3.31143393       1.28484015       0.39956399       0.03908120       0.16000631      -0.07217781
H        2.81730165      -0.39170529       0.54447909      -0.58906615       0.62637238      -0.47933052
H        1.87145605       4.00078808       3.09462526       0.23757726      -0.04652519       0.33449975
H        0.89002791       4.25437486       4.57869412       0.59195370      -0.18949846       0.21729303
H        0.36770720       0.64541867       0.39050027       0.19452242       0.17114785      -0.02922513
H        2.53684463       2.37929689       4.97836711      -0.00575596       0.17574527      -0.03692810
H        0.08385327       0.76280777       2.66927053      -0.07632465       0.19311955       0.12145713
H        2.99571529       1.53865659       2.73572280      -0.02336262      -0.04332139       0.17365778
