26
Properties=species:S:1:pos:R:3:forces:R:3 id=23554 bond=C-C smiles="[H:21][c:9]1[c:7]([c:11]([c:15]([c:17]([c:13]1[H:25])[C:6](=[C:5]([Cl:1])[Cl:2])[c:18]2[c:14]([c:10]([c:8]([c:12]([c:16]2[Cl:4])[H:24])[H:20])[H:22])[H:26])[Cl:3])[H:23])[H:19]" dataset=PubChem energy=-64750.30430222989 pbc="F F F"
Cl      -2.46263593       3.63995086       0.14877445       1.15964203      -0.24416539      -0.23534729
Cl       0.08155826       4.08110916      -1.44706600      -0.88613964      -0.24089708       0.83493947
Cl       0.97617190      -0.06516898      -2.73057773      -0.64773057       0.20769080      -0.48908333
Cl      -0.10166051       2.28900897       3.23205669       0.67399249       0.36789515       0.18999957
C       -0.84166783       3.12763034      -0.27360277       2.88319006      -3.84309919       0.05562575
C       -0.26659078       1.89080822       0.13933588      -1.00950449       1.73890768      -0.32060828
C        4.35865830      -0.53188659      -0.66770246      -3.16149533       1.58939851      -0.78737681
C       -2.68225426      -0.66657961       2.71472580      -0.35361920      -0.96679410       0.29610127
C        4.16214965       0.28825165       0.45765350       0.16200517       0.68055136      -0.47450645
C       -2.72487873      -0.78586472       1.29841692      -1.44965186      -0.83242018      -0.85495196
C        3.37906669      -0.55824501      -1.71519735       1.83183451      -0.45568751       0.83614272
C       -1.70808691       0.15519970       3.26783735      -0.47962453       0.64874462      -2.27885981
C        2.97478818       1.01356660       0.66017956      -1.42991609      -0.05541062      -2.17894637
C       -1.93311424       0.04097950       0.51421847       1.09656101      -0.29593116      -1.11864329
C        2.17127489       0.15044015      -1.53182485       0.09042429      -0.13689376       0.99965877
C       -0.95457894       1.03684657       2.44496531      -0.99591285      -1.10949660       0.52128240
C        1.92454706       0.88111942      -0.36259457       0.45937167       0.87905491       1.81566368
C       -1.04369348       0.96151937       1.05947662       0.97630716       1.10940347      -0.05924932
H        5.26124166      -1.03694756      -0.73329594       1.44255370      -0.88741513      -0.46345426
H       -3.37438196      -1.21522165       3.47416431       1.34289884       0.77982556      -1.91395858
H        5.08104776       0.53174432       1.02567146      -0.99901814      -0.40666054       0.16573300
H       -3.41364092      -1.50429762       0.71005400       1.08781460       1.23450480       1.50203452
H        3.64183830      -1.11949737      -2.67654016      -0.87564037       0.90169520       1.57228131
H       -1.64512867       0.19880354       4.30430633       0.28847104       0.35488229       1.55942199
H        2.89987765       1.76633160       1.44809363      -0.19895253      -0.53880188      -0.22917781
H       -1.78332478       0.01017391      -0.59470706      -1.00623561      -0.48218398       1.05827732
