26
Properties=species:S:1:pos:R:3:forces:R:3 id=23554 bond=C-C smiles="[H:21][c:9]1[c:7]([c:11]([c:15]([c:17]([c:13]1[H:25])[C:6](=[C:5]([Cl:1])[Cl:2])[c:18]2[c:14]([c:10]([c:8]([c:12]([c:16]2[Cl:4])[H:24])[H:20])[H:22])[H:26])[Cl:3])[H:23])[H:19]" dataset=PubChem energy=-64748.60183918753 pbc="F F F"
Cl      -2.70837102       3.75318699       0.20506572       1.07386928      -0.19888633      -0.23327504
Cl      -0.16417683       4.19434529      -1.39077473      -0.88187942      -0.21889941       0.82541035
Cl       1.22190699      -0.17840511      -2.78686900      -0.64765887       0.18634226      -0.51877946
Cl      -0.34739560       2.40224510       3.28834796       0.63399325       0.30905476       0.15862852
C       -1.08740292       3.24086647      -0.21731150       2.98251607      -3.92632327       0.07522043
C       -0.51232587       2.00404435       0.19562715      -2.59262416       2.39099950       0.11760185
C        4.60439339      -0.64512272      -0.72399373      -3.16733854       1.59497719      -0.78629675
C       -2.92798935      -0.55334348       2.77101707      -0.34984375      -0.96473455       0.31880116
C        4.40788474       0.17501552       0.40136223       0.17875658       0.57742116      -0.53376406
C       -2.97061382      -0.67262859       1.35470819      -1.44784790      -0.79294190      -0.93497399
C        3.62480178      -0.67148114      -1.77148862       1.91222772      -0.46395495       0.87527448
C       -1.95382200       0.26843583       3.32412862      -0.46468029       0.67906954      -2.27922226
C        3.22052327       0.90033047       0.60388829      -1.62601413       0.08501619      -2.09522470
C       -2.17884933       0.15421563       0.57050974       1.02880306      -0.42602716      -1.15789978
C        2.41700998       0.03720402      -1.58811612      -0.07908396      -0.01066313       1.02556478
C       -1.20031403       1.15008270       2.50125658      -0.91442335      -1.06095295       0.72271265
C        2.17028215       0.76788329      -0.41888584       1.95092884       0.00118247       1.48750682
C       -1.28942857       1.07475550       1.11576789       1.29942723       1.23859813      -0.32110531
H        5.50697675      -1.15018369      -0.78958721       1.44364332      -0.88564946      -0.46162144
H       -3.62011705      -1.10198552       3.53045558       1.34412743       0.77873007      -1.91453339
H        5.32678285       0.41850819       0.96938019      -1.00084604      -0.38086180       0.17173912
H       -3.65937601      -1.39106149       0.76634527       1.08764093       1.23916624       1.50256630
H        3.88757339      -1.23273350      -2.73283143      -0.88737160       0.89319229       1.56121533
H       -1.89086376       0.31203967       4.36059760       0.28755444       0.35999497       1.55703262
H        3.14561274       1.65309547       1.39180236      -0.16381606      -0.52307205      -0.22816406
H       -2.02905987       0.12341004      -0.53841579      -0.99643480      -0.48679602       1.06899803
