26
Properties=species:S:1:pos:R:3:forces:R:3 id=23554 bond=C-C smiles="[H:21][c:9]1[c:7]([c:11]([c:15]([c:17]([c:13]1[H:25])[C:6](=[C:5]([Cl:1])[Cl:2])[c:18]2[c:14]([c:10]([c:8]([c:12]([c:16]2[Cl:4])[H:24])[H:20])[H:22])[H:26])[Cl:3])[H:23])[H:19]" dataset=PubChem energy=-64749.881430122055 pbc="F F F"
Cl      -2.51383074       3.66354172       0.16050180       1.14095493      -0.23549792      -0.23416163
Cl       0.03036345       4.10470002      -1.43533865      -0.88594778      -0.23540323       0.83295594
Cl       1.02736671      -0.08875984      -2.74230508      -0.64628984       0.20305795      -0.49374271
Cl      -0.15285532       2.31259983       3.24378404       0.66744422       0.35525657       0.18308784
C       -0.89286264       3.15122120      -0.26187542       2.91212167      -3.86041354       0.05516913
C       -0.31778559       1.91439908       0.15106323      -1.39124620       1.90076197      -0.21616763
C        4.40985311      -0.55547745      -0.67942981      -3.16227632       1.59062934      -0.78721230
C       -2.73344907      -0.64298875       2.72645315      -0.35257138      -0.96668498       0.30000383
C        4.21334446       0.26466079       0.44592615       0.16440338       0.65558995      -0.49126652
C       -2.77607354      -0.76227386       1.31014427      -1.45044416      -0.82391573      -0.86996519
C        3.43026150      -0.58183587      -1.72692470       1.85182847      -0.45702716       0.84880718
C       -1.75928172       0.17879056       3.27956470      -0.47760051       0.65518528      -2.27960784
C        3.02598299       0.98997574       0.64845221      -1.48404355      -0.01531617      -2.15465747
C       -1.98430905       0.06457036       0.52594582       1.08465958      -0.32029358      -1.12750273
C        2.22246970       0.12684929      -1.54355220       0.03556530      -0.10428890       0.99968429
C       -1.00577375       1.06043743       2.45669266      -0.97776991      -1.09788398       0.56094800
C        1.97574187       0.85752856      -0.37432192       0.83069047       0.65869851       1.74027721
C       -1.09488829       0.98511023       1.07120397       1.05435783       1.12846174      -0.11617049
H        5.31243647      -1.06053842      -0.74502329       1.44273154      -0.88699917      -0.46304737
H       -3.42557677      -1.19163079       3.48589166       1.34316330       0.77942876      -1.91401346
H        5.13224257       0.50815346       1.01394411      -1.00017331      -0.40035701       0.16736071
H       -3.46483573      -1.48070676       0.72178135       1.08776364       1.23540458       1.50206012
H        3.69303311      -1.14308823      -2.68826751      -0.87901093       0.90030255       1.56971492
H       -1.69632348       0.22239440       4.31603368       0.28830465       0.35611771       1.55897034
H        2.95107246       1.74274074       1.43636628      -0.19053978      -0.53574493      -0.22950404
H       -1.83451959       0.03376477      -0.58297971      -1.00359316      -0.48339878       1.06070342
