26
Properties=species:S:1:pos:R:3:forces:R:3 id=23554 bond=C-C smiles="[H:21][c:9]1[c:7]([c:11]([c:15]([c:17]([c:13]1[H:25])[C:6](=[C:5]([Cl:1])[Cl:2])[c:18]2[c:14]([c:10]([c:8]([c:12]([c:16]2[Cl:4])[H:24])[H:20])[H:22])[H:26])[Cl:3])[H:23])[H:19]" dataset=PubChem energy=-64753.934357007645 pbc="F F F"
Cl      -2.10427227       3.47481484       0.06668302       1.26772767      -0.26104336      -0.26602967
Cl       0.43992192       3.91597314      -1.52915743      -0.87817666      -0.29046991       0.85472596
Cl       0.61780824       0.09996704      -2.64848630      -0.64561600       0.22292842      -0.52384303
Cl       0.25670315       2.12387295       3.14996526       0.60991980       0.45099496       0.28927532
C       -0.48330417       2.96249432      -0.35569420       2.42106030      -3.70791554       0.19318062
C        0.09177288       1.72567220       0.05724445      -0.04981925       1.36549219      -0.65013177
C        4.00029464      -0.36675057      -0.58561103      -3.16824443       1.57178708      -0.79640872
C       -2.32389060      -0.83171563       2.63263437      -0.35828829      -0.97033218       0.28627028
C        3.80378599       0.45338767       0.53974493       0.15517776       0.88501474      -0.30263314
C       -2.36651507      -0.95100074       1.21632549      -1.42991612      -0.88092130      -0.78841021
C        3.02070303      -0.39310899      -1.63310592       1.67475500      -0.47080212       0.67839536
C       -1.34972325      -0.00993632       3.18574592      -0.46991462       0.61336664      -2.26644703
C        2.61642452       1.17870262       0.74227099      -0.56899241      -0.54558562      -2.42766880
C       -1.57475058      -0.12415652       0.43212704       1.12421839      -0.20891211      -1.07247846
C        1.81291123       0.31557617      -1.44973342       0.96985242      -0.52067932       1.03068580
C       -0.59621528       0.87171055       2.36287388      -1.10312853      -1.18912900       0.34694743
C        1.56618340       1.04625544      -0.28050314      -0.73795278       1.91911495       1.78017567
C       -0.68532982       0.79638335       0.97738519       0.12469116       1.14185401       0.41814122
H        4.90287800      -0.87181154      -0.65120451       1.44275849      -0.89152322      -0.46731990
H       -3.01601830      -1.38035767       3.39207288       1.34073407       0.78366746      -1.91261711
H        4.72268410       0.69688034       1.10776289      -0.97299255      -0.45200727       0.15102488
H       -3.05527726      -1.66943364       0.62796257       1.08645126       1.23092577       1.50148296
H        3.28347464      -0.95436135      -2.59444873      -0.83705978       0.89867463       1.58815725
H       -1.28676501       0.03366752       4.22221490       0.28814984       0.34796344       1.56296489
H        2.54151399       1.93146762       1.53018506      -0.22626185      -0.57474478      -0.27671269
H       -1.42496112      -0.15496211      -0.67679849      -1.05552825      -0.47405993       1.07086990
