23
Properties=species:S:1:pos:R:3:forces:R:3 id=12062 bond=C-O smiles="[H:22][C:17]([H:23])([C:16]([F:2])([F:3])[F:4])[O:13][C:15]1=[C:14]([C:18]([C:20]([C:21]([C:19]1([F:7])[F:8])([F:11])[F:12])([F:9])[F:10])([F:5])[F:6])[F:1]" dataset=PubChem energy=-42999.13634628427 pbc="F F F"
F       -1.47591535      -0.81153227       0.25097553       1.07728141      -0.16885498      -0.61480647
F       -1.71558574       1.49432974       4.35106919       0.06531384       1.05690803      -0.40337264
F       -2.54365710       2.55504005       2.59821031       1.12734662       0.09312842       0.61071428
F       -0.55100730       3.16486626       3.42967340      -1.19891491      -0.93571893      -0.30686484
F        0.14976810      -1.19711281      -2.30309980       0.40251262       0.49496476       1.05556277
F        0.39967797      -2.54186512      -0.64121359       0.60390937      -0.29665224       0.22271364
F        1.62460358       2.69854830       0.06038714      -0.52837597      -0.93749918      -0.47489617
F        2.35730632       1.15554308       1.34602154       0.15100962      -0.38701913      -0.14623016
F        2.75127585      -1.37044204       0.13732166      -1.17153271       0.66324184      -0.37633099
F        2.73177584      -1.51634957      -1.99842065      -0.63825341       0.97785904       0.09584534
F        3.70708497       0.89808451      -0.99234765      -2.00517041      -0.06830394       0.15850570
F        1.80905457       1.19043850      -2.14990275       0.48765027      -0.39584033       0.96998528
O       -0.56448452       1.49623571       1.35093344       7.46820585      12.76896312     -30.57936752
C       -0.22586779      -0.41169751      -0.04857885       0.34720080       2.69106828       0.89520327
C        0.21558430       0.76989963       0.50722659       0.11849618      -1.52126282      -2.88330147
C       -1.38938657       2.10982149       3.17440531      -0.85035901      -0.14419296       2.36613223
C       -0.75332275       1.07141327       2.32104704      -5.98049782     -12.39541963      26.23407471
C        0.60387624      -1.26725555      -0.99980979      -1.22768698      -0.01855429      -0.29769661
C        1.62449248       1.34109114       0.21392510      -0.04681468       0.76810386       1.01390538
C        2.10830911      -0.86968613      -0.97611647       1.50450757      -1.29705871       0.10889336
C        2.33989485       0.67552832      -0.99646895       0.79847052      -0.20111580      -0.88920491
H        0.15674179       0.66810565       2.77234623      -0.00134009      -0.22551151       1.56892901
H       -1.47026137       0.23564883       2.20767436      -0.49679875      -0.53153443       1.67217324
