23
Properties=species:S:1:pos:R:3:forces:R:3 id=12062 bond=C-O smiles="[H:22][C:17]([H:23])([C:16]([F:2])([F:3])[F:4])[O:13][C:15]1=[C:14]([C:18]([C:20]([C:21]([C:19]1([F:7])[F:8])([F:11])[F:12])([F:9])[F:10])([F:5])[F:6])[F:1]" dataset=PubChem energy=-42999.29073599561 pbc="F F F"
F       -1.33995183      -0.50566012      -0.44750626       1.30092627      -0.15669477      -0.39265184
F       -1.85154926       1.18845759       5.04955098       0.36486606       0.60134839      -0.79224978
F       -2.67962062       2.24916790       3.29669210       1.20089284      -0.11276372       0.86769083
F       -0.68697082       2.85899411       4.12815519      -1.33662368      -1.25008459      -0.11340153
F        0.28573162      -0.89124066      -3.00158159       0.40674180       0.42171983       0.88738984
F        0.53564149      -2.23599297      -1.33969538       0.61054550      -0.48888019       0.18838389
F        1.76056710       3.00442045      -0.63809465      -0.48132735      -0.92514410      -0.51140760
F        2.49326984       1.46141523       0.64753975       0.19913039      -0.43385973      -0.19097657
F        2.88723937      -1.06456989      -0.56116013      -1.12739070       0.61664341      -0.33410098
F        2.86773936      -1.21047742      -2.69690244      -0.57557689       0.92302156       0.05439632
F        3.84304849       1.20395666      -1.69082944      -1.88864913      -0.08251744       0.08437057
F        1.94501809       1.49631065      -2.84838454       0.48315096      -0.40732240       0.90093311
O       -0.42852100       1.80210786       0.65245165       1.30473183      -2.19290213      -0.02937808
C       -0.08990427      -0.10582536      -0.74706064       0.13544435       1.70776800       0.16668396
C        0.35154782       1.07577178      -0.19125520      -1.75287233       0.68255614       1.09153137
C       -1.52535009       1.80394934       3.87288710      -0.27385289       1.66326441      -0.56532394
C       -0.88928627       0.76554112       3.01952883      -0.16597982      -1.49503269       0.26978050
C        0.73983976      -0.96138340      -1.69829158      -1.43484043       0.26798907      -0.09421704
C        1.76045600       1.64696329      -0.48455669       0.11904950       0.58999057       1.02130103
C        2.24427263      -0.56381398      -1.67459826       1.38046718      -1.19507751       0.09364616
C        2.47585837       0.98140047      -1.69495074       0.76157220      -0.10846657      -0.72563732
H        0.02077827       0.36223350       3.47082802       0.39459821       0.64078820      -0.86929847
H       -1.60622489      -0.07022332       2.90615615       0.36956418       0.74077268      -1.03172077
