23
Properties=species:S:1:pos:R:3:forces:R:3 id=12062 bond=C-O smiles="[H:22][C:17]([H:23])([C:16]([F:2])([F:3])[F:4])[O:13][C:15]1=[C:14]([C:18]([C:20]([C:21]([C:19]1([F:7])[F:8])([F:11])[F:12])([F:9])[F:10])([F:5])[F:6])[F:1]" dataset=PubChem energy=-42988.51510601669 pbc="F F F"
F       -1.49102241      -0.84551807       0.32858462       1.21447658      -0.18269587      -0.83565750
F       -1.70047868       1.52831554       4.27346010      -0.04086565       1.15702862      -0.23455574
F       -2.52855004       2.58902585       2.52060122       1.14366626       0.12522690       0.46847577
F       -0.53590024       3.19885206       3.35206431      -1.12687414      -0.85360349      -0.42005663
F        0.13466104      -1.23109861      -2.22549071       0.38976289       0.53490762       1.12438893
F        0.38457091      -2.57585092      -0.56360450       0.59287460      -0.21971222       0.23038163
F        1.60949652       2.66456250       0.13799623      -0.55331945      -0.94869937      -0.48288341
F        2.34219926       1.12155728       1.42363063       0.15652212      -0.36736583      -0.22471558
F        2.73616879      -1.40442784       0.21493075      -1.19717942       0.67826654      -0.39461211
F        2.71666878      -1.55033537      -1.92081156      -0.66166727       0.99198407       0.10883324
F        3.69197791       0.86409871      -0.91473856      -2.04966217      -0.06393157       0.17523388
F        1.79394751       1.15645270      -2.07229366       0.47953870      -0.39625069       0.98433885
O       -0.57959158       1.46224991       1.42854253      19.00467180      36.63687517     -86.11709810
C       -0.24097485      -0.44568331       0.02903024      -0.00128870       2.74433002       1.10912924
C        0.20047724       0.73591383       0.58483568       0.83811354      -1.74080553      -4.53333561
C       -1.37427951       2.14380729       3.09679622      -1.50663285      -0.19060680       4.05926033
C       -0.73821569       1.10539907       2.24343795     -16.96458500     -34.43287366      79.25752028
C        0.58876918      -1.30124135      -0.92220070      -1.11985906      -0.16264163      -0.37094880
C        1.60938542       1.30710534       0.29153419      -0.01822136       0.82660254       1.17640006
C        2.09320205      -0.90367193      -0.89850738       1.56346003      -1.32552298       0.12062497
C        2.32478779       0.64154252      -0.91885986       0.82099499      -0.22542163      -0.94083891
H        0.17184885       0.70209145       2.69473714       0.52626227      -0.86172039       3.01724421
H       -1.45515431       0.26963463       2.13006527      -1.48582764      -1.73169364       2.71202280
