23
Properties=species:S:1:pos:R:3:forces:R:3 id=12062 bond=C-O smiles="[H:22][C:17]([H:23])([C:16]([F:2])([F:3])[F:4])[O:13][C:15]1=[C:14]([C:18]([C:20]([C:21]([C:19]1([F:7])[F:8])([F:11])[F:12])([F:9])[F:10])([F:5])[F:6])[F:1]" dataset=PubChem energy=-43003.369509636825 pbc="F F F"
F       -1.43814771      -0.72656779       0.05695281       0.93481829      -0.21883272      -0.39649067
F       -1.75335338       1.40936526       4.54509191       0.25859769       0.84503145      -0.69540519
F       -2.58142474       2.47007557       2.79223303       1.17149604      -0.01302719       0.77766493
F       -0.58877494       3.07990178       3.62369612      -1.29318556      -1.11433601      -0.18496243
F        0.18753574      -1.11214833      -2.49712252       0.42272055       0.42911412       0.93779276
F        0.43744561      -2.45690064      -0.83523631       0.61369684      -0.41743769       0.20973870
F        1.66237122       2.78351278      -0.13363558      -0.48626906      -0.89508951      -0.47352233
F        2.39507396       1.24050756       1.15199882       0.17052342      -0.40352567      -0.10232865
F        2.78904349      -1.28547756      -0.05670106      -1.12923286       0.63876748      -0.34811312
F        2.76954348      -1.43138509      -2.19244337      -0.59304707       0.95085238       0.07202626
F        3.74485261       0.98304899      -1.18637037      -1.94064996      -0.07294273       0.13338059
F        1.84682221       1.27540298      -2.34392547       0.50137142      -0.39170076       0.94489186
O       -0.52671688       1.58120019       1.15691072       0.30683161      -0.53454733       1.37995786
C       -0.18810015      -0.32673303      -0.24260157       0.73168654       2.58606755       0.60102724
C        0.25335194       0.85486411       0.31320387      -0.52875558      -1.64068034      -0.95904685
C       -1.42715421       2.02485701       3.36842803      -0.37659291       0.73396515       0.41613953
C       -0.79109039       0.98644879       2.51506976       0.27663569      -0.94511305      -2.18399851
C        0.64164388      -1.18229107      -1.19383251      -1.39114051       0.23252014      -0.17002295
C        1.66226012       1.42605562       0.01990238      -0.09553440       0.67726496       0.93463138
C        2.14607675      -0.78472165      -1.17013919       1.40140301      -1.25212089       0.10029063
C        2.37766249       0.76049280      -1.19049167       0.74262495      -0.18009843      -0.81480244
H        0.11897415       0.58314117       2.96636895      -0.02856827       0.42667735      -0.15589427
H       -1.50802901       0.15068435       2.40169708       0.33116369       0.56909322      -0.00002579
