33
Properties=species:S:1:pos:R:3:forces:R:3 id=40570 bond=C-O smiles="[H:33][C@@:16]1([C@@:15]([C@:13]([O:3][C:12]([C@@:14]1([H:31])[O:4][H:17])([H:28])[H:29])([H:30])[N:7]([C:10]([H:24])([H:25])[C:8]([H:20])([H:21])[Cl:1])[C:11]([H:26])([H:27])[C:9]([H:22])([H:23])[Cl:2])([H:32])[O:5][H:18])[O:6][H:19]" dataset=PubChem energy=-44306.21689705823 pbc="F F F"
Cl      -0.83823344      -2.31543989      -2.77668709      -0.60678243      -1.17078888      -1.11731310
Cl       0.26700310       4.19935088      -2.06672853       0.58425756      -0.69996381      -0.01657351
O       -0.39160975       0.15841959       1.23830456       0.92506294       0.12895489       0.77289157
O        1.03944129       0.11580704       4.46459394       0.29423830       0.69162874      -0.33013584
O        3.00635401       0.24352126       2.25139874      -0.38246174       0.52155835       0.00799512
O        1.73994518       2.00721252       3.15811346     179.64258077      86.80602598     162.21744932
N        1.03224421       0.42614935      -0.64505571       0.16813718       0.37293354       1.15423322
C       -0.45302375      -1.46930546      -1.32316893       0.15237264       1.18604077       0.89965580
C        1.12354020       2.58963613      -1.89224046       0.54931738       0.04809786      -0.17175347
C        0.82512052      -0.66646249      -1.61684912      -0.60826298       1.19417265       0.48920760
C        0.37085653       1.77820151      -0.85926384       0.47136505      -1.89848756      -0.85797411
C       -0.52035232      -0.11109806       2.65653712       0.33397678      -0.11409780      -0.46496133
C        0.99589719       0.05023663       0.79878558      -0.00381697       0.68186937      -1.45409471
C        0.25709382       0.88231214       3.54152375      -4.79772020      -3.48657605      -0.38935386
C        1.95908216       1.00812619       1.58891207      -2.65949702      -7.16027551      -4.88076875
C        1.23206449       1.76266436       2.69188624    -173.03219632     -83.50451075    -154.06232382
H        1.74344948       0.68741274       4.81493860      -0.34485300      -0.16336292       0.03214041
H        2.62370292      -0.40501303       2.89004713       0.05416330       0.89730933      -0.79482285
H        2.56529320       2.17851436       2.65518664       3.91522225       2.31949857       2.13160595
H       -1.30638775      -0.81324763      -1.05520576       0.69304332      -0.42813674      -0.15316852
H       -0.26808151      -2.16809578      -0.49617237      -0.24815189       0.18292727      -0.37894315
H        1.11372170       2.09019749      -2.86154669      -0.04144917       0.31869439       0.03554038
H        2.19108538       2.74610262      -1.60122031      -1.04104927       0.12113018      -0.17829516
H        1.67009023      -1.35480828      -1.59047335       0.06663659       0.15435864       0.03154668
H        0.79265639      -0.23473973      -2.64191431      -0.10345980      -0.27025674       0.78486012
H        0.39619619       2.34498362       0.04479992      -0.24366108      -0.00505800       0.76774356
H       -0.66558250       1.64276968      -1.18112236       0.06949869       0.17918379       0.17300456
H       -0.13302001      -1.12424953       2.81889802      -0.08974859       0.07713219       0.26607891
H       -1.57896932      -0.09054465       2.90109139      -0.02230476      -0.09789379      -0.32763431
H        1.31674812      -1.00404282       0.96468824      -0.04569532       0.61687124      -0.37223731
H       -0.48155507       1.51888793       4.06000048       0.62987157       0.01770748       0.04709389
H        2.40841929       1.70512657       0.89534778       0.46242164       0.48545065       0.15928628
H        0.63853618       2.55538945       2.25309103      -4.73583088       1.99715077      -4.01359648
