33
Properties=species:S:1:pos:R:3:forces:R:3 id=40570 bond=C-O smiles="[H:33][C@@:16]1([C@@:15]([C@:13]([O:3][C:12]([C@@:14]1([H:31])[O:4][H:17])([H:28])[H:29])([H:30])[N:7]([C:10]([H:24])([H:25])[C:8]([H:20])([H:21])[Cl:1])[C:11]([H:26])([H:27])[C:9]([H:22])([H:23])[Cl:2])([H:32])[O:5][H:18])[O:6][H:19]" dataset=PubChem energy=-44347.03721784141 pbc="F F F"
Cl      -1.27889462      -2.52762139      -3.18120777      -0.59367833      -1.14044829      -1.08101567
Cl      -0.17365808       3.98716938      -2.47124921       0.58255551      -0.73719563       0.00271151
O       -0.83227093      -0.05376191       0.83378388       0.70003446       0.13338233       0.78041668
O        0.59878011      -0.09637446       4.06007326      -0.28074908       0.02892310      -0.03773240
O        2.56569283       0.03133976       1.84687806      -0.40012646      -0.48171157      -0.81383039
O        2.18060636       2.21939402       3.56263414      -2.68731530      -0.85863581      -2.33803403
N        0.59158303       0.21396785      -1.04957639       0.20791490       0.44388175       1.54486502
C       -0.89368493      -1.68148696      -1.72768961       0.14227660       1.16679978       0.86362934
C        0.68287902       2.37745463      -2.29676114       0.57654687       0.12495090      -0.16387392
C        0.38445934      -0.87864399      -2.02136980      -0.57325291       1.09420240       0.46901993
C       -0.06980465       1.56602001      -1.26378452       0.49199326      -1.88892255      -0.89221825
C       -0.96101350      -0.32327956       2.25201644       0.52085686      -0.16140036      -1.11770508
C        0.55523601      -0.16194487       0.39426490      -0.76447217       0.64911251      -1.39686397
C       -0.18356736       0.67013064       3.13700307       1.58458866       0.51779256       0.52881359
C        1.51842098       0.79594469       1.18439139       0.45881482      -1.27135840       2.37848978
C        0.79140331       1.55048286       2.28736556       0.56630336      -0.07330542       0.99436757
H        1.30278830       0.47523124       4.41041792      -0.28133852       0.10423510      -0.26554756
H        2.18304174      -0.61719453       2.48552645       0.10602162       1.08668912      -0.74840307
H        3.00595438       2.39069586       3.05970732      -1.06526826      -0.50388963      -0.02087310
H       -1.74704893      -1.02542913      -1.45972644       0.68272222      -0.42709133      -0.15674751
H       -0.70874269      -2.38027728      -0.90069305      -0.24360146       0.17483515      -0.37624480
H        0.67306052       1.87801599      -3.26606737      -0.05662651       0.30350746       0.05291702
H        1.75042420       2.53392112      -2.00574099      -1.05403008       0.11393823      -0.17298095
H        1.22942905      -1.56698978      -1.99499403       0.06565434       0.17236169       0.03426650
H        0.35199521      -0.44692123      -3.04643499      -0.09557588      -0.25857632       0.80530746
H       -0.04446499       2.13280212      -0.35972076      -0.20109496       0.02051110       0.67997533
H       -1.10624368       1.43058818      -1.58564304       0.07103392       0.17481606       0.18762246
H       -0.57368119      -1.33643103       2.41437734      -0.03302667       0.18100969       0.33696416
H       -2.01963050      -0.30272615       2.49657071       0.06456972       0.02672509      -0.19567079
H        0.87608694      -1.21622432       0.56016756       0.02854503       0.74500197      -0.32163536
H       -0.92221625       1.30670643       3.65547980       0.58031354      -0.11791669      -0.03988129
H        1.96775811       1.49294507       0.49082710       0.37597437      -0.16777288       0.01053167
H        0.19787500       2.34320795       1.84857035       0.52800750       0.82118396       0.47255973
