33
Properties=species:S:1:pos:R:3:forces:R:3 id=40570 bond=C-O smiles="[H:33][C@@:16]1([C@@:15]([C@:13]([O:3][C:12]([C@@:14]1([H:31])[O:4][H:17])([H:28])[H:29])([H:30])[N:7]([C:10]([H:24])([H:25])[C:8]([H:20])([H:21])[Cl:1])[C:11]([H:26])([H:27])[C:9]([H:22])([H:23])[Cl:2])([H:32])[O:5][H:18])[O:6][H:19]" dataset=PubChem energy=-44348.60624923479 pbc="F F F"
Cl      -1.15939328      -2.47008065      -3.07150724      -0.59792305      -1.14806393      -1.09018997
Cl      -0.05415674       4.04471012      -2.36154868       0.58087097      -0.72495086      -0.00096364
O       -0.71276959       0.00377883       0.94348441       0.73576140       0.16410659       0.77272605
O        0.71828145      -0.03883372       4.16977379      -0.27183965       0.02488545       0.00984646
O        2.68519417       0.08888050       1.95657859      -0.33675337      -0.48179409      -0.80578844
O        2.06110502       2.16185328       3.45293361      -2.49973015      -0.43643987      -2.42088481
N        0.71108437       0.27150859      -0.93987586       0.20601930       0.42305096       1.45841782
C       -0.77418359      -1.62394622      -1.61798908       0.14628683       1.17003054       0.87153276
C        0.80238036       2.43499537      -2.18706061       0.57435426       0.11029620      -0.16231799
C        0.50396068      -0.82110325      -1.91166927      -0.58780367       1.12278791       0.47637219
C        0.04969669       1.62356075      -1.15408399       0.49361111      -1.89840262      -0.87980436
C       -0.84151216      -0.26573882       2.36171697       0.51259400      -0.12430150      -0.94051803
C        0.67473735      -0.10440413       0.50396543      -0.57901046       0.70585647      -1.33652914
C       -0.06406602       0.72767138       3.24670360       1.20560207       0.21835597       0.10727089
C        1.63792232       0.85348543       1.29409192      -0.11068009      -1.67792728       1.92368995
C        0.91090465       1.60802360       2.39706609       1.38589760       0.41412532       1.77385845
H        1.42228964       0.53277198       4.52011845      -0.37568406       0.03380270      -0.30034139
H        2.30254308      -0.55965379       2.59522698       0.09246970       1.08171786      -0.76160300
H        2.88645304       2.33315512       2.95000679      -1.05516648      -0.46470182       0.23903310
H       -1.62754759      -0.96788839      -1.35002591       0.68447237      -0.42760688      -0.15610621
H       -0.58924135      -2.32273654      -0.79099252      -0.24471223       0.17714431      -0.37732452
H        0.79256186       1.93555673      -3.15636684      -0.05542304       0.30572695       0.05134097
H        1.86992554       2.59146186      -1.89604046      -1.05322692       0.11406024      -0.17351229
H        1.34893039      -1.50944904      -1.88529350       0.06577022       0.17025388       0.03506212
H        0.47149655      -0.38938049      -2.93673446      -0.09793690      -0.26225957       0.79959314
H        0.07503635       2.19034286      -0.25002023      -0.20349943       0.01238606       0.67882251
H       -0.98674234       1.48812892      -1.47594251       0.06885504       0.17765970       0.18264239
H       -0.45417985      -1.27889029       2.52407787      -0.04903879       0.15960043       0.32022113
H       -1.90012916      -0.24518541       2.60627124       0.04922310      -0.00394979      -0.21923503
H        0.99558828      -1.15868358       0.66986809       0.00930785       0.72217284      -0.33783462
H       -0.80271491       1.36424717       3.76518033       0.57823669      -0.11168892      -0.02121049
H        2.08725945       1.55048581       0.60052763       0.39917783      -0.14513092      -0.00745540
H        0.31737634       2.40074869       1.95827088       0.33413114       0.59532383       0.29463735
