37
Properties=species:S:1:pos:R:3:forces:R:3 id=18506 bond=C-O smiles="[H:33][C:14]([H:34])([C:15]([H:35])([H:36])[C:16]([H:37])([C:8]([H:21])([H:22])[Cl:1])[O:5][H:19])[C:12]([H:29])([H:30])[O:7][C:17]([C:13]([H:31])([H:32])[O:4][C:11]([H:27])([H:28])[C:10]([H:25])([H:26])[O:3][H:18])([C:9]([H:23])([H:24])[Cl:2])[O:6][H:20]" dataset=PubChem energy=-45986.85946386663 pbc="F F F"
Cl      -1.73938629       2.92396142      -1.28180488       0.02966700      -0.16783269      -0.84260218
Cl       2.53312077      -3.25851796      -0.34929469      -2.52449518       1.12361074       0.02980558
O        3.33650304       0.34156371       1.44362683       2.88179792       2.57361522      -1.08873334
O        1.85678520       0.92540729      -1.59151956       1.52662121      -0.25475773      -0.47031859
O       -1.88060710       3.38310411       2.56882862      -1.41907604      -0.62553002       2.28922950
O       -0.49638578      -0.38649175      -0.92518898       0.14198242      -1.64559720       0.27141887
O        1.21456202      -0.38611958       0.68439362      -1.47817896      -0.59887927      -0.71442623
C       -2.49596950       2.84223868       0.32953335       1.44885218       1.17211316      -0.26912240
C        0.77340083      -2.46284340      -0.50856777      -0.82611698      -1.50865564      -2.75813007
C        3.69122651       2.03197207      -0.29779842      -1.83817481      -1.48161109      -0.97930216
C        3.22557595       1.42369809      -1.66018733      -1.52650014      -1.28586288       2.50999600
C        0.32916337      -0.39836619       1.86036722      -1.96256721      -0.71982138      -2.46048719
C        1.70555367      -0.50317714      -1.71979853      -1.39784830       1.98192438      -1.75093101
C       -0.74147138       0.70633455       1.75412360       1.45087871       0.60762324      -1.21882319
C       -0.17878232       2.12587454       1.38667754      -0.78290756      -1.61570141       1.09566611
C       -1.34934709       3.12395670       1.30298725       2.06234264       2.49944066       1.04147024
C        0.78487831      -0.95312701      -0.61471047      -0.69297035       1.59671030       2.22259566
H        2.40002228       0.14992328       1.51282275       0.35483053       0.56557428      -0.92654470
H       -1.80597803       4.30418565       2.85120443       0.05836543      -0.61498042      -0.51348596
H       -0.41106901       0.56904771      -0.83642574       0.25017351      -0.01956139      -0.18914451
H       -3.23815939       3.65322997       0.33065615       0.16846891      -0.71291930       0.37780650
H       -2.86082026       1.84415539       0.42563270      -0.61625526      -0.30139962       0.29062228
H        0.05265817      -2.88766811       0.21689844       0.99701151       0.33824051      -0.14343283
H        0.36396977      -2.76817868      -1.56566795       1.01720698       0.05608742       2.01680464
H        4.70061448       2.19631233      -0.56231972       1.69878026      -0.12999034       1.25609550
H        3.21875336       2.98766734       0.00583271      -0.16323897      -1.23712319       0.39440801
H        3.19901135       2.33549919      -2.25875088       0.26715969      -0.24057278      -0.62682794
H        3.90921667       0.58897319      -2.00420471      -0.65030552       1.36248358       0.27261889
H       -0.25132230      -1.31740854       1.79206566       0.09386367      -0.28656968       0.27323750
H        0.87452188      -0.47517810       2.77169732       0.94179775       0.45160184       0.33339672
H        1.21523192      -0.62689505      -2.77848264       0.57786907      -0.38812019       2.19430815
H        2.57402017      -1.08390043      -1.68698856       1.72434395      -0.22775513       0.05260011
H       -1.43783853       0.30138656       1.01793942      -0.05377462       0.54922001       0.15061744
H       -1.26148912       0.91730591       2.64428094      -0.62000084      -0.47524482       1.39941994
H        0.32964933       2.12427189       0.45609093       0.52838556      -0.09551609      -0.85287674
H        0.60347967       2.33793296       2.17857412      -1.18062767       0.40953454      -0.87321179
H       -0.82295153       4.10426142       1.19554297      -0.49273218      -0.65566424      -1.79006271
