37
Properties=species:S:1:pos:R:3:forces:R:3 id=18506 bond=C-O smiles="[H:33][C:14]([H:34])([C:15]([H:35])([H:36])[C:16]([H:37])([C:8]([H:21])([H:22])[Cl:1])[O:5][H:19])[C:12]([H:29])([H:30])[O:7][C:17]([C:13]([H:31])([H:32])[O:4][C:11]([H:27])([H:28])[C:10]([H:25])([H:26])[O:3][H:18])([C:9]([H:23])([H:24])[Cl:2])[O:6][H:20]" dataset=PubChem energy=-45987.5173279396 pbc="F F F"
Cl      -1.75027692       2.87206292      -1.22834007       0.02926648      -0.16836053      -0.84045226
Cl       2.52223014      -3.31041646      -0.29582988      -2.52310484       1.12289343       0.03097135
O        3.34739367       0.39346221       1.39016202       3.00769873       2.90417320      -1.51407069
O        1.84589457       0.87350879      -1.53805475       1.49668532      -0.29055597      -0.44208113
O       -1.89149773       3.33120561       2.62229343      -1.41742057      -0.62714533       2.29123530
O       -0.50727641      -0.43839025      -0.87172417       0.15072893      -1.65156944       0.29057683
O        1.20367139      -0.43801808       0.73785843      -1.33059901      -0.62404222      -0.50897344
C       -2.50686013       2.79034018       0.38299816       1.45023911       1.17119889      -0.27199037
C        0.76251020      -2.51474190      -0.45510296      -0.83013460      -1.50657676      -2.74817506
C        3.68033588       1.98007357      -0.24433361      -2.02107276      -1.92036762      -0.48019482
C        3.21468532       1.37179959      -1.60672252      -1.47182792      -1.12599163       2.41725997
C        0.31827274      -0.45026469       1.91383203      -1.89565177      -0.71879844      -2.42133210
C        1.69466304      -0.55507564      -1.66633372      -1.39061372       2.00326456      -1.74838848
C       -0.75236201       0.65443605       1.80758841       1.44930554       0.60429311      -1.22646727
C       -0.18967295       2.07397604       1.44014235      -0.78372296      -1.61792893       1.09528390
C       -1.36023772       3.07205820       1.35645206       2.06183861       2.50385949       1.04074107
C        0.77398768      -1.00502551      -0.56124566      -0.68209153       1.60279441       2.17060150
H        2.41091291       0.20182178       1.45935794       0.14689679       0.58063892      -1.02812672
H       -1.81686866       4.25228715       2.90466924       0.05857340      -0.61464397      -0.51373475
H       -0.42195964       0.51714921      -0.78296093       0.25211480      -0.01623015      -0.19495756
H       -3.24905002       3.60133147       0.38412096       0.16869449      -0.71286286       0.37848581
H       -2.87171089       1.79225689       0.47909751      -0.61684603      -0.30112447       0.29085487
H        0.04176754      -2.93956661       0.27036325       0.99725148       0.33597028      -0.14366322
H        0.35307914      -2.82007718      -1.51220314       1.01852748       0.05998689       2.01792392
H        4.68972385       2.14441383      -0.50885491       1.68365817      -0.13839264       1.26030393
H        3.20786273       2.93576884       0.05929752      -0.14292056      -1.21933503       0.32034913
H        3.18812072       2.28360069      -2.20528607       0.25776086      -0.28438814      -0.65889220
H        3.89832604       0.53707469      -1.95073990      -0.65362608       1.35731042       0.28259361
H       -0.26221293      -1.36930704       1.84553047       0.09515872      -0.28446714       0.26594902
H        0.86363125      -0.52707660       2.82516213       0.95085347       0.45624352       0.31813149
H        1.20434129      -0.67879355      -2.72501783       0.57575300      -0.39093281       2.19346909
H        2.56312954      -1.13579893      -1.63352375       1.72292345      -0.22615749       0.05028492
H       -1.44872916       0.24948806       1.07140423      -0.05486123       0.55120750       0.15059651
H       -1.27237975       0.86540741       2.69774575      -0.61852513      -0.47657761       1.39970154
H        0.31875870       2.07237339       0.50955574       0.52839956      -0.09248152      -0.85510127
H        0.59258904       2.28603446       2.23203893      -1.18100737       0.41267256      -0.87175212
H       -0.83384216       4.05236292       1.24900778      -0.49264211      -0.65699601      -1.79024159
