37
Properties=species:S:1:pos:R:3:forces:R:3 id=18506 bond=C-O smiles="[H:33][C:14]([H:34])([C:15]([H:35])([H:36])[C:16]([H:37])([C:8]([H:21])([H:22])[Cl:1])[O:5][H:19])[C:12]([H:29])([H:30])[O:7][C:17]([C:13]([H:31])([H:32])[O:4][C:11]([H:27])([H:28])[C:10]([H:25])([H:26])[O:3][H:18])([C:9]([H:23])([H:24])[Cl:2])[O:6][H:20]" dataset=PubChem energy=-45972.90539595996 pbc="F F F"
Cl      -1.85451584       2.37532011      -0.71660546       0.02920946      -0.17863869      -0.80999996
Cl       2.41799122      -3.80715927       0.21590473      -2.48721606       1.10676916       0.04396837
O        3.45163259       0.89020502       0.87842741     -17.48992229     -80.98921059      85.89981515
O        1.74165565       0.37676598      -1.02632014       1.32305910      -0.63658329       0.67647835
O       -1.99573665       2.83446280       3.13402804      -1.39061994      -0.65561635       2.30110147
O       -0.61151533      -0.93513306      -0.35998956       0.12939392      -1.67834468       0.32491305
O        1.09943247      -0.93476089       1.24959304       0.57975356       0.17262008      -0.14627202
C       -2.61109905       2.29359737       0.89473277       1.46890738       1.14869726      -0.31289694
C        0.65827128      -3.01148471       0.05663165      -0.89648564      -1.48283810      -2.72888840
C        3.57609696       1.48333076       0.26740100      17.07655455      75.25418796     -80.21676527
C        3.11044640       0.87505678      -1.09498791      -0.73972944       1.45040918      -4.23146080
C        0.21403382      -0.94700750       2.42556664      -1.57471467      -0.62538216      -2.41440761
C        1.59042412      -1.05181845      -1.15459911      -1.52772408       2.04977892      -1.70250243
C       -0.85660093       0.15769324       2.31932302       1.45518263       0.58657007      -1.23050254
C       -0.29391187       1.57723323       1.95187696      -0.78099396      -1.68054431       1.10514354
C       -1.46447664       2.57531539       1.86818667       2.04656318       2.59291758       1.02279228
C        0.66974876      -1.50176832      -0.04951105      -0.76068066       1.59057543       2.10028364
H        2.51515183       0.69856459       0.94762333      -1.53555726      -2.42520461       1.77032297
H       -1.92110758       3.75554434       3.41640385       0.06123901      -0.60740741      -0.51820044
H       -0.52619856       0.02040640      -0.27122632       0.25403858      -0.01404151      -0.23761268
H       -3.35328894       3.10458866       0.89585557       0.17411452      -0.71149202       0.38989511
H       -2.97594981       1.29551408       0.99083212      -0.62493614      -0.29883709       0.29481117
H       -0.06247138      -3.43630942       0.78209786       1.00399067       0.31727494      -0.14152957
H        0.24884022      -3.31681999      -1.00046853       1.03160977       0.06417013       2.01929317
H        4.58548493       1.64767102       0.00287970       2.97078914       1.89273997      -1.26871599
H        3.10362381       2.43902603       0.57103213      -0.68546260       3.72634434      -1.88467428
H        3.08388180       1.78685788      -1.69355146       0.04562383      -0.54698249      -1.22472928
H        3.79408712       0.04033188      -1.43900529      -0.62859975       1.18184539       0.37796777
H       -0.36645185      -1.86604985       2.35726508       0.09620123      -0.28387573       0.23635885
H        0.75939233      -1.02381941       3.33689674       0.93371650       0.46042978       0.30368277
H        1.10010237      -1.17553636      -2.21328322       0.59920646      -0.36738809       2.18107813
H        2.45889062      -1.63254174      -1.12178914       1.71721439      -0.21266817      -0.00087388
H       -1.55296808      -0.24725475       1.58313884      -0.04674929       0.56458676       0.14803795
H       -1.37661867       0.36866460       3.20948036      -0.61912879      -0.47225467       1.39788375
H        0.21451978       1.57563058       1.02129035       0.47649494      -0.04878028      -0.91391828
H        0.48835012       1.78929165       2.74377354      -1.19467319       0.43835818      -0.81802620
H       -0.93808108       3.55562011       1.76074239      -0.49296882      -0.67599099      -1.79564975
