37
Properties=species:S:1:pos:R:3:forces:R:3 id=18506 bond=C-O smiles="[H:33][C:14]([H:34])([C:15]([H:35])([H:36])[C:16]([H:37])([C:8]([H:21])([H:22])[Cl:1])[O:5][H:19])[C:12]([H:29])([H:30])[O:7][C:17]([C:13]([H:31])([H:32])[O:4][C:11]([H:27])([H:28])[C:10]([H:25])([H:26])[O:3][H:18])([C:9]([H:23])([H:24])[Cl:2])[O:6][H:20]" dataset=PubChem energy=-45986.688400037725 pbc="F F F"
Cl      -1.73627468       2.93878957      -1.29708054       0.02984159      -0.16767660      -0.84316450
Cl       2.53623238      -3.24368981      -0.36457035      -2.52484327       1.12373599       0.02942743
O        3.33339143       0.32673556       1.45890249       2.83268485       2.48087176      -0.97738670
O        1.85989681       0.94023544      -1.60679522       1.53468068      -0.24519651      -0.47788093
O       -1.87749549       3.39793226       2.55355296      -1.41938696      -0.62503444       2.28859425
O       -0.49327417      -0.37166360      -0.94046464       0.13852656      -1.64366440       0.26504009
O        1.21767363      -0.37129143       0.66911796      -1.50041136      -0.58145538      -0.77224274
C       -2.49285789       2.85706683       0.31425769       1.44843135       1.17228407      -0.26845132
C        0.77651244      -2.44801525      -0.52384343      -0.82502644      -1.50924473      -2.76101615
C        3.69433812       2.04680022      -0.31307408      -1.78780635      -1.36651947      -1.11120678
C        3.22868756       1.43852624      -1.67546299      -1.54055775      -1.32720881       2.53322688
C        0.33227498      -0.38353804       1.84509156      -1.98084765      -0.71890473      -2.47375362
C        1.70866528      -0.48834899      -1.73507419      -1.40033624       1.97569355      -1.75168414
C       -0.73835977       0.72116270       1.73884794       1.45139287       0.60871975      -1.21628078
C       -0.17567071       2.14070269       1.37140188      -0.78257469      -1.61520560       1.09576711
C       -1.34623548       3.13878485       1.28771159       2.06241900       2.49834483       1.04165640
C        0.78798992      -0.93829886      -0.62998613      -0.69658148       1.59592754       2.23912208
H        2.39691067       0.13509513       1.52809841       0.41158292       0.55275100      -0.89109983
H       -1.80286642       4.31901380       2.83592877       0.05830001      -0.61506888      -0.51343183
H       -0.40795740       0.58387586      -0.85170140       0.24965467      -0.02071689      -0.18747291
H       -3.23504778       3.66805812       0.31538049       0.16840611      -0.71292745       0.37763609
H       -2.85770865       1.85898354       0.41035704      -0.61609125      -0.30148957       0.29056772
H        0.05576978      -2.87283996       0.20162278       0.99696473       0.33884371      -0.14335558
H        0.36708138      -2.75335053      -1.58094361       1.01684013       0.05491202       2.01647411
H        4.70372609       2.21114048      -0.57759538       1.70217621      -0.12654843       1.25357128
H        3.22186497       3.00249549      -0.00944295      -0.16838151      -1.24042946       0.41302916
H        3.20212296       2.35032734      -2.27402654       0.26942715      -0.22885918      -0.61862448
H        3.91232828       0.60380134      -2.01948037      -0.64933638       1.36378483       0.26985585
H       -0.24821069      -1.30258039       1.77679000       0.09355034      -0.28725961       0.27513500
H        0.87763349      -0.46034995       2.75642166       0.93767857       0.45003026       0.33865570
H        1.21834353      -0.61206690      -2.79375830       0.57851838      -0.38731441       2.19451022
H        2.57713178      -1.06907228      -1.70226422       1.72477843      -0.22820858       0.05314528
H       -1.43472692       0.31621471       1.00266376      -0.05336258       0.54862888       0.15056470
H       -1.25837751       0.93213406       2.62900528      -0.62047363      -0.47480540       1.39934670
H        0.33276094       2.13910004       0.44081527       0.52822695      -0.09631218      -0.85232304
H        0.60659128       2.35276111       2.16329846      -1.18059696       0.40867068      -0.87347948
H       -0.81983992       4.11908957       1.18026731      -0.49276957      -0.65529294      -1.79002197
