27
Properties=species:S:1:pos:R:3:forces:R:3 id=48493 bond=N-P smiles="[H:14][C:5]([H:15])([H:16])[C:9]([H:26])([C:6]([H:17])([H:18])[H:19])[N:3]([H:12])[P:11](=[S:2])([N:4]([H:13])[C:10]([H:27])([C:7]([H:20])([H:21])[H:22])[C:8]([H:23])([H:24])[H:25])[F:1]" dataset=PubChem energy=-32311.864974634438 pbc="F F F"
F        1.17613534      -1.38904077       3.65049088      -1.27192015       1.20457924      -1.80630623
S        0.12595507       1.21928692       4.29709040       0.30715611       0.23962749      -0.07381676
N        2.46279514       1.10798381       0.44820903      -2.10836654      -0.22716751      -1.38082832
N       -0.95420845      -0.23427141       2.02803075       1.41599613      -2.09632519      -0.37860065
C        1.81683577       3.63018595       0.26093237       1.19982553      -0.78935231      -2.00401800
C        2.95386684       2.33771644      -1.51666326       1.37369067       2.00457459      -1.45144174
C       -2.55693491      -1.99495942       1.19763795       0.46667405       0.43419589      -0.89349266
C       -0.53605648      -1.42190201      -0.14617396      -2.69365443      -0.69242062      -0.94401966
C        1.91036165       2.20889818      -0.45048497      -0.44461331      -0.09723536       2.02217222
C       -1.01946576      -1.54311294       1.25619707      -2.04700764      -0.42831993       1.18009331
P        0.48290543      -0.04064471       2.88637363       0.69011020       0.89850152       1.05592938
H        3.39426792       1.35392021       0.78247081      -0.28662306       0.59468654       0.42053929
H       -1.77634044       0.01225380       2.56896483       0.21400249      -0.18694244       0.01032264
H        1.07660804       3.76617824       0.95686261      -1.98980700      -0.41623803       1.76825569
H        1.65868074       4.47754489      -0.43008126       0.39681689      -0.62007726      -0.11559202
H        2.74551380       3.75284706       0.78992157       0.50525047       0.28543811       0.05242216
H        4.00584376       2.58294998      -1.12564011      -1.62317364      -0.26110882      -0.39969080
H        2.60537339       3.22620903      -2.15869314       0.75933817      -1.19864628       0.75166640
H        3.04326904       1.49467592      -2.18402965      -0.07115434      -0.37490276       0.04953483
H       -2.62793883      -2.93577153       0.59045231      -0.02225088       1.13254631       0.17534016
H       -2.89907416      -2.30004698       2.15770196      -0.21535790      -0.03314927       0.98458778
H       -3.29979022      -1.17460448       0.82821399       1.68371917      -1.41934758       0.34366228
H       -1.24552246      -0.78004605      -0.73595012       0.63996913      -0.59704040       0.50296399
H       -0.58950539      -2.45334775      -0.54408026       0.33279591       0.66171811      -0.17528172
H        0.40107772      -1.01184828      -0.22191442       2.39986697       0.78008560      -0.20616282
H        0.92481847       1.91357170      -0.95968528       1.38569864       0.14657155       1.21124041
H       -0.41198512      -2.34082467       1.81067967      -0.99249824       1.04726317      -0.70053798
