27
Properties=species:S:1:pos:R:3:forces:R:3 id=48493 bond=N-P smiles="[H:14][C:5]([H:15])([H:16])[C:9]([H:26])([C:6]([H:17])([H:18])[H:19])[N:3]([H:12])[P:11](=[S:2])([N:4]([H:13])[C:10]([H:27])([C:7]([H:20])([H:21])[H:22])[C:8]([H:23])([H:24])[H:25])[F:1]" dataset=PubChem energy=-32316.59216435249 pbc="F F F"
F        1.71900832      -1.07409424       2.98196188      -1.11783623       1.71303834      -2.44044227
S        0.66882805       1.53423345       3.62856140      -0.00738415      -0.10435701       0.84245148
N        1.91992216       0.79303728       1.11673803       3.72157737       1.80350662      -4.37241956
N       -0.41133547       0.08067512       1.35950175       1.01226840      -2.45729654       0.11214866
C        1.27396279       3.31523942       0.92946137       1.07657562      -0.92025728      -1.85940645
C        2.41099386       2.02276991      -0.84813426       0.94339816       2.37246047      -1.43426796
C       -2.01406193      -1.68001289       0.52910895       0.49689759       0.36138045      -0.95624024
C        0.00681650      -1.10695548      -0.81470296      -2.70663258      -0.74965978      -0.98438773
C        1.36748867       1.89395165       0.21804403      -0.24034753       0.79332910      -0.39800140
C       -0.47659278      -1.22816641       0.58766807      -2.14440496      -0.31101260       1.36322020
P        1.02577841       0.27430182       2.21784463      -4.79288532      -0.95124511       6.40187262
H        2.85139494       1.03897368       1.45099981      -0.19810638      -0.10297943      -0.41578252
H       -1.23346746       0.32720033       1.90043583       0.31304435      -0.38537289       0.02994132
H        0.53373506       3.45123171       1.62539161      -1.83839823      -0.36549914       1.67022132
H        1.11580776       4.16259836       0.23844774       0.44860840      -0.74368694      -0.21670749
H        2.20264082       3.43790053       1.45845057       0.46727399       0.30874244       0.11194967
H        3.46297078       2.26800345      -0.45711111      -1.61189846      -0.26704236      -0.39468991
H        2.06250041       2.91126250      -1.49016414       0.85696168      -1.25620438       0.73957089
H        2.50039606       1.17972939      -1.51550065      -0.06586511      -0.41102600       0.03512591
H       -2.08506585      -2.62082500      -0.07807669      -0.04937292       1.11824205       0.16723807
H       -2.35620118      -1.98510045       1.48917296      -0.19712474      -0.01860099       0.97973709
H       -2.75691724      -0.85965795       0.15968499       1.68557798      -1.41291435       0.34857086
H       -0.70264948      -0.46509952      -1.40447912       0.62211985      -0.60484092       0.47531577
H       -0.04663241      -2.13840122      -1.21260926       0.33230627       0.67814380      -0.19772529
H        0.94395070      -0.69690175      -0.89044342       2.33148454       0.68775198      -0.22563638
H        0.38194549       1.59862517      -0.29115628       1.64719640       0.21282999       1.32677094
H        0.13088786      -2.02587814       1.14215067      -0.97701719       1.01412422      -0.71576434
