10
Properties=species:S:1:pos:R:3:forces:R:3 id=40382 bond=C-O smiles="[H:7][C:3](=[C:4]([C:5]([H:9])([H:10])[O:2][H:6])[F:1])[H:8]" dataset=PubChem energy=-7958.380202822471 pbc="F F F"
F        0.82631094       0.16885624      -1.46968224      -0.40056391       0.25540026       2.01454571
O        2.00352258       1.21191753       1.85405940      -3.46115006      -3.26708526      -0.66755408
C       -1.09190442       0.70600512      -0.12126287       2.83580232       0.81246313      -1.59944413
C        0.27994910       0.37046900      -0.20633795      -3.67850063      -0.09082772       1.27616049
C        1.01615892      -0.12067718       1.03373895       1.64847357       1.00486572       0.43766480
H        2.73712141       1.42393335       1.30459333       0.76406379      -0.15329384      -1.10184165
H       -1.68674494       1.13013663       0.74750379       1.33650898      -1.21744633      -0.91959054
H       -1.53452541       0.89057007      -1.13394203       0.19757042      -0.23195508       1.11947574
H        0.29838733      -0.52227709       1.80177436       0.81531960       1.46115666      -0.53346383
H        1.66624949      -1.01617286       0.83557550      -0.05242344       1.42908454      -0.02064409
