10
Properties=species:S:1:pos:R:3:forces:R:3 id=40382 bond=C-O smiles="[H:7][C:3](=[C:4]([C:5]([H:9])([H:10])[O:2][H:6])[F:1])[H:8]" dataset=PubChem energy=-7959.262771046279 pbc="F F F"
F        0.87797531       0.23858503      -1.42675849      -0.37622430       0.23282413       1.93957793
O        1.95185821       1.14218874       1.81113565      -3.13285077      -3.02075499      -0.65259636
C       -1.04024005       0.77573391      -0.07833912       2.87841099       0.78053003      -1.65398335
C        0.33161347       0.44019779      -0.16341420      -4.06200425      -0.16562894       1.09243948
C        1.06782329      -0.05094839       1.07666270       1.94060949       1.13372188       0.84153372
H        2.68545704       1.35420456       1.26166958       0.73991652      -0.05607073      -0.94194548
H       -1.63508057       1.19986542       0.79042754       1.33174290      -1.21996858      -0.92134904
H       -1.48286104       0.96029886      -1.09101828       0.19880869      -0.19179846       1.11771097
H        0.35005170      -0.45254830       1.84469811       0.71697953       1.26414668      -0.70527725
H        1.71791386      -0.94644407       0.87849925      -0.23049956       1.24715895      -0.11301583
