10
Properties=species:S:1:pos:R:3:forces:R:3 id=40382 bond=C-O smiles="[H:7][C:3](=[C:4]([C:5]([H:9])([H:10])[O:2][H:6])[F:1])[H:8]" dataset=PubChem energy=-7959.732626943497 pbc="F F F"
F        0.96408261       0.35479969      -1.35521892      -0.34938504       0.21613818       1.75268842
O        1.86575091       1.02597408       1.73959608       1.25281721       2.20299281       2.01199863
C       -0.95413275       0.89194857      -0.00679955       2.87759596       0.78377332      -1.74003664
C        0.41772077       0.55641245      -0.09187463      -4.81267658      -0.53252597       0.57022215
C        1.15393059       0.06526627       1.14820227      -1.03344395      -2.99337920      -0.87921266
H        2.59934974       1.23798990       1.19013001       0.87243375       0.43400258      -0.41840856
H       -1.54897327       1.31608008       0.86196711       1.32069354      -1.22415795      -0.92337391
H       -1.39675374       1.07651352      -1.01947871       0.18880088      -0.12737469       1.11036843
H        0.43615900      -0.33633364       1.91623768       0.28261859       0.68000392      -1.03092685
H        1.80402116      -0.83022941       0.95003882      -0.59828920       0.56594151      -0.45468928
