46
Properties=species:S:1:pos:R:3:forces:R:3 id=42146 bond=C-C smiles="[H:33][C:7]1([C:8]([C:14]([C:10]([C:15]([C:9]1([H:37])[H:38])([H:46])[C:16]([C:5]([H:27])([H:28])[H:29])([C:6]([H:30])([H:31])[H:32])[C:11]([H:41])([H:42])[C:12]([H:43])([C:2]([H:18])([H:19])[H:20])[O:1][H:17])([H:39])[H:40])([H:45])[C:13]([H:44])([C:3]([H:21])([H:22])[H:23])[C:4]([H:24])([H:25])[H:26])([H:35])[H:36])[H:34]" dataset=PubChem energy=-18104.234046370322 pbc="F F F"
O        1.74967463      -2.15524226       3.64753952      -0.46933518      -0.50179954      -0.74934849
C        2.44086809      -0.37951940       4.96246185      -0.07372104       1.93625630       0.33111950
C       -0.13616411      -0.82462972      -2.96390352       1.25047741       0.48895823      -0.47312995
C       -0.13488655       1.47237963      -3.97130307      -0.08206817      -0.61166144       0.09354575
C       -0.20436594      -1.39575209       1.55579282       0.65659254      -5.39942499      -2.31536457
C       -1.25476269       0.36245655       2.69677844      -0.68806159       1.07724812      -0.55417264
C        0.23872934       3.05650991      -0.52471027       0.43020441       0.74274268       0.59239187
C        1.33289947       2.53467339      -1.45154807       0.00528623      -0.33990234      -0.01185085
C        0.26171978       2.34109539       0.82271855       0.64776926      -1.19264761       0.03635331
C        1.14293445       0.30508115      -0.41022894      -0.30613776      -0.85203575       0.34912248
C        1.24915887       0.10166922       2.81069317      -0.70346833      -0.16867735      -0.46290735
C        1.33996804      -0.81914943       4.01472654       0.97107998      -0.81406226       1.04097003
C       -0.11054174       0.68535127      -2.64108524      -0.72810688      -0.03474727       0.25550722
C        1.14671375       1.02702778      -1.74777469      -1.37666433       0.77454210      -0.03024604
C        0.09003781       0.79392886       0.60339894       0.32261203       0.81004874       0.07993135
C       -0.01232730      -0.07767469       1.92350819       0.73752928       5.10829228       0.33420393
H        1.86796160      -2.72486621       4.42700520      -0.22897396       0.79841319      -0.44559771
H        3.35845764      -0.07266682       4.41135898      -0.73829091      -0.06851363       0.26107364
H        2.04286726       0.48904810       5.56189718       0.79673423      -0.79806945      -0.36065203
H        2.75463231      -1.19314104       5.60678615      -0.23004939       0.02509805       0.33492271
H        0.91349460      -1.10097247      -3.23163471      -0.78354838      -0.12851634       0.24835916
H       -0.47134588      -1.41575378      -2.13606939      -0.01809682      -0.37180809       0.45365067
H       -0.74963562      -1.07908183      -3.82799539      -0.11295840       0.23725244       0.07305374
H       -0.16270654       2.52560729      -3.74109230       0.00143509       0.37187407      -0.30606223
H        0.73982698       1.24229938      -4.60955247      -0.25526441       0.17376105       0.47044727
H       -1.02486460       1.20136649      -4.57332430       0.39642704       0.21359767       0.45297583
H        0.77295470      -1.91868724       1.39848043      -0.96288652       0.24158615      -0.23108119
H       -0.67657736      -1.92526354       2.34810366      -0.40354117      -0.82088891       0.46222305
H       -0.82002023      -1.48511686       0.64202265       0.15664376      -0.18479322       0.42790461
H       -1.07149498       1.29619133       3.21831407      -0.13958277       0.15166032       0.14588317
H       -2.15195052       0.52361883       2.04012110       0.90389114      -0.21847276       0.39408422
H       -1.53640549      -0.38747948       3.41167226      -0.08509028      -0.24756827       0.44356220
H        0.32026994       4.15535420      -0.34084544      -0.00910076      -0.77629171      -0.36055519
H       -0.72076802       2.86084383      -0.97004292      -0.48385886       0.14615974      -0.31264558
H        1.38268019       3.09731668      -2.36941013      -0.14179729       0.24379981      -0.32333057
H        2.31541998       2.67534608      -0.98881111      -0.10894890      -0.08375507       0.11063429
H        1.21924289       2.56650967       1.34437516      -0.50976253      -0.24544699      -0.32242237
H       -0.53676145       2.67803877       1.46469834      -0.24510432       0.27621992       0.14990841
H        1.03351529      -0.77973896      -0.59245310       0.13935143       0.53444683       0.25265910
H        2.11180074       0.47617379       0.03174939       0.50128763      -0.16383632       0.17094125
H        1.23645242       1.14353895       3.10373678       0.15941033       0.10565849       0.59496833
H        2.16173227      -0.01987272       2.23817744       0.09150340      -0.22778065      -0.25685974
H        0.38826002      -0.87563937       4.56157913       0.11956668       0.09157969      -0.21726311
H       -1.07060055       0.92487535      -2.07757863       1.20886823      -0.12887128      -0.64581345
H        2.00059493       0.68502286      -2.30006060       0.51616338      -0.19813847      -0.39378606
H       -0.87424104       0.66447972       0.10278624      -0.12795349       0.03028167       0.21447569
