46
Properties=species:S:1:pos:R:3:forces:R:3 id=42146 bond=C-C smiles="[H:33][C:7]1([C:8]([C:14]([C:10]([C:15]([C:9]1([H:37])[H:38])([H:46])[C:16]([C:5]([H:27])([H:28])[H:29])([C:6]([H:30])([H:31])[H:32])[C:11]([H:41])([H:42])[C:12]([H:43])([C:2]([H:18])([H:19])[H:20])[O:1][H:17])([H:39])[H:40])([H:45])[C:13]([H:44])([C:3]([H:21])([H:22])[H:23])[C:4]([H:24])([H:25])[H:26])([H:35])[H:36])[H:34]" dataset=PubChem energy=-18095.523153471284 pbc="F F F"
O        1.72566980      -2.32000193       3.60157510      -0.46535629      -0.50863489      -0.74503969
C        2.41686326      -0.54427907       4.91649743      -0.08006293       1.96627767       0.31224020
C       -0.16016894      -0.98938939      -3.00986794       1.24960716       0.48560143      -0.46960939
C       -0.15889138       1.30761996      -4.01726749      -0.08138587      -0.60728395       0.09565727
C       -0.18036111      -1.23099242       1.60175724      -5.54315659     -50.80134178     -14.71356301
C       -1.27876752       0.19769688       2.65081402      -1.15100730       2.81553653      -0.05834294
C        0.21472451       2.89175024      -0.57067469       0.44093409       0.78055398       0.59517457
C        1.30889464       2.36991372      -1.49751249       0.00329718      -0.33380717      -0.00754209
C        0.23771495       2.17633572       0.77675413       0.69823426      -1.13704702      -0.10384142
C        1.11892962       0.14032148      -0.45619336      -0.31016401      -0.88347886       0.40811318
C        1.22515404      -0.06309045       2.76472875      -0.37971916       1.02672583       0.31537798
C        1.31596321      -0.98390910       3.96876212       0.91726014      -0.87641804       1.00963540
C       -0.13454657       0.52059160      -2.68704966      -0.72790048      -0.04021410       0.25206985
C        1.12270892       0.86226811      -1.79373911      -1.40413481       0.78470947      -0.02836087
C        0.06603298       0.62916919       0.55743452       0.81813956       2.36031612      -0.09412821
C       -0.03633213      -0.24243436       1.87754377       6.96302710      49.45793128      12.78045724
H        1.84395677      -2.88962588       4.38104078      -0.23205377       0.79124844      -0.44561241
H        3.33445281      -0.23742649       4.36539456      -0.73921229      -0.06839453       0.26283588
H        2.01886243       0.32428843       5.51593276       0.79745346      -0.79854262      -0.36530600
H        2.73062748      -1.35790071       5.56082173      -0.23640171       0.01501784       0.32562120
H        0.88948977      -1.26573214      -3.27759913      -0.78336538      -0.12761757       0.24752720
H       -0.49535071      -1.58051345      -2.18203381      -0.01853931      -0.37125857       0.45388816
H       -0.77364045      -1.24384150      -3.87395981      -0.11228917       0.23883686       0.07321290
H       -0.18671137       2.36084762      -3.78705672       0.00128784       0.37221087      -0.30674127
H        0.71582215       1.07753971      -4.65551689      -0.25559064       0.17303669       0.47122873
H       -1.04886943       1.03660682      -4.61928872       0.39730297       0.21285840       0.45454441
H        0.79695953      -1.75392757       1.44444485      -0.99147138      -0.71837659      -0.84508758
H       -0.65257253      -1.76050387       2.39406808      -0.17666831      -2.16272729       0.18922118
H       -0.79601540      -1.32035719       0.68798707      -0.31756548      -1.26105807       0.24511927
H       -1.09549981       1.13143166       3.17234965      -0.29896239       0.25403911       0.18467405
H       -2.17595535       0.35885916       1.99415668       0.91902439      -0.23840177       0.35283917
H       -1.56041032      -0.55223915       3.36570784       0.02823900      -0.26565000       0.38802375
H        0.29626511       3.99059453      -0.38680986      -0.01157424      -0.77026936      -0.37184185
H       -0.74477285       2.69608416      -1.01600734      -0.48611947       0.14810621      -0.31594640
H        1.35867536       2.93255701      -2.41537455      -0.14082811       0.23998049      -0.32394239
H        2.29141515       2.51058641      -1.03477553      -0.10887137      -0.08351152       0.11091401
H        1.19523806       2.40175000       1.29841074      -0.50744625      -0.24888709      -0.31918610
H       -0.56076628       2.51327910       1.41873392      -0.24548619       0.25424186       0.14856957
H        1.00951046      -0.94449863      -0.63841752       0.13233029       0.50675528       0.23491491
H        2.08779591       0.31141412      -0.01421503       0.49651485      -0.15650212       0.17241004
H        1.21244759       0.97877928       3.05777236       0.27882315       0.13058546       0.70821106
H        2.13772744      -0.18463239       2.19221302      -0.00629505      -0.27285791      -0.38007530
H        0.36425519      -1.04039904       4.51561471       0.11600618       0.09087440      -0.20534260
H       -1.09460538       0.76011568      -2.12354305       1.20575244      -0.12817652      -0.64627328
H        1.97659010       0.52026319      -2.34602502       0.51381279      -0.20421972      -0.38401426
H       -0.89824587       0.49972005       0.05682182      -0.16486543      -0.03949336       0.33731747
