46
Properties=species:S:1:pos:R:3:forces:R:3 id=42146 bond=C-C smiles="[H:33][C:7]1([C:8]([C:14]([C:10]([C:15]([C:9]1([H:37])[H:38])([H:46])[C:16]([C:5]([H:27])([H:28])[H:29])([C:6]([H:30])([H:31])[H:32])[C:11]([H:41])([H:42])[C:12]([H:43])([C:2]([H:18])([H:19])[H:20])[O:1][H:17])([H:39])[H:40])([H:45])[C:13]([H:44])([C:3]([H:21])([H:22])[H:23])[C:4]([H:24])([H:25])[H:26])([H:35])[H:36])[H:34]" dataset=PubChem energy=-18103.518943418043 pbc="F F F"
O        1.78808235      -1.89162677       3.72108260      -0.50822508      -0.44205782      -0.80367350
C        2.47927581      -0.11590391       5.03600493      -0.06584945       1.93051931       0.33457590
C       -0.09775639      -0.56101423      -2.89036044       1.24775955       0.48560256      -0.47148042
C       -0.09647883       1.73599512      -3.89775999      -0.08243766      -0.61328767       0.09308691
C       -0.24277366      -1.65936758       1.48224974       1.59328986       2.61038438      -0.24739306
C       -1.21635497       0.62607204       2.77032152      -0.66062646      -0.13583080      -0.92721130
C        0.27713706       3.32012540      -0.45116719       0.42077616       0.69553786       0.56952111
C        1.37130719       2.79828888      -1.37800499       0.01028372      -0.34131463      -0.01854319
C        0.30012750       2.60471088       0.89626163       0.64608056      -1.15369280       0.19775044
C        1.18134217       0.56869664      -0.33668586      -0.30756530      -0.83911694       0.33727053
C        1.28756659       0.36528471       2.88423625      -0.79495648      -1.07171937      -0.82677422
C        1.37837576      -0.55553394       4.08826962       0.97530943      -0.83855289       1.04499653
C       -0.07213402       0.94896676      -2.56754216      -0.72790503      -0.03456767       0.25550571
C        1.18512147       1.29064327      -1.67423161      -1.36475872       0.77486249      -0.02688104
C        0.12844553       1.05754435       0.67694202       0.06458644      -0.26678211      -0.05044190
C        0.02608042       0.18594080       1.99705127      -0.14699785      -1.97861826      -1.64679705
H        1.90636932      -2.46125072       4.50054828      -0.23669957       0.80802945      -0.44471803
H        3.39686536       0.19094867       4.48490206      -0.73326836      -0.06865263       0.26295029
H        2.08127498       0.75266359       5.63544026       0.79734604      -0.79506251      -0.35415949
H        2.79304003      -0.92952555       5.68032923      -0.22884815       0.03275871       0.33593166
H        0.95190232      -0.83735698      -3.15809163      -0.78351562      -0.12884689       0.24827845
H       -0.43293816      -1.15213829      -2.06252631      -0.01478278      -0.36744573       0.45313805
H       -0.71122790      -0.81546634      -3.75445231      -0.11280692       0.23827730       0.07103887
H       -0.12429882       2.78922278      -3.66754922       0.00134804       0.37324052      -0.30661266
H        0.77823470       1.50591487      -4.53600939      -0.25519367       0.17411780       0.47000169
H       -0.98645688       1.46498198      -4.49978122       0.39623140       0.21402017       0.45250998
H        0.73454698      -2.18230273       1.32493735      -0.75911892       0.87270353       0.05008558
H       -0.71498508      -2.18887903       2.27456058      -0.49359112      -0.01388685       0.80891578
H       -0.85842795      -1.74873235       0.56847957       0.30602696       0.47946509       0.46066386
H       -1.03308726       1.55980682       3.29185715       0.02489799       0.12978170       0.12900162
H       -2.11354280       0.78723432       2.11366418       0.92261220      -0.20765639       0.42196476
H       -1.49799777      -0.12386399       3.48521534      -0.13006160      -0.23520536       0.46332203
H        0.35867766       4.41896969      -0.26730236      -0.00886327      -0.78400119      -0.34381550
H       -0.68236030       3.12445932      -0.89649984      -0.48187686       0.14561558      -0.31059031
H        1.42108791       3.36093217      -2.29586705      -0.14409126       0.24813238      -0.32109624
H        2.35382770       2.93896157      -0.91526803      -0.10939917      -0.08330081       0.11060858
H        1.25765061       2.83012516       1.41791824      -0.51249277      -0.24074411      -0.32708791
H       -0.49835373       2.94165426       1.53824142      -0.24411691       0.29368331       0.14833777
H        1.07192301      -0.51612347      -0.51891002       0.09998509       0.51943710       0.32633036
H        2.15020846       0.73978928       0.10529247       0.50456271      -0.16629779       0.16865807
H        1.27486014       1.40715444       3.17727986       0.03090569       0.14529000       0.51661440
H        2.20013999       0.24374277       2.31172052       0.10670349      -0.20005415      -0.20689760
H        0.42666774      -0.61202388       4.63512221       0.12229437       0.09555712      -0.23418866
H       -1.03219283       1.18849084      -2.00403555       1.20893491      -0.13027176      -0.64529120
H        2.03900265       0.94863835      -2.22651752       0.51753402      -0.19486592      -0.39611751
H       -0.83583332       0.92809521       0.17632932      -0.08977864       0.06677778       0.18019304
