43
Properties=species:S:1:pos:R:3:forces:R:3 id=9066 bond=C-O smiles="[H:31][C:10]1([C:3](=[C:4]2[C:16]([C:13]([C:11]1([H:33])[H:34])([H:37])[H:38])([C:14]([C:12]([C:15]([C:17]2([C:8]([H:25])([H:26])[H:27])[C:9]([H:28])([H:29])[H:30])([H:41])[H:42])([H:35])[H:36])([H:39])[H:40])[H:43])[C:7]([H:24])([O:1][C:5]([H:18])([H:19])[H:20])[O:2][C:6]([H:21])([H:22])[H:23])[H:32]" dataset=PubChem energy=-20061.560471943416 pbc="F F F"
O        1.16570943       0.29828450       3.18233868     -11.54175236     -94.25112896     118.80681494
O        1.27853840       2.15070005       3.07893808       0.26313418       6.70928178      -2.62651257
C        0.02589464       0.56068605       1.63985337      -1.37263250      -0.39927902      -7.15703703
C        0.09100079      -0.16703473       0.41037918      -0.73845346       2.05891286       3.15315000
C        2.16235249       0.51991227       4.21226379      -0.29470671      -1.84233375       5.73883288
C        1.96142446       3.08546240       2.23603899      -0.45724466      -0.43704109       0.47485407
C        1.22861534       0.81654389       2.55314858       8.78600204      87.20531749    -112.46573585
C        2.32223868       0.69001113      -0.48864548       0.08130470      -0.51249868       0.35490893
C        2.09193825      -1.69028370       0.53036974      -0.79320247      -0.00163935       0.55342585
C       -1.27640116       1.14382483       2.11940582      -0.01623045       0.12727137      -0.03716281
C       -2.31483686       1.25578113       1.02033700      -0.30996417      -0.23637945       0.38765468
C        0.13751774      -0.33745049      -2.54218189       0.06708635      -0.71713696       1.48662829
C       -2.46974862      -0.12452222       0.41044940      -0.21763945      -0.34409144      -0.02641794
C       -1.09779966       0.17740348      -1.72978585       0.58748798       0.49367470      -0.22166873
C        1.13980007      -1.17222635      -1.67291706      -0.10536062       1.47575592      -0.69284747
C       -1.20098317      -0.51912533      -0.36516194       0.55217655       0.80830289       0.74341332
C        1.39865344      -0.57326667      -0.27580194       0.94421958       0.43597147      -0.31025585
H        1.98898034       1.46404412       4.78547332       0.01683426      -1.41622560      -0.73697750
H        3.12832396       0.52444929       3.81938597       1.36580896       0.12024068      -1.46444853
H        2.09288018      -0.33703390       4.91076991      -0.09506955       0.32599726      -0.51034931
H        1.41690677       3.33353265       1.31970282      -0.09120017      -0.12712514       0.11116288
H        2.10047435       3.97612937       2.81645162       0.04779074       0.57426903       0.18081254
H        2.95086967       2.71587046       1.95493955      -0.03935986      -0.12213196      -0.02787852
H        2.13320886       0.59730591       2.04125054       3.62449730       2.05018304      -4.10873946
H        1.71726727       1.57946666      -0.62624721      -0.08430444       0.02663464      -0.16894036
H        2.98997986       0.57144886      -1.34285157      -0.17813379      -0.12457056      -0.10136521
H        2.96669018       0.89400049       0.36838658      -0.23137894      -0.16553971      -0.12209333
H        1.36417901      -2.50508801       0.72937101       0.35997781       0.55544237       0.06058484
H        2.89203488      -2.15017645      -0.00979637       0.63956802      -0.09308652      -0.49676180
H        2.49673640      -1.31965737       1.47556544      -0.15549690      -0.14382913      -0.09711189
H       -1.63818109       0.51116207       2.92142327      -0.39795621       0.01731418       0.35057030
H       -1.16358710       2.14916975       2.51010139       0.55326924      -0.02493971       0.35454360
H       -1.98034251       2.01282854       0.29409672      -0.23788350      -0.33087990       0.14775313
H       -3.27740085       1.57944651       1.45749564       0.44140289      -0.00567845      -0.26630288
H        0.66964499       0.47987582      -2.96066420       0.33908498       0.76573469      -0.50032952
H       -0.18195040      -0.98493032      -3.33380358      -0.22238282      -0.20049210      -0.56120855
H       -3.33816707      -0.12138586      -0.27408354       0.34212935      -0.37392181       0.34538987
H       -2.63724745      -0.84159224       1.27200974       0.00991778       0.63542486      -1.12374991
H       -0.95109940       1.27166803      -1.53612392      -0.28381969      -0.91498644      -0.19774832
H       -2.02052534       0.06369339      -2.32237570       0.32576393       0.00143915       0.28704961
H        0.73128654      -2.12820689      -1.54221051      -0.68711124      -1.48067845       0.19355032
H        2.08995652      -1.34351961      -2.23713391      -0.64375367       0.37878615       0.58003968
H       -1.18731380      -1.59006373      -0.48295813      -0.15661665      -0.49651616      -0.29498760
