43
Properties=species:S:1:pos:R:3:forces:R:3 id=9066 bond=C-O smiles="[H:31][C:10]1([C:3](=[C:4]2[C:16]([C:13]([C:11]1([H:33])[H:34])([H:37])[H:38])([C:14]([C:12]([C:15]([C:17]2([C:8]([H:25])([H:26])[H:27])[C:9]([H:28])([H:29])[H:30])([H:41])[H:42])([H:35])[H:36])([H:39])[H:40])[H:43])[C:7]([H:24])([O:1][C:5]([H:18])([H:19])[H:20])[O:2][C:6]([H:21])([H:22])[H:23])[H:32]" dataset=PubChem energy=-20085.26045285762 pbc="F F F"
O        1.13425647       0.03915481       3.49693372       0.67669267       2.49468779      -2.11118079
O        1.30999136       2.40982974       2.76434304      -0.00331872      -1.01606926      -0.50399223
C        0.05734760       0.81981574       1.32525833       0.51680553      -1.61614099      -2.59838366
C        0.12245375       0.09209496       0.09578414      -0.42385919       1.92553556       3.02380058
C        2.13089953       0.26078258       4.52685883      -2.28901092       0.18152833       0.58173358
C        1.99287742       3.34459209       1.92144395       0.01173332      -0.73503126      -0.01334062
C        1.26006830       1.07567358       2.23855354      -1.30851031      -0.77182570       2.13378494
C        2.35369164       0.94914082      -0.80324052      -0.08864339      -0.50803400       0.41943668
C        2.12339121      -1.43115401       0.21577470      -0.71845470       0.02905199       0.61112296
C       -1.24494820       1.40295452       1.80481078      -0.11148389       0.16360880      -0.12652871
C       -2.28338390       1.51491082       0.70574196      -0.25273120      -0.18419076       0.37027116
C        0.16897070      -0.07832080      -2.85677693       0.06740285      -0.71998384       1.47432734
C       -2.43829566       0.13460747       0.09585436      -0.25200500      -0.36185808       0.01493890
C       -1.06634670       0.43653317      -2.04438089       0.59535082       0.49699935      -0.26321334
C        1.17125303      -0.91309666      -1.98751210      -0.12547588       1.49860388      -0.72238188
C       -1.16953021      -0.25999564      -0.67975698       0.52491178       1.06658888       0.73477951
C        1.43010640      -0.31413698      -0.59039698       0.92093675       0.24704083      -0.30901467
H        1.95752738       1.20491443       5.10006836       0.05058945      -0.70548471      -0.53990972
H        3.09687100       0.26531960       4.13398101       1.69348497       0.10666744      -0.78478841
H        2.06142722      -0.59616359       5.22536495      -0.15525027       0.46646005      -0.43223636
H        1.44835973       3.59266234       1.00510778      -0.13506605      -0.18729076       0.14415409
H        2.13192731       4.23525906       2.50185658      -0.06173376       0.39916080       0.29473280
H        2.98232263       2.97500015       1.64034451      -0.03516971      -0.08569215      -0.00314836
H        2.16466182       0.85643560       1.72665550       0.82028568      -0.26798131       0.09447354
H        1.74872023       1.83859635      -0.94084225      -0.07515189       0.03661394      -0.18810010
H        3.02143282       0.83057855      -1.65744661      -0.15826911      -0.11536214      -0.01340552
H        2.99814314       1.15313018       0.05379154      -0.10944914      -0.14523210      -0.08636453
H        1.39563197      -2.24595832       0.41477597       0.38008593       0.58867649       0.09226353
H        2.92348784      -1.89104676      -0.32439141       0.61600070      -0.08166151      -0.53535676
H        2.52818936      -1.06052768       1.16097040      -0.23431008      -0.22375854      -0.07845079
H       -1.60672813       0.77029176       2.60682823      -0.23941907       0.01639780       0.31873222
H       -1.13213414       2.40829944       2.19550635       0.54833903      -0.03326220       0.35776238
H       -1.94888955       2.27195823      -0.02049832      -0.26073314      -0.31735268       0.11630675
H       -3.24594789       1.83857620       1.14290060       0.46709668      -0.00941909      -0.26943388
H        0.70109795       0.73900551      -3.27525924       0.33491145       0.76756412      -0.50789991
H       -0.15049744      -0.72580063      -3.64839862      -0.21808781      -0.19397396      -0.55649473
H       -3.30671411       0.13774383      -0.58867858       0.35671974      -0.37943630       0.34168338
H       -2.60579449      -0.58246255       0.95741470       0.01972064       0.64643247      -1.13559561
H       -0.91964644       1.53079772      -1.85071896      -0.29656345      -0.91500218      -0.20443784
H       -1.98907238       0.32282308      -2.63697074       0.33472958       0.00420488       0.30297971
H        0.76273950      -1.86907720      -1.85680555      -0.67119570      -1.46689007       0.20526758
H        2.12140948      -1.08438992      -2.55172895      -0.64751885       0.37730011       0.59166920
H       -1.15586084      -1.33093404      -0.79755317      -0.06550182      -0.47667128      -0.23873744
