21
Properties=species:S:1:pos:R:3:forces:R:3 id=27647 bond=C-O smiles="[H:19][C:13]([H:20])([H:21])[c:7]1[c:9]2[c:8]([c:6]([n:2][n:3]1)[O:4][C:12]([H:16])([H:17])[H:18])[N:10]([C:5](=[S:1])[N:11]2[H:15])[H:14]" dataset=PubChem energy=-26241.933882873334 pbc="F F F"
S       -2.57523875      -2.15140974       1.27014461      -0.43806413      -1.05725088      -0.09034522
N        1.75667889       1.84170210      -0.20679394      -0.40527912      -0.76934814      -0.56783950
N        1.85696383       2.01817595       1.13082370      -1.14759799      -1.60871294      -0.22028978
O        0.94259809       0.65858062      -2.10569230      -4.54072732      -7.38673267       7.06344663
C       -1.14077406      -1.41264975       1.03172531      -1.18840634       1.05092950      -0.36945050
C        1.02684702       0.84297792      -0.77487448       1.16693313       1.33118423       1.93680630
C        1.17485900       1.18462705       1.96696993       0.05824948       1.29802148      -1.11795208
C        0.33525513       0.01338935       0.07436296      -1.48550194      -1.38939767      -0.40343168
C        0.33800764       0.21612766       1.43327757       0.98054562       0.29350097      -0.24978603
N       -0.56783359      -1.04469550      -0.16605899       0.56001937       0.29901039       0.16515925
N       -0.51698344      -0.69349492       2.01279839       0.41080000       0.15830211       0.58568092
C        1.43548408       1.50078814      -2.84846930       5.25641734       7.35093374      -6.10623370
C        1.19434197       1.37646097       3.43705805      -1.24861676       0.10880157       0.05050483
H       -1.01389901      -1.24418938      -1.05856100       0.29319619      -0.00802725       0.58644933
H       -0.92490439      -0.61615539       2.95045551       0.38561394      -0.22102021      -0.88982371
H        2.55571303       1.52733641      -2.75510005      -0.61698860       0.28607156      -0.33766457
H        1.07887504       2.50973551      -2.62222461       0.15482630       0.32605581      -0.19749750
H        1.18678609       1.28639947      -3.87993554       0.00856505      -0.06370615      -0.29381778
H        1.39024908       0.39557561       3.86163314       0.02789928       0.12857388       0.51182059
H        0.20448978       1.77718448       3.81530222       1.01628242      -0.59558670      -0.42515249
H        1.93683929       2.08593309       3.69950136       0.75353676       0.46773378       0.36720343
