43
Properties=species:S:1:pos:R:3:forces:R:3 id=12346 bond=C-C smiles="[H:19][C:3]1=[C:4]([N:5]([N:1]=[C:2]1[C:7]([H:21])([H:22])[N:6]2[C:8]([C:10]([C:12]([C:11]([C:9]2([H:25])[H:26])([H:29])[H:30])([H:31])[H:32])([H:27])[H:28])([H:23])[H:24])[H:20])[C:18]3([C:16]([C:14]([C:13]([C:15]([C:17]3([H:41])[H:42])([H:37])[H:38])([H:33])[H:34])([H:35])[H:36])([H:39])[H:40])[H:43]" dataset=PubChem energy=-20444.566471566613 pbc="F F F"
N        0.41251941      -2.00991712       0.81239195       0.23967525       0.56691676      -0.52695107
C        0.81932248      -1.30898307      -0.25091003      -2.11712545       2.25403369       0.54113360
C        0.11498907      -0.02162043      -0.30455642      -0.23535742      -1.28733677       1.73159050
C       -0.70697775       0.00846960       0.83069156      -0.23055869       1.48214735       0.62974087
N       -0.46871379      -1.20971546       1.44388826      -1.61040202       1.06759444       1.40879570
N        3.23364362      -1.20177803      -0.86479203      -0.10744187      -1.29954812      -0.42859836
C        1.85702869      -1.72353826      -1.21575980       1.12916851       0.19275452      -0.06798065
C        3.54612598       0.22481275      -1.09496860      -0.62120238      -0.57998585      -0.26804559
C        3.71550306      -1.75390229       0.41303243       0.43331767       0.62015408      -0.31911959
C        5.05919632       0.51339411      -0.95109479      -1.59570188      -0.43782520       1.55711107
C        5.19691166      -1.42920921       0.62888613      -0.42597930       0.45395824       0.17969718
C        5.48032602       0.07565101       0.46459628      -0.02429184      -0.85451805      -0.82946190
C       -4.07693414       3.23424615       1.78275904      -0.25858740       1.78570109       0.24300436
C       -2.93681554       3.64900651       0.85245278       0.10991540      -0.49993051      -0.78244859
C       -4.35885696       1.78075089       1.76869747       0.32725669      -1.01773258      -0.08072671
C       -1.99397091       2.49347379       0.42426372      -1.06943410      -1.07293850      -0.36968089
C       -3.09684377       0.97476145       2.16747901      -0.59086701      -1.76758114      -0.85161875
C       -1.78020720       1.49896141       1.57191559       0.86457512      -2.43686991      -1.88391251
H        0.20214871       0.75585215      -1.02153747       0.18345862       0.29658901      -0.43823758
H       -0.95188061      -1.49397323       2.32842786       1.06193944       0.10853439      -1.57600731
H        1.81872686      -2.82348905      -1.22162883       0.69551882       0.30464530      -0.07992814
H        1.60568699      -1.38751302      -2.23906498       0.13330847      -0.02814648       0.58873037
H        2.96302327       0.88156541      -0.41855042       0.27002741      -0.09609656      -0.07658663
H        3.22067150       0.45735600      -2.12206225       0.05989632      -0.05790738       0.33827784
H        3.15026459      -1.31824074       1.21902753      -0.37293526       0.18156253       0.69126420
H        3.57352576      -2.83453593       0.47558019      -0.19456600       0.12517250      -0.35414398
H        5.59258780      -0.06267459      -1.67123918       0.46038318      -0.31008628      -0.60555600
H        5.20730718       1.56404902      -1.10079603       0.23669252       0.55148353      -0.18599181
H        5.53336462      -1.70385776       1.62652237      -0.27247083      -0.26505151       0.12894368
H        5.78257784      -2.02454958      -0.06150310       0.21567535       0.10102745      -0.29673609
H        4.98215279       0.64143058       1.25229157      -0.11225823       0.05528549      -0.13918178
H        6.53942856       0.18037586       0.58904971       0.63814073       0.42659363       0.12895482
H       -4.97573499       3.78509654       1.48056420       0.10858920      -0.09701831       0.10228373
H       -3.84508829       3.63072576       2.78147945      -0.11854801      -0.50705870      -0.00746592
H       -3.38262515       4.13545312      -0.03335878       0.55620386      -0.22175711       0.26407463
H       -2.29603295       4.34966173       1.34739116       0.10634341       0.71590234       0.24397149
H       -5.16440896       1.54692479       2.47925767       0.15442595      -0.09723596      -0.43570344
H       -4.66326932       1.48835530       0.74149032       0.00847824       0.07276465       0.66632429
H       -2.43332891       1.92916217      -0.43131665       0.34261731       0.46436323       0.52437991
H       -1.05402200       2.90980806       0.10710839       0.34296763       0.02099906      -0.20602266
H       -3.28252415      -0.07611922       1.79868051       0.31202295       0.99929438       0.42076478
H       -3.05027179       0.88484960       3.25052962       0.20129591       0.20211911       0.05468606
H       -1.19991259       1.96916177       2.33611402       0.76454558      -0.11461823       0.36290193
