43
Properties=species:S:1:pos:R:3:forces:R:3 id=12346 bond=C-C smiles="[H:19][C:3]1=[C:4]([N:5]([N:1]=[C:2]1[C:7]([H:21])([H:22])[N:6]2[C:8]([C:10]([C:12]([C:11]([C:9]2([H:25])[H:26])([H:29])[H:30])([H:31])[H:32])([H:27])[H:28])([H:23])[H:24])[H:20])[C:18]3([C:16]([C:14]([C:13]([C:15]([C:17]3([H:41])[H:42])([H:37])[H:38])([H:33])[H:34])([H:35])[H:36])([H:39])[H:40])[H:43]" dataset=PubChem energy=-20444.05392828256 pbc="F F F"
N        0.44371794      -2.05324537       0.79084474       0.25506379       0.54235316      -0.52695465
C        0.85052101      -1.35231132      -0.27245724      -2.11564022       2.25099147       0.53832849
C        0.14618760      -0.06494868      -0.32610363      -0.23496470      -1.24783218       1.71298390
C       -0.67577922      -0.03485865       0.80914435      -0.20701934       1.35221161       0.59083736
N       -0.43751526      -1.25304371       1.42234105      -1.62443734       1.07731364       1.42670453
N        3.26484215      -1.24510628      -0.88633924      -0.10365987      -1.30033854      -0.43034224
C        1.88822722      -1.76686651      -1.23730701       1.12677499       0.19782651      -0.06557023
C        3.57732451       0.18148450      -1.11651581      -0.62177506      -0.57985117      -0.26598361
C        3.74670159      -1.79723054       0.39148522       0.43221208       0.62169225      -0.31870009
C        5.09039485       0.47006586      -0.97264200      -1.59606671      -0.43830132       1.55666680
C        5.22811019      -1.47253746       0.60733892      -0.42632200       0.45374763       0.17947890
C        5.51152455       0.03232276       0.44304907      -0.02414061      -0.85432755      -0.82939782
C       -4.10813267       3.27757440       1.80430625      -0.26258972       1.79211988       0.24381185
C       -2.96801407       3.69233476       0.87399999       0.08843282      -0.49382452      -0.73057290
C       -4.39005549       1.82407914       1.79024468       0.32672894      -1.00083347      -0.11507269
C       -2.02516944       2.53680204       0.44581093      -0.96451377      -1.21895799      -0.42873137
C       -3.12804230       1.01808970       2.18902622      -0.49825331      -1.83709710      -0.88433059
C       -1.81140573       1.54228966       1.59346280       0.55067838      -2.04918952      -1.73655366
H        0.23334724       0.71252390      -1.04308468       0.18522700       0.29789685      -0.44000468
H       -0.92068208      -1.53730148       2.30688065       1.06757837       0.11073713      -1.58123025
H        1.84992539      -2.86681730      -1.24317604       0.69501174       0.30350500      -0.07930390
H        1.63688552      -1.43084127      -2.26061219       0.13395174      -0.02813301       0.58808402
H        2.99422180       0.83823716      -0.44009763       0.26995384      -0.09704350      -0.07731112
H        3.25187003       0.41402775      -2.14360946       0.05984696      -0.05799100       0.33816844
H        3.18146312      -1.36156899       1.19748032      -0.37315595       0.18110300       0.69056512
H        3.60472429      -2.87786418       0.45403298      -0.19463687       0.12517298      -0.35415280
H        5.62378633      -0.10600284      -1.69278639       0.46084665      -0.31033367      -0.60558187
H        5.23850571       1.52072077      -1.12234324       0.23687205       0.55190330      -0.18593101
H        5.56456315      -1.74718601       1.60497516      -0.27222145      -0.26501786       0.12930373
H        5.81377637      -2.06787783      -0.08305031       0.21611757       0.10104129      -0.29707241
H        5.01335132       0.59810233       1.23074436      -0.11251963       0.05510456      -0.13936837
H        6.57062709       0.13704761       0.56750250       0.63875849       0.42661294       0.12903980
H       -5.00693352       3.82842479       1.50211141       0.10941374      -0.09782961       0.10173116
H       -3.87628682       3.67405401       2.80302666      -0.11839877      -0.50742861      -0.00831124
H       -3.41382368       4.17878137      -0.01181157       0.56407337      -0.23361076       0.25840424
H       -2.32723148       4.39298998       1.36893837       0.10494442       0.71428921       0.24235015
H       -5.19560749       1.59025304       2.50080488       0.16261386      -0.10312255      -0.43235243
H       -4.69446785       1.53168355       0.76303753       0.00762039       0.07345323       0.66797540
H       -2.46452744       1.97249042      -0.40976944       0.34001100       0.47093709       0.52704721
H       -1.08522053       2.95313631       0.12865560       0.33948300       0.01887543      -0.20498650
H       -3.31372268      -0.03279097       1.82022772       0.31384848       1.00775054       0.42460364
H       -3.08147032       0.92817785       3.27207683       0.21855943       0.19795108       0.04909857
H       -1.23111112       2.01249002       2.35766123       0.84470244      -0.20416507       0.33966155
