35
Properties=species:S:1:pos:R:3:forces:R:3 id=32994 bond=C-S smiles="[H:23][C:16]([H:24])([H:25])[O:1][c:9]1[c:10]([c:12]([c:14]([c:13]2[c:11]1[S:6][S:4][S:3][S:5][S:7]2)[C:19]([H:32])([H:33])[C:20]([H:34])([H:35])[N:15]([H:21])[H:22])[S:8][C:18]([H:29])([H:30])[H:31])[O:2][C:17]([H:26])([H:27])[H:28]" dataset=PubChem energy=-82267.84900856864 pbc="F F F"
O        2.42628264       0.64629033       3.03337664       0.44955476       0.09995091       0.45792189
O       -0.11089695      -0.67267427       2.70625038       0.83496723       1.12450342       0.36239698
S        5.19979822       2.54146686      -1.62424784      -0.17332229      -0.48257518       0.48787426
S        5.09000265       1.52695801       0.22116555      -0.58494207       0.90168392      -0.29391900
S        3.46568405       1.97510198      -2.57889800      -0.22324582       0.40292085       0.52928329
S        3.62491571       2.64319959       1.23346545       0.40237906      -0.76694089      -0.29465220
S        1.98928451       3.01516214      -1.50934391       0.02062013      -0.39036158      -0.63575658
S       -1.49999535      -1.00169894       0.23562957      -2.55719738       2.40663650       1.34097891
C        1.66471522       0.86280647       1.91193301       0.90488066      -0.66912905      -0.04874819
C        0.49918702       0.11117380       1.73564012      -1.33824579      -0.21357883      -0.12045888
C        2.15186929       1.69380453       0.89045406      -0.95123815      -0.01301221      -0.24511335
C       -0.15038991       0.13479057       0.48907978       0.00602984       0.27322850      -0.18871580
C        1.40758323       1.82063582      -0.32792913       0.63953640      -0.40816153       1.04114860
C        0.27697118       1.00911108      -0.54359852      -0.20550912      -0.04558694      -0.11764942
N       -0.13534034      -1.29937574      -2.69750838      -0.02707482      -0.32547939       0.44065296
C        3.07014334      -0.64541397       3.06851954      -0.58368784      -0.47295663      -0.22165524
C       -0.25006438      -0.05155554       4.01966519       0.06526118       0.57577388      -0.28002572
C       -3.20006234       0.35219495       0.99949086       1.58828068      -0.94460818       0.06905546
C       -0.45347262       1.04966119      -1.89267855       2.04624471       0.49186730       0.42874365
C        0.26682594       0.10603040      -2.89458566      -0.57946747      -0.12645285      -0.54638790
H       -0.07019931      -1.59278497      -1.69843059       0.18853898       0.19536730      -1.59839343
H        0.32893171      -1.95920715      -3.34566979      -0.25963364       0.78864885       0.96999958
H        3.85297929      -0.78024480       2.31555242      -0.05608297       0.52985576      -0.00706287
H        3.51213896      -0.84899566       4.05890222      -0.47549493       0.48245743      -0.41915071
H        2.29219424      -1.37810084       2.83130784       0.26897172      -0.20383970       0.32047348
H       -1.12145043      -0.49674383       4.51668257       0.25598983       0.00504379      -0.44208467
H        0.63831667      -0.24151287       4.63114399      -0.19632164       0.16257029      -0.20918944
H       -0.41919577       1.05856815       3.92604322       0.25702594      -1.13958949       0.01482440
H       -2.98891647       0.69503511       2.01986262       0.54987139      -0.46610508      -0.38818534
H       -4.10728509      -0.22805576       1.02771148       0.07859139      -0.55296355      -0.31211699
H       -3.32252986       1.21870597       0.36724146       0.43359798      -0.15456424      -0.52900137
H       -0.44668616       2.10946074      -2.21978383       0.07834977      -0.85371981      -0.12459709
H       -1.45047319       0.72384062      -1.79512339      -1.09278543      -0.35574952       0.17748014
H       -0.08600641       0.42105930      -3.89731936       0.42160180      -0.29533395       0.39141011
H        1.35672366       0.19552460      -2.84068398      -0.18754929       0.43791148      -0.00964232
