10
Properties=species:S:1:pos:R:3:forces:R:3 id=3299 bond=C-P smiles="[H:7][C:5]([H:8])([P:4]([C:6]([H:9])([H:10])[Cl:3])[Cl:1])[Cl:2]" dataset=PubChem energy=-49000.980102087415 pbc="F F F"
Cl       1.05153123       0.64535701       3.14318487       0.01374511       0.14856456      -0.74950438
Cl       1.36731992      -0.11608782      -1.48948935       0.37903105      -0.03848101      -0.61862082
Cl       0.27814347       3.15741897       1.07304652       0.18834334       2.86960150       0.34522905
P        0.50319391       0.54542047       1.18997297       5.69370004     -10.39272133       5.22222085
C        1.18354801      -0.76878949       0.14877430       0.92510461      -0.45843667       0.29572855
C       -0.28541892       1.63192034       0.46662462      -7.16685316       7.13515194      -3.37087286
H        0.53990709      -1.62006612       0.03617275      -0.52764980      -0.14019483       0.03127514
H        2.13479886      -1.19459601       0.48361055      -0.05639842       0.52129340       0.06279213
H       -0.26670157       1.67187834      -0.58697538       0.48404342      -0.51602401      -1.14336714
H       -1.35894590       1.53825593       0.69440419       0.05939054       0.86887996      -0.08496514
