10
Properties=species:S:1:pos:R:3:forces:R:3 id=43807 bond=C-C smiles="[H:7][C:5]([H:8])([H:9])[C:6]([H:10])([N:4]([Cl:1])[Cl:2])[Cl:3]" dataset=PubChem energy=-41198.91295440958 pbc="F F F"
Cl      -1.19117496       1.99499501       1.98529826       1.64395018      -0.58353441      -1.49479819
Cl      -0.91790960       2.93889607      -0.77341236       0.85251352      -1.47566983       1.75329904
Cl       1.76635279       1.63686259      -1.30836965      -0.58912816      -1.11344638       1.70081375
N       -0.14828352       1.95378209       0.55830489      -0.79692237       1.03180480      -0.89158257
C        0.78450652      -1.03259883       0.78282207      -0.55758872       1.83110531      -2.50877586
C        1.09012248       1.16053648       0.34616585      -0.87661811      -1.21774386       0.11560384
H        1.58713843      -1.67214570       0.40536634       0.03623941       0.73105537      -0.33229233
H        0.72351844      -1.18773517       1.81898540      -0.12122623       0.55737016       1.45937083
H       -0.18807159      -1.29320500       0.29434371       0.97013123       0.58858581       0.33077419
H        1.87875940       1.46110071       1.04912548      -0.55802064      -0.35339710      -0.13078078
