10
Properties=species:S:1:pos:R:3:forces:R:3 id=43807 bond=C-C smiles="[H:7][C:5]([H:8])([H:9])[C:6]([H:10])([N:4]([Cl:1])[Cl:2])[Cl:3]" dataset=PubChem energy=-41200.65033588026 pbc="F F F"
Cl      -1.25510483       1.53622691       2.07663961       1.62060009      -0.52136780      -1.40161067
Cl      -0.98183947       2.48012797      -0.68207101       0.92318049      -1.34844738       1.82906431
Cl       1.70242292       1.17809449      -1.21702830      -0.40727992      -0.67642744       1.07738318
N       -0.21221339       1.49501399       0.64964624      -1.96485784       2.33802312      -0.98383886
C        0.84843639      -0.57383073       0.69148072      -2.53240444      -8.75064277      -1.38525971
C        1.02619261       0.70176838       0.43750720       2.18384461       8.81765259      -0.67824867
H        1.65106830      -1.21337760       0.31402499      -0.13445162       0.08658349       0.07329678
H        0.78744831      -0.72896707       1.72764405      -0.35268154      -0.37315212       1.42236845
H       -0.12414172      -0.83443690       0.20300236       0.78528431      -0.72920769       0.48232637
H        1.81482953       1.00233261       1.14046683      -0.11699401       1.15342062      -0.43029728
