10
Properties=species:S:1:pos:R:3:forces:R:3 id=43807 bond=C-C smiles="[H:7][C:5]([H:8])([H:9])[C:6]([H:10])([N:4]([Cl:1])[Cl:2])[Cl:3]" dataset=PubChem energy=-41197.33905934282 pbc="F F F"
Cl      -1.15843039       2.22997379       1.93851367       1.67142151      -0.57081957      -1.53340158
Cl      -0.88516503       3.17387485      -0.82019695       0.83759565      -1.48515522       1.74356316
Cl       1.79909736       1.87184137      -1.35515424      -0.62420995      -1.10830781       1.79652415
N       -0.11553895       2.18876087       0.51152030      -0.43033299       0.69022662      -0.87007439
C        0.75176195      -1.26757761       0.82960666      -0.69714711       0.37161221      -2.01850498
C        1.12286705       1.39551526       0.29938126      -1.16047403       0.49511570      -0.50116192
H        1.55439386      -1.90712448       0.45215093       0.09661730       0.80282502      -0.36706584
H        0.69077387      -1.42271395       1.86576999      -0.09381058       0.63889599       1.48644510
H       -0.22081616      -1.52818378       0.34112830       0.95356900       0.77341313       0.25944575
H        1.91150397       1.69607949       1.00234089      -0.54884787      -0.61054018       0.00816435
