13
Properties=species:S:1:pos:R:3:forces:R:3 id=17047 bond=C-O smiles="[H:6][C:3]([H:7])([H:8])[O:1][C:5]([H:12])([H:13])[O:2][C:4]([H:9])([H:10])[H:11]" dataset="DES370K Monomers" energy=-7335.947052883866 pbc="F F F"
O       -0.27163244       0.44959617      -1.33661766       0.76696013       0.84403672       2.90847388
O        1.09267406      -0.94203203       0.10939939      -0.21661660       1.16791015      -0.59313306
C       -1.10659157       1.32807027       0.41496063       1.39551524       0.40346008      -0.04742059
C        0.34551871      -2.18349265      -0.05074449       2.28553958       0.40074189       0.59117921
C        1.08925377      -0.02538830      -1.09358926      -1.94585728       0.08936563       3.41878077
H       -0.46185858       1.13442557       1.32208343      -0.31751022      -0.40647468      -1.67330567
H       -1.19744508       2.44479584       0.32328384       0.54569421      -1.25877493      -0.95180727
H       -2.11139040       0.93240230       0.55939423       0.43238778      -0.63401237      -0.79743343
H        1.16280656      -2.87245082      -0.33366698      -0.94796670      -0.35147371      -0.16050756
H       -0.33348088      -1.96877014      -0.82613774      -1.18018781      -0.51463271      -0.82883339
H       -0.13756610      -2.58525633       0.88558368       0.49691560       1.01790076      -0.86607437
H        1.80844049       0.78773648      -0.75121485      -0.98503319      -1.03302599      -0.68101131
H        1.45093946      -0.60351648      -1.94246419      -0.33171710       0.27243442      -0.31870877
