13
Properties=species:S:1:pos:R:3:forces:R:3 id=17047 bond=C-O smiles="[H:6][C:3]([H:7])([H:8])[O:1][C:5]([H:12])([H:13])[O:2][C:4]([H:9])([H:10])[H:11]" dataset="DES370K Monomers" energy=-7338.351541413886 pbc="F F F"
O       -0.37283960       0.55607788      -1.12430514       0.66523167       0.83497997       2.85613410
O        0.99146690      -0.83555032       0.32171191      -0.20516685       1.24170256      -0.68522231
C       -1.00538441       1.22158856       0.20264811       1.73031398       0.02814512      -0.98007528
C        0.24431155      -2.07701094       0.16156803       2.26644044       0.34571796       0.58860108
C        0.98804661       0.08109341      -0.88127674      -1.43202800      -0.35453636       3.12782783
H       -0.36065142       1.02794386       1.10977091      -0.68473582      -0.16348624      -1.32549260
H       -1.09623792       2.33831413       0.11097132       0.32716082      -1.15601924      -0.53299608
H       -2.01018324       0.82592059       0.34708171       0.33931561      -0.30564098      -0.29493762
H        1.06159940      -2.76596911      -0.12135446      -0.95636027      -0.33732695      -0.16668251
H       -0.43468804      -1.86228843      -0.61382522      -1.17159666      -0.53822414      -0.83626662
H       -0.23877326      -2.47877462       1.09789620       0.50191233       1.03245713      -0.86659828
H        1.70723333       0.89421819      -0.53890233      -1.03515349      -0.97996559      -0.65128213
H        1.34973230      -0.49703477      -1.73015167      -0.34319523       0.35410638      -0.23389592
