13
Properties=species:S:1:pos:R:3:forces:R:3 id=17047 bond=C-O smiles="[H:6][C:3]([H:7])([H:8])[O:1][C:5]([H:12])([H:13])[O:2][C:4]([H:9])([H:10])[H:11]" dataset="DES370K Monomers" energy=-7338.641023679022 pbc="F F F"
O       -0.38970747       0.57382483      -1.08891972       1.13561213       0.38981006       2.08047362
O        0.97459903      -0.81780337       0.35709733      -0.20228593       1.25629358      -0.71679174
C       -0.98851654       1.20384161       0.16726269       1.38786256       0.33217772      -0.47228617
C        0.22744368      -2.05926399       0.19695345       2.25997957       0.33244301       0.58996376
C        0.97117874       0.09884036      -0.84589132      -1.31797798      -0.47498951       2.99858716
H       -0.34378355       1.01019691       1.07438549      -0.78173911      -0.09205447      -1.20146661
H       -1.07937005       2.32056718       0.07558590       0.25757737      -1.08400119      -0.40413025
H       -1.99331537       0.80817364       0.31169629       0.27367580      -0.21912108      -0.14110574
H        1.04473153      -2.74822216      -0.08596904      -0.95807509      -0.33346956      -0.16840730
H       -0.45155591      -1.84454148      -0.57843980      -1.17012252      -0.54316705      -0.83790439
H       -0.25564113      -2.46102767       1.13328162       0.50296245       1.03668055      -0.86730003
H        1.69036546       0.91196514      -0.50351691      -1.05216391      -0.96282685      -0.64627203
H        1.33286443      -0.47928782      -1.69476625      -0.33674515       0.36455597      -0.21625138
