40
Properties=species:S:1:pos:R:3:forces:R:3 id=29654 bond=C-S smiles="[H:24][C:9]([H:25])([H:26])[C:14]([H:35])([H:36])[N:6]([C:15]([H:37])([H:38])[C:10]([H:27])([H:28])[F:1])[C:16]([H:39])([H:40])[C:13]([H:33])([H:34])[S:5][P:17](=[S:2])([O:3][C:11]([H:29])([H:30])[C:7]([H:18])([H:19])[H:20])[O:4][C:12]([H:31])([H:32])[C:8]([H:21])([H:22])[H:23]" dataset=PubChem energy=-50021.14740436609 pbc="F F F"
F        2.16071187       5.48221813      -3.32137660      -0.08044210       1.64959353      -0.44078974
S       -0.20815712      -2.60770160       1.89480051      -0.22030968       0.82458439       0.47923756
O       -1.42896229       0.02897987       2.50887760       1.45473397      -0.29332237       1.38986553
O       -0.21789879      -1.30221969       4.53638848       0.09640706       1.25307802      -1.64842119
S        1.63155007       0.07754346       2.51265630      -1.38376584       0.93720091      -1.19653343
N        1.57194422       2.01042412      -2.51039795      -0.78309219      -0.54849637       0.65369982
C       -3.78537065       0.39275572       2.21572646      -0.16619375      -0.35038959      -0.50890216
C        1.28913009      -1.72095019       6.31598743      -0.28681614      -1.05397877       0.30817226
C        1.77508961      -0.29508115      -3.42409305      -0.31160279       1.05681424       1.90245455
C        2.53579102       4.20837723      -3.09659890      -1.03631664      -1.26654755       0.92509290
C       -2.72015363      -0.30469269       3.02040752      -0.92625891      -0.84316972       0.40866139
C        0.83801391      -2.20649463       4.92397603       0.55893475      -0.39864026       1.61056959
C        0.77579676       0.97807647      -0.32638438      -0.20474468      -0.11672234      -2.55069853
C        2.12471996       1.17686359      -3.60507707       0.33132242      -0.34684032       0.74169892
C        1.25989221       3.41284404      -2.81811218       0.18627755      -0.54672810       0.15446057
C        1.91317104       1.68085180      -1.08499662       0.83228235       1.52553240       0.11523130
P       -0.15575302      -0.91753500       2.94520577      -0.20645998      -1.86474932      -1.91808219
H       -4.78437501       0.00431457       2.45854005       0.35827427       0.17389863       0.15742780
H       -3.74595100       1.45401722       2.41146645      -0.12061464       0.29493199      -0.08791368
H       -3.64288217       0.21207995       1.15016953       0.06924477       0.07326057       0.02578942
H        1.63289511      -0.68456417       6.24628004      -0.16888443      -0.23006325       0.15659007
H        0.41729068      -1.82689840       7.01174482       0.87310305       0.37330984      -0.47337844
H        2.12251657      -2.36013275       6.71193822      -0.74027236       0.56492780      -0.42372806
H        0.69774772      -0.43856539      -3.39529542      -0.00782932      -0.03760388       0.14770133
H        2.16954003      -0.87201800      -4.19357089       0.74721801      -0.99146359      -1.39415509
H        2.24521266      -0.63194157      -2.47816829      -0.51023669      -0.07764511      -0.50088120
H        2.98813115       3.78643380      -3.96499137       0.65814741      -0.07991208      -0.65137499
H        3.19279133       4.16915451      -2.24224548       0.41588441       0.00828017       0.19879941
H       -2.89083272      -1.39696032       3.04954573       0.37023710       0.41288251      -0.36942507
H       -2.82452208       0.02515024       4.04379018       0.34196755       0.14913240       0.38983944
H        1.71141964      -2.22321206       4.26694807      -0.47029493       0.27467204      -0.29261840
H        0.43247723      -3.22959357       4.95809111       0.07809487       0.49199857      -0.08633009
H       -0.09208165       1.61837529      -0.28763047      -0.23565144       0.07344212       1.27472584
H        0.49211555       0.05332194      -0.86110167       0.37176722      -0.14799350       1.29758562
H        1.81200920       1.50171433      -4.59707860      -0.46316117       0.42879650       0.32715715
H        3.22117339       1.22894583      -3.63712482       0.02546008       0.19982630       0.15617801
H        0.70870756       3.84614693      -1.97322957       0.18570915      -0.05840414      -0.30028239
H        0.63648848       3.50813518      -3.72525505       0.07081923      -0.31806272       0.50061231
H        2.18017934       2.64289413      -0.56821773      -0.23767949      -0.97063547      -0.42544273
H        2.78042017       1.05129625      -1.05604772       0.53564309      -0.22792245      -0.06506110
