40
Properties=species:S:1:pos:R:3:forces:R:3 id=29654 bond=C-S smiles="[H:24][C:9]([H:25])([H:26])[C:14]([H:35])([H:36])[N:6]([C:15]([H:37])([H:38])[C:10]([H:27])([H:28])[F:1])[C:16]([H:39])([H:40])[C:13]([H:33])([H:34])[S:5][P:17](=[S:2])([O:3][C:11]([H:29])([H:30])[C:7]([H:18])([H:19])[H:20])[O:4][C:12]([H:31])([H:32])[C:8]([H:21])([H:22])[H:23]" dataset=PubChem energy=-50023.38526727881 pbc="F F F"
F        2.26673441       5.37064767      -2.96963704      -0.05467314       1.76981404      -0.46301530
S       -0.31417966      -2.49613114       1.54306095      -0.14120568       0.96836130       0.52358048
O       -1.53498483       0.14055033       2.15713804       1.70327114      -0.27602407       1.39119763
O       -0.32392133      -1.19064923       4.18464892       0.18885111       1.38619372      -1.76434718
S        1.52552753       0.18911392       2.16091674      -1.34029835       1.52876782      -2.18754811
N        1.67796676       1.89885366      -2.15865839      -0.76357438      -0.43134457       0.37447657
C       -3.89139319       0.50432618       1.86398690      -0.15204326      -0.34533064      -0.52302447
C        1.18310755      -1.60937973       5.96424787      -0.28513964      -1.05619131       0.30942687
C        1.88111215      -0.40665161      -3.07235349      -0.31892101       1.06407895       1.88930299
C        2.64181356       4.09680677      -2.74485934      -1.12112218      -1.30242708       0.93169077
C       -2.82617617      -0.19312223       2.66866796      -1.02688289      -0.85690858       0.43981847
C        0.73199137      -2.09492417       4.57223647       0.58917333      -0.42989775       1.64557715
C        0.88181930       0.86650601       0.02535518       0.26350075      -0.92098564      -0.28750259
C        2.23074250       1.06529313      -3.25333751       0.37433802      -0.20538919       0.83608489
C        1.36591475       3.30127358      -2.46637262       0.40119266      -0.66473288       0.14756010
C        2.01919358       1.56928134      -0.73325706       0.28267682       1.42153968      -0.21664654
P       -0.26177556      -0.80596454       2.59346621      -0.89108735      -2.28626936      -1.83183353
H       -4.89039755       0.11588503       2.10680049       0.36631483       0.17014340       0.16163532
H       -3.85197354       1.56558768       2.05972689      -0.12169353       0.29028788      -0.08888150
H       -3.74890471       0.32365041       0.79842997       0.06782705       0.07710103       0.03081022
H        1.52687257      -0.57299371       5.89454048      -0.16745959      -0.22808121       0.16549322
H        0.31126814      -1.71532794       6.66000526       0.87707599       0.37358033      -0.47894112
H        2.01649403      -2.24856229       6.36019866      -0.74491247       0.56879056      -0.42784246
H        0.80377026      -0.55013585      -3.04355586      -0.00171597      -0.04257229       0.16597951
H        2.27556257      -0.98358846      -3.84183133       0.75395311      -0.99682405      -1.40565664
H        2.35123520      -0.74351203      -2.12642873      -0.52499733      -0.07799572      -0.49565837
H        3.09415369       3.67486334      -3.61325181       0.65639036      -0.08532470      -0.65219291
H        3.29881387       4.05758405      -1.89050592       0.41547257       0.00626214       0.20382498
H       -2.99685526      -1.28538986       2.69780617       0.38144170       0.41700148      -0.37355733
H       -2.93054462       0.13672070       3.69205062       0.35569250       0.15011451       0.38327100
H        1.60539710      -2.11164160       3.91520851      -0.45820863       0.25777751      -0.29905948
H        0.32645469      -3.11802311       4.60635155       0.08401059       0.49980963      -0.09920383
H        0.01394089       1.50680483       0.06410909      -0.16057183       0.04335954       0.90899524
H        0.59813809      -0.05824852      -0.50936211       0.29937698       0.16645423       0.94589759
H        1.91803174       1.39014387      -4.24533904      -0.44598416       0.42356068       0.30794134
H        3.32719593       1.11737537      -3.28538526       0.06265147       0.17043365       0.09610574
H        0.81473010       3.73457647      -1.62149001       0.17415627      -0.05510821      -0.28732799
H        0.74251102       3.39656472      -3.37351549       0.06946671      -0.30881005       0.48462107
H        2.28620188       2.53132367      -0.21647817      -0.21625669      -0.93361114      -0.40204688
H        2.88644271       0.93972579      -0.70430816       0.57085113      -0.25172363      -0.06211709
