26
Properties=species:S:1:pos:R:3:forces:R:3 id=47604 bond=C-C smiles="[C:19]1(=[C:20]([S:14][C:17](=[C:18]2[S:15][C:21](=[C:22]([S:16]2)[C:26]([F:10])([F:11])[F:12])[C:25]([F:7])([F:8])[F:9])[S:13]1)[C:24]([F:4])([F:5])[F:6])[C:23]([F:1])([F:2])[F:3]" dataset=PubChem energy=-86344.90396140532 pbc="F F F"
F       -1.28389739      -5.01806098       1.28331606      -0.24555436       1.11336342      -0.51052671
F       -2.91297673      -3.71878701       0.58866220       1.32103569      -0.39301325      -0.54150000
F       -1.21944653      -4.29052430      -0.76327028      -0.57487482       0.60163318       0.99668030
F       -0.85095190      -3.92421800       3.78326402      -0.96331062       0.51736439      -0.20164958
F       -1.31750058      -1.95643741       4.54412828      -0.67433156      -0.50542589      -0.80410103
F       -2.79325555      -2.95874387       3.15941081       1.79236098       0.02154004       1.10061821
F        1.30734530       5.70172725       0.88812333       1.97806940      -0.93879809      -0.43412684
F        3.17973045       5.74546037      -0.36271375      -1.48871227      -1.24286539       1.28879321
F        3.27844146       5.04445968       1.69473404      -1.18957208      -0.35466401      -0.99642967
F        3.40767766       3.91704791      -2.79178609      -0.97748620       0.12545076       0.32794362
F        1.85096336       2.69004649      -3.65048565      -0.00197356       0.26726064       0.33830768
F        1.27135045       4.58883494      -2.72596421       1.35780277      -1.14526296       0.26249264
S        0.05480112      -1.69442278      -0.29074826      -0.29768976      -0.84067405      -0.10388764
S        0.20469246      -0.68172115       2.45339832      -0.17336256      -0.00017438       0.41092334
S        1.58169008       2.13032418       1.29790507       0.44042876       0.87840933       0.34208965
S        1.42352731       1.04934734      -1.42867519       0.20932405       0.45018133      -0.15642701
C        0.54731713      -0.37999863       0.75733719       0.58551842       1.49257816      -0.44610598
C        1.13651813       0.78354743       0.28572009      -1.06868003      -1.65508316       0.26287956
C       -0.80956720      -2.66226226       0.94033937       0.21519526       1.38977075       2.12121730
C       -0.77389454      -2.12099630       2.22638295      -0.20054051      -1.43356673      -2.17934864
C        2.01377857       3.26359742       0.01490668       0.50184125       1.43561066      -1.82239863
C        1.92228485       2.75683969      -1.29454877       0.08662082       1.37173391       2.82869833
C       -1.56366442      -3.93197709       0.50844520      -0.12073321      -0.27384021       0.09775994
C       -1.46180939      -2.76248199       3.45955191       0.45577920       0.46722502      -0.73748227
C        2.48739103       5.06802498       0.60806370      -0.59641083      -1.62004409      -1.38730263
C        2.13012684       3.50841850      -2.61409296      -0.37249405       0.28210144      -0.06592991
