26
Properties=species:S:1:pos:R:3:forces:R:3 id=47604 bond=C-C smiles="[C:19]1(=[C:20]([S:14][C:17](=[C:18]2[S:15][C:21](=[C:22]([S:16]2)[C:26]([F:10])([F:11])[F:12])[C:25]([F:7])([F:8])[F:9])[S:13]1)[C:24]([F:4])([F:5])[F:6])[C:23]([F:1])([F:2])[F:3]" dataset=PubChem energy=-86341.79129247043 pbc="F F F"
F       -1.37861989      -5.37894649       1.16468465      -0.24469039       1.09970911      -0.50902369
F       -3.00769923      -4.07967252       0.47003079       1.31158593      -0.39660187      -0.54026182
F       -1.31416903      -4.65140981      -0.88190169      -0.57595588       0.59460522       0.99137483
F       -0.94567440      -4.28510351       3.66463261      -0.96239315       0.51112430      -0.19770205
F       -1.41222308      -2.31732292       4.42549687      -0.68107452      -0.50537761      -0.79614122
F       -2.88797805      -3.31962938       3.04077940       1.78529198       0.01501170       1.10550165
F        1.40206780       6.06261276       1.00675474       2.20199757      -1.58903854      -0.69596125
F        3.27445295       6.10634588      -0.24408234      -1.71345525      -1.75178124       1.37812802
F        3.37316396       5.40534519       1.81336545      -1.45454293      -0.67910140      -1.39989346
F        3.31295516       3.55616240      -2.91041750      -0.95381526       0.16896553       0.32034356
F        1.75624086       2.32916098      -3.76911706      -0.00230238       0.26938067       0.29924655
F        1.17662795       4.22794943      -2.84459562       1.36355028      -1.09692648       0.22932541
S       -0.03992138      -2.05530829      -0.40937967      -0.29963777      -0.85250550      -0.11535416
S        0.10996996      -1.04260666       2.33476691      -0.17937316      -0.00254891       0.41895609
S        1.48696758       1.76943867       1.17927366       0.49891652       1.05840244       0.41321409
S        1.32880481       0.68846183      -1.54730660       0.21329917       0.29018269      -0.10738100
C        0.45259463      -0.74088414       0.63870578       0.57396470       1.49657371      -0.44550439
C        1.04179563       0.42266192       0.16708868      -1.14278639      -1.70028464       0.24250699
C       -0.90428970      -3.02314777       0.82170796       0.22195965       1.38266927       2.11915014
C       -0.86861704      -2.48188181       2.10775154      -0.20455465      -1.43117489      -2.17050887
C        1.91905607       2.90271191      -0.10372473      -0.00278317      -0.31953240      -2.60114546
C        1.82756235       2.39595418      -1.41318018       0.18839400       1.73962238       2.88300794
C       -1.65838692      -4.29286260       0.38981379      -0.10540559      -0.25533200       0.09891797
C       -1.55653189      -3.12336750       3.34092050       0.46741762       0.47989872      -0.75939122
C        2.58211353       5.42891049       0.72669511       0.15899158       1.27036559      -0.24856857
C        2.03540434       3.14753299      -2.73272437      -0.46514694       0.20045215       0.06688588
