26
Properties=species:S:1:pos:R:3:forces:R:3 id=47604 bond=C-C smiles="[C:19]1(=[C:20]([S:14][C:17](=[C:18]2[S:15][C:21](=[C:22]([S:16]2)[C:26]([F:10])([F:11])[F:12])[C:25]([F:7])([F:8])[F:9])[S:13]1)[C:24]([F:4])([F:5])[F:6])[C:23]([F:1])([F:2])[F:3]" dataset=PubChem energy=-86341.52355623968 pbc="F F F"
F       -1.38976371      -5.42140361       1.15072802      -0.24433001       1.09934479      -0.50896951
F       -3.01884305      -4.12212964       0.45607416       1.31277515      -0.39566992      -0.53954443
F       -1.32531285      -4.69386693      -0.89585832      -0.57595627       0.59440060       0.99147501
F       -0.95681822      -4.32756063       3.65067598      -0.96216557       0.51165370      -0.19831813
F       -1.42336690      -2.35978004       4.41154024      -0.68143315      -0.50504253      -0.79638335
F       -2.89912187      -3.36208650       3.02682277       1.78551540       0.01488018       1.10546417
F        1.41321162       6.10506988       1.02071137       2.19511619      -1.60398241      -0.70136843
F        3.28559677       6.14880300      -0.23012571      -1.71373718      -1.76277212       1.37246080
F        3.38430778       5.44780231       1.82732208      -1.45608495      -0.68987381      -1.40451267
F        3.30181134       3.51370528      -2.92437413      -0.95750839       0.16576866       0.32099446
F        1.74509704       2.28670386      -3.78307369      -0.00227644       0.26770180       0.29511114
F        1.16548413       4.18549231      -2.85855225       1.36269126      -1.09231790       0.22419234
S       -0.05106520      -2.09776541      -0.42333630      -0.30177477      -0.85266333      -0.11117309
S        0.09882614      -1.08506378       2.32081028      -0.18383823      -0.00080404       0.41237202
S        1.47582376       1.72698155       1.16531703       0.50969737       1.05850054       0.39146824
S        1.31766099       0.64600471      -1.56126323       0.23827389       0.27606179      -0.10252824
C        0.44145081      -0.78334126       0.62474915       0.55964102       1.48527839      -0.44374240
C        1.03065181       0.38020480       0.15313205      -1.17237002      -1.68434410       0.24325090
C       -0.91543352      -3.06560489       0.80775133       0.22903971       1.38056667       2.11801545
C       -0.87976086      -2.52433893       2.09379491      -0.20455875      -1.42936927      -2.16820356
C        1.90791225       2.86025479      -0.11768136      -0.02061132      -0.53341926      -2.66448632
C        1.81641853       2.35349706      -1.42713681       0.18445808       1.74071411       2.88582084
C       -1.66953074      -4.33531972       0.37585716      -0.10496533      -0.25817736       0.09801335
C       -1.56767571      -3.16582462       3.32696387       0.46607261       0.47967586      -0.75872060
C        2.59325735       5.47136761       0.74065174       0.22040078       1.52401512      -0.15580553
C        2.02426052       3.10507587      -2.74668100      -0.48552158       0.20653991       0.07513376
