26
Properties=species:S:1:pos:R:3:forces:R:3 id=47604 bond=C-C smiles="[C:19]1(=[C:20]([S:14][C:17](=[C:18]2[S:15][C:21](=[C:22]([S:16]2)[C:26]([F:10])([F:11])[F:12])[C:25]([F:7])([F:8])[F:9])[S:13]1)[C:24]([F:4])([F:5])[F:6])[C:23]([F:1])([F:2])[F:3]" dataset=PubChem energy=-86341.05767008955 pbc="F F F"
F       -1.41205136      -5.50631785       1.12281475      -0.24211004       1.10579082      -0.51037379
F       -3.04113070      -4.20704388       0.42816089       1.32515954      -0.38839368      -0.53622864
F       -1.34760050      -4.77878117      -0.92377159      -0.57373033       0.59925783       0.99512275
F       -0.97910587      -4.41247487       3.62276271      -0.96124705       0.51943142      -0.20530042
F       -1.44565455      -2.44469428       4.38362697      -0.67950287      -0.50323003      -0.80335224
F       -2.92140952      -3.44700074       2.99890950       1.79299300       0.01776456       1.10193375
F        1.43549927       6.18998412       1.04862464       2.12747850      -1.53574826      -0.67350962
F        3.30788442       6.23371724      -0.20221244      -1.66578004      -1.69730459       1.33054957
F        3.40659543       5.53271655       1.85523535      -1.40382299      -0.65700640      -1.33675626
F        3.27952369       3.42879104      -2.95228740      -0.97809300       0.14452566       0.32864415
F        1.72280939       2.20178962      -3.81098696      -0.00360708       0.25481121       0.27950212
F        1.14319648       4.10057807      -2.88646552       1.36063697      -1.08402157       0.21240062
S       -0.07335285      -2.18267965      -0.45124957      -0.31526363      -0.83315217      -0.06140127
S        0.07653849      -1.16997802       2.29289701      -0.20714417       0.00446049       0.35305678
S        1.45353611       1.64206731       1.13740376       0.54828712       1.05968261       0.14398064
S        1.29537334       0.56109047      -1.58917650       0.33206300       0.25203974      -0.05949577
C        0.41916316      -0.86825550       0.59683588       0.46650121       1.35494725      -0.41467058
C        1.00836416       0.29529056       0.12521878      -1.22882364      -1.54677525       0.21596154
C       -0.93772117      -3.15051913       0.77983806       0.26426142       1.37450293       2.10220434
C       -0.90204851      -2.60925317       2.06588164      -0.19617031      -1.41583193      -2.15398978
C        1.88562460       2.77534055      -0.14559463       0.03330130      -0.89571096      -2.59736807
C        1.79413088       2.26858282      -1.45505008       0.12276325       1.57890497       2.85954116
C       -1.69181839      -4.42023396       0.34794389      -0.11538740      -0.28815570       0.09139372
C       -1.58996336      -3.25073886       3.29905060       0.45032461       0.46849433      -0.73894996
C        2.61554500       5.55628185       0.76856501       0.29427809       1.85257996      -0.03726863
C        2.00197287       3.02016163      -2.77459427      -0.55215790       0.25346491       0.09413069
