26
Properties=species:S:1:pos:R:3:forces:R:3 id=47604 bond=C-C smiles="[C:19]1(=[C:20]([S:14][C:17](=[C:18]2[S:15][C:21](=[C:22]([S:16]2)[C:26]([F:10])([F:11])[F:12])[C:25]([F:7])([F:8])[F:9])[S:13]1)[C:24]([F:4])([F:5])[F:6])[C:23]([F:1])([F:2])[F:3]" dataset=PubChem energy=-86343.90204151293 pbc="F F F"
F       -1.19196086      -4.66778975       1.39845830      -0.24393135       1.12759204      -0.51076911
F       -2.82104020      -3.36851578       0.70380444       1.33382333      -0.38581221      -0.54090091
F       -1.12751000      -3.94025307      -0.64812804      -0.57533173       0.60367044       0.99930783
F       -0.75901537      -3.57394677       3.89840626      -0.96339099       0.52434798      -0.20721865
F       -1.22556405      -1.60616618       4.65927052      -0.67096232      -0.50312158      -0.81320992
F       -2.70131902      -2.60847264       3.27455305       1.80053509       0.02871131       1.09413475
F        1.21540877       5.35145602       0.77298109       0.51099466       1.57414289       0.56369240
F        3.08779392       5.39518914      -0.47785599      -0.55803576       0.80830818       0.96194462
F        3.18650493       4.69418845       1.57959180       0.08668942       1.04599268       0.76852025
F        3.49961419       4.26731914      -2.67664385      -1.05265722      -0.11935879       0.10239324
F        1.94289989       3.04031772      -3.53534341      -0.01612269       0.23709127       0.40955309
F        1.36328698       4.93910617      -2.61082197       1.30620901      -1.29874307       0.25048542
S        0.14673765      -1.34415155      -0.17560602      -0.30208983      -0.85732576      -0.08400292
S        0.29662899      -0.33144992       2.56854056      -0.16922471       0.02056724       0.39307028
S        1.67362661       2.48059541       1.41304731       0.12563464      -0.20936944       0.40756610
S        1.51546384       1.39961857      -1.31353295       0.25044914       0.71681131      -0.23184794
C        0.63925366      -0.02972740       0.87247943       0.58808469       1.49350117      -0.50193674
C        1.22845466       1.13381866       0.40086233      -1.11983268      -1.62610447       0.33097028
C       -0.71763067      -2.31199103       1.05548161       0.21690114       1.39343476       2.12280006
C       -0.68195801      -1.77072507       2.34152519      -0.20046658      -1.43580921      -2.19151424
C        2.10571510       3.61386865       0.13004892      -4.88195116     -20.96545458      -9.25089131
C        2.01422138       3.10711092      -1.17940653      -0.21362467       0.26166678       2.72054016
C       -1.47172789      -3.58170586       0.62358744      -0.13633222      -0.29919396       0.09591738
C       -1.36987286      -2.41221076       3.57469415       0.44072734       0.45430337      -0.71172693
C        2.39545450       4.71775375       0.49292146       4.59936712      16.83580606       4.16451184
C        2.22206337       3.85868973      -2.49895072      -0.16535456       0.59778933      -0.33959439
