26
Properties=species:S:1:pos:R:3:forces:R:3 id=47604 bond=C-C smiles="[C:19]1(=[C:20]([S:14][C:17](=[C:18]2[S:15][C:21](=[C:22]([S:16]2)[C:26]([F:10])([F:11])[F:12])[C:25]([F:7])([F:8])[F:9])[S:13]1)[C:24]([F:4])([F:5])[F:6])[C:23]([F:1])([F:2])[F:3]" dataset=PubChem energy=-86326.8403496419 pbc="F F F"
F       -1.15574343      -4.52980411       1.44381737      -0.24239160       1.13469265      -0.51147971
F       -2.78482277      -3.23053014       0.74916351       1.34136278      -0.38147375      -0.54028347
F       -1.09129257      -3.80226743      -0.60276897      -0.57420099       0.60485416       0.99893274
F       -0.72279794      -3.43596113       3.94376533      -0.96315272       0.52792334      -0.21085735
F       -1.18934662      -1.46818054       4.70462959      -0.67018604      -0.50212678      -0.81903503
F       -2.66510159      -2.47048700       3.31991212       1.80507028       0.03138532       1.09109657
F        1.17919134       5.21347038       0.72762202      -1.60718637       4.33286195       1.63793727
F        3.05157649       5.25720350      -0.52321506       0.66873615       3.38115893       0.66669558
F        3.15028750       4.55620281       1.53423273       1.87526206       2.81822732       2.97842136
F        3.53583162       4.40530478      -2.63128478      -1.07855755      -0.31393375      -0.19658143
F        1.97911732       3.17830336      -3.48998434      -0.03048922       0.20939551       0.47309934
F        1.39950441       5.07709181      -2.56546290       1.26648096      -1.42248451       0.24724060
S        0.18295508      -1.20616591      -0.13024695      -0.31341772      -0.89577713      -0.05947783
S        0.33284642      -0.19346428       2.61389963      -0.16265280       0.04796701       0.37336562
S        1.70984404       2.61858105       1.45840638      -0.29184664      -1.41704038       0.56473837
S        1.55168127       1.53760421      -1.26817388       0.28515618       1.01466152      -0.20472048
C        0.67547109       0.10825824       0.91783850       0.58471629       1.47781261      -0.59099903
C        1.26467209       1.27180430       0.44622140      -1.21782608      -1.67397040       0.38603919
C       -0.68141324      -2.17400539       1.10084068       0.22008866       1.39566002       2.11775509
C       -0.64574058      -1.63273943       2.38688426      -0.20377394      -1.44008024      -2.19908467
C        2.14193253       3.75185429       0.17540799     -26.19139169    -103.47754199     -36.81025820
C        2.05043881       3.24509656      -1.13404746      -0.64568741      -1.19227669       2.36090210
C       -1.43551046      -3.44372022       0.66894651      -0.14540879      -0.31524355       0.09594995
C       -1.33365543      -2.27422512       3.62005322       0.43216762       0.44838363      -0.69774875
C        2.35923707       4.57976811       0.44756239      25.85947790      94.82293076      29.40743074
C        2.25828080       3.99667537      -2.45359165      -0.01159627       0.81898391      -0.55129093
