22
Properties=species:S:1:pos:R:3:forces:R:3 id=16744 bond=C-C smiles="[H:15][C:5]([H:16])([H:17])[C:8]([H:22])([C:7]([H:20])([H:21])[N:2]([C:3]([H:9])([H:10])[H:11])[C:4]([H:12])([H:13])[H:14])[C:6]([H:18])([H:19])[Cl:1]" dataset=PubChem energy=-20465.532116287734 pbc="F F F"
Cl       0.86202645      -1.84061449      -2.11303586       0.49304254       0.18964219      -0.15578514
N       -0.76468826       1.49377612       1.33345954       1.09490358      -1.92563955      -1.85965110
C       -0.20747722       1.49345468       2.66234540      -0.48746181       0.18548424       0.00157283
C       -1.97603632       2.26188180       1.08574800       0.10198295       2.22179963       0.54250601
C        2.71242195       0.63924593      -0.72922498      -0.86976166       0.72275056       0.27066819
C        1.94660937      -1.74384373      -0.69061250      -0.74708868      -1.18244871       1.62525911
C       -0.51361013       0.32079638       0.49880975      -0.06814594       1.71765783      -1.72159223
C        1.85917061      -0.46499252       0.08622622       0.11968442       2.87178556      -2.24920119
H       -0.55597068       0.66317248       3.27480910      -0.81508190       0.19899419       0.47919117
H       -0.33750124       2.49878833       3.08416222      -0.26759500      -0.56285224       0.27408680
H        0.84166741       1.30379979       2.69950793       0.99140789       0.11768018      -0.75526406
H       -1.69046200       3.29001568       0.70500261      -0.38969765      -0.94746246       0.16017082
H       -2.46039034       2.48372934       2.06945334       0.18160937      -0.41303465      -0.73381985
H       -2.76408792       1.88923881       0.40330553       0.85785571      -0.44422402       0.39829552
H        2.73468071       1.64583690      -0.22682721       0.16041912      -1.17760925      -0.16921466
H        3.74457030       0.29428778      -0.95644242      -0.41019669      -0.01270005       0.82054057
H        2.38541155       0.89032996      -1.75582665      -0.62854931      -0.50182663       0.55733162
H        1.56541585      -2.53753512      -0.03217402       0.22123529       0.04887270      -0.33852302
H        3.01451283      -2.00353091      -0.89483589      -0.93985274       0.36371003      -0.44272579
H       -0.94492305       0.45510805      -0.57010008       1.31497542       0.21739959       1.68618809
H       -1.05108155      -0.52432968       0.83874680       0.47591739      -1.58060674       0.88261876
H        2.37587815      -0.58000451       1.01994234      -0.38758880      -0.10688211       0.72912253
