22
Properties=species:S:1:pos:R:3:forces:R:3 id=16744 bond=C-C smiles="[H:15][C:5]([H:16])([H:17])[C:8]([H:22])([C:7]([H:20])([H:21])[N:2]([C:3]([H:9])([H:10])[H:11])[C:4]([H:12])([H:13])[H:14])[C:6]([H:18])([H:19])[Cl:1]" dataset=PubChem energy=-20467.197234552896 pbc="F F F"
Cl       0.65710448      -1.77275090      -2.07740364       0.50216106       0.17220296      -0.16383462
N       -0.55976629       1.42591253       1.29782732       1.06209904      -1.30186641      -1.68190280
C       -0.00255525       1.42559109       2.62671318      -0.51598108       0.19215450      -0.11250593
C       -1.77111435       2.19401821       1.05011578       0.11454808       2.02971008       0.72514174
C        2.50749998       0.70710952      -0.69359276      -0.63974337       0.66371492       0.24284398
C        1.74168740      -1.67598014      -0.65498028      -0.54903512      -1.29149920       1.55000487
C       -0.30868816       0.25293279       0.46317753       1.34517626       0.72736251      -2.21627604
C        1.65424864      -0.39712893       0.12185844      -1.09196120       3.48990339      -1.85943325
H       -0.35104871       0.59530889       3.23917688      -0.82551770       0.17888777       0.51891795
H       -0.13257927       2.43092474       3.04853000      -0.24879730      -0.56909053       0.28204994
H        1.04658938       1.23593620       2.66387571       1.01431539       0.13840435      -0.71233915
H       -1.48554003       3.22215209       0.66937039      -0.38429506      -0.94660627       0.14227884
H       -2.25546837       2.41586575       2.03382112       0.13536661      -0.38356115      -0.73624178
H       -2.55916595       1.82137522       0.36767331       0.84094596      -0.44491462       0.38746603
H        2.52975874       1.71370049      -0.19119499       0.13982119      -1.17733434      -0.16093257
H        3.53964833       0.36215137      -0.92081020      -0.44541400       0.02947722       0.82524322
H        2.18048958       0.95819355      -1.72019443      -0.65066459      -0.50882835       0.55778729
H        1.36049388      -2.46967153       0.00345820       0.20407575       0.04147470      -0.33624783
H        2.80959086      -1.93566732      -0.85920367      -0.99925106       0.36044352      -0.42332057
H       -0.74000108       0.38724446      -0.60573230       1.16568549       0.21387701       1.74793903
H       -0.84615958      -0.59219327       0.80311458       0.06185904      -1.45219864       0.79152354
H        2.17095618      -0.51214092       1.05557456      -0.23317866      -0.16156060       0.63456951
