22
Properties=species:S:1:pos:R:3:forces:R:3 id=16744 bond=C-C smiles="[H:15][C:5]([H:16])([H:17])[C:8]([H:22])([C:7]([H:20])([H:21])[N:2]([C:3]([H:9])([H:10])[H:11])[C:4]([H:12])([H:13])[H:14])[C:6]([H:18])([H:19])[Cl:1]" dataset=PubChem energy=-20468.444904365515 pbc="F F F"
Cl       0.51689471      -1.72631792      -2.05302371       0.52597075       0.13694537      -0.18516817
N       -0.41955652       1.37947955       1.27344739       0.95152820      -0.93068149      -1.58290114
C        0.13765452       1.37915811       2.60233325      -0.52988767       0.20309695      -0.18683513
C       -1.63090458       2.14758523       1.02573585       0.12517751       1.92163192       0.84581445
C        2.36729021       0.75354250      -0.66921283      -0.37036110       0.59172253       0.21903871
C        1.60147763      -1.62954716      -0.63060035      -0.29818966      -1.38720356       1.48042322
C       -0.16847839       0.20649981       0.43879760       1.80777038       0.23540952      -2.50934558
C        1.51403887      -0.35069595       0.14623837      -1.43538490       3.81986768      -1.62187294
H       -0.21083894       0.54887591       3.21479695      -0.83288761       0.16555682       0.53845630
H        0.00763050       2.38449176       3.02415007      -0.23678420      -0.57457297       0.28409051
H        1.18679915       1.18950322       2.63949578       1.02838964       0.15806996      -0.67479516
H       -1.34533026       3.17571911       0.64499046      -0.37941091      -0.94779664       0.13582407
H       -2.11525860       2.36943277       2.00944119       0.10807978      -0.36013605      -0.73592322
H       -2.41895618       1.77494224       0.34329338       0.83965782      -0.44856703       0.38073050
H        2.38954897       1.76013347      -0.16681506       0.12134662      -1.18080365      -0.15269067
H        3.39943856       0.40858435      -0.89643027      -0.46299534       0.07210953       0.81661799
H        2.04027981       1.00462653      -1.69581450      -0.67296261      -0.51633698       0.55375147
H        1.22028411      -2.42323855       0.02783813       0.18723362       0.03874381      -0.32857066
H        2.66938109      -1.88923434      -0.83482374      -1.04990869       0.34908778      -0.41969475
H       -0.59979131       0.34081148      -0.63011223       0.93109818       0.25322495       1.84050482
H       -0.70594981      -0.63862625       0.77873465      -0.33816709      -1.35087814       0.76309539
H        2.03074641      -0.46570794       1.07995449      -0.01665785      -0.24923663       0.54190997
