20
Properties=species:S:1:pos:R:3:forces:R:3 id=31180 bond=N-O smiles="[H:16][c:7]1[c:9]([c:8]([c:11]([c:12]([c:10]1[Cl:2])/[N:4]=[N:5]/[N:13]([C:14]([H:18])([H:19])[H:20])[O:6][H:15])[Cl:3])[H:17])[Cl:1]" dataset=PubChem energy=-51452.586360156456 pbc="F F F"
Cl       0.51894403       1.82593379       5.66806146      -0.02347672      -0.18888878      -0.88729332
Cl      -1.63246971       2.96276328       0.80913615       0.58577570      -0.58308127       0.42766593
Cl       2.51641649      -0.74036124       1.31699916      -0.58098053       0.61822954       0.42733756
N        0.11595136       0.75555447      -0.20403478       0.55339392      -0.37174377      -1.93005919
N        0.59846759      -0.30156007      -0.75673453      -1.18976661       1.16671052      -0.60441242
O       -0.02294757       0.70699948      -2.90384833       0.56031865      -1.02256630       0.68496657
C       -0.44150572       2.22738406       3.12774392       0.22923160       0.28961624       0.94809433
C        1.38100463       0.63136943       3.34424182      -0.21464240      -0.03226400       0.05283769
C        0.47186348       1.52136263       3.92687555       0.17422457       0.03360061      -0.49638259
C       -0.49269622       2.01289710       1.76550420       0.03515190      -0.50010458      -0.25553273
C        1.31791586       0.38682037       1.96557780      -0.53047610       0.25684241       0.38455657
C        0.31793052       1.01687679       1.16733768       0.82552491      -1.06955422      -0.47230564
N        0.37714427      -0.42711505      -2.08836821      -0.31218454       1.05545556       1.96470212
C        1.11126501      -1.52699497      -2.75447754      -1.05323787       0.59584357      -0.16375143
H       -0.23345109       1.45959849      -2.30481592       0.30582396      -1.03182885       0.24079165
H       -1.07918316       2.97415492       3.60592981       0.18403888      -0.33608663      -0.32831284
H        2.10869307       0.08698759       3.95127388      -0.29972653       0.35284441      -0.25618904
H        1.00788296      -2.42647650      -2.14715150      -0.05789346       0.34275589       0.08276903
H        0.65299495      -1.73062017      -3.73217801       0.16340367       0.30653794       0.40441272
H        2.14491600      -1.27307799      -2.85639504       0.64558899       0.11895749      -0.22498693
