20
Properties=species:S:1:pos:R:3:forces:R:3 id=31180 bond=N-O smiles="[H:16][c:7]1[c:9]([c:8]([c:11]([c:12]([c:10]1[Cl:2])/[N:4]=[N:5]/[N:13]([C:14]([H:18])([H:19])[H:20])[O:6][H:15])[Cl:3])[H:17])[Cl:1]" dataset=PubChem energy=-51448.71873827379 pbc="F F F"
Cl       0.66469177       1.41279208       5.96512922      -0.02465391      -0.20597389      -0.95610217
Cl      -1.48672197       2.54962157       1.10620391       0.64014121      -0.65207882       0.44695218
Cl       2.66216423      -1.15350295       1.61406692      -0.68612140       0.61342540       0.33234845
N        0.26169910       0.34241276       0.09303298       1.71311565      -1.03680524      -0.87123375
N        0.74421533      -0.71470178      -0.45966677      -2.16706831       3.12605093      -2.95700664
O       -0.16869531       1.12014119      -3.20091609       0.56698355      -0.96026110       1.37171377
C       -0.29575798       1.81424235       3.42481168       0.24094513       0.27122736       0.91966611
C        1.52675237       0.21822772       3.64130958      -0.18227968      -0.00574484       0.01163858
C        0.61761122       1.10822092       4.22394331       0.16976338       0.05111426      -0.42229686
C       -0.34694848       1.59975539       2.06257196      -0.06297117      -0.34634028      -0.29726812
C        1.46366360      -0.02632134       2.26264556      -0.47990271       0.12592056       0.39464467
C        0.46367826       0.60373508       1.46440544       0.39678869      -1.03557074      -0.30208636
N        0.52289201      -0.84025676      -1.79130045      -0.49310479      -0.41849611       3.03400775
C        1.25701275      -1.94013668      -2.45740978      -0.55852016       0.81553675      -0.38102719
H       -0.37919883       1.87274020      -2.60188368       0.28737888      -0.92242884      -0.10453143
H       -0.93343542       2.56101321       3.90299757       0.18277745      -0.33787250      -0.33783505
H        2.25444081      -0.32615412       4.24834164      -0.29981276       0.35925575      -0.26323153
H        1.15363070      -2.83961821      -1.85008374      -0.08205211       0.19887834       0.13461286
H        0.79874269      -2.14376188      -3.43511025       0.14622414       0.35766497       0.44930546
H        2.29066374      -1.68621970      -2.55932728       0.69085161       0.00267198      -0.20447618
