20
Properties=species:S:1:pos:R:3:forces:R:3 id=31180 bond=N-O smiles="[H:16][c:7]1[c:9]([c:8]([c:11]([c:12]([c:10]1[Cl:2])/[N:4]=[N:5]/[N:13]([C:14]([H:18])([H:19])[H:20])[O:6][H:15])[Cl:3])[H:17])[Cl:1]" dataset=PubChem energy=-51448.6691970691 pbc="F F F"
Cl       0.66754957       1.40469126       5.97095408      -0.02472090      -0.20639512      -0.95784652
Cl      -1.48386417       2.54152075       1.11202877       0.64133688      -0.65349966       0.44795243
Cl       2.66502203      -1.16160377       1.61989178      -0.68662131       0.61383571       0.33297693
N        0.26455690       0.33431194       0.09885784       1.72208146      -1.02392607      -0.86131389
N        0.74707313      -0.72280260      -0.45384191      -2.15246856       3.11118589      -2.96724154
O       -0.17155311       1.12824201      -3.20674095       0.55091772      -0.92106804       1.35785828
C       -0.29290018       1.80614153       3.43063654       0.24062545       0.27127086       0.91874068
C        1.52961017       0.21012690       3.64713444      -0.18095598      -0.00527513       0.01015282
C        0.62046902       1.10012010       4.22976817       0.16949705       0.05155464      -0.42046186
C       -0.34409068       1.59165457       2.06839682      -0.06582902      -0.34136184      -0.29763635
C        1.46652140      -0.03442216       2.26847042      -0.47804859       0.11979160       0.39496151
C        0.46653606       0.59563426       1.47023030       0.38706593      -1.03801022      -0.30555564
N        0.52574981      -0.84835758      -1.78547559      -0.49664967      -0.45627102       3.04791675
C        1.25987055      -1.94823750      -2.45158492      -0.55574609       0.81669289      -0.36852891
H       -0.38205663       1.88084102      -2.60770854       0.28544203      -0.91699148      -0.11503339
H       -0.93057762       2.55291239       3.90882243       0.18271396      -0.33788486      -0.33801327
H        2.25729861      -0.33425494       4.25416650      -0.29968983       0.35939619      -0.26348794
H        1.15648850      -2.84771903      -1.84425888      -0.07891730       0.19611741       0.13531151
H        0.80160049      -2.15186270      -3.42928539       0.14552115       0.35967151       0.45001882
H        2.29352154      -1.69432052      -2.55350242       0.69290973       0.00129527      -0.20301476
