30
Properties=species:S:1:pos:R:3:forces:R:3 id=21773 bond=C-O smiles="[H:14][C:3]1([C:5]([C:9]([C:12]2([C:10]([C:6]([C:4]([C:8]([C:11]2([C:7]1([H:22])[H:23])[H:30])([H:24])[H:25])([H:16])[H:17])([H:20])[H:21])([H:28])[H:29])[O:2][O:1][H:13])([H:26])[H:27])([H:18])[H:19])[H:15]" dataset=PubChem energy=-14765.383921456836 pbc="F F F"
O        3.25728680       0.49033210       1.59183168      -0.87596543       0.90489916       1.15660711
O        2.17502286       0.47835900       0.62347127       3.46450306      -0.65877916      -2.65734811
C       -0.21630701      -1.91348603      -0.15022798       0.09345236      -0.34088221      -0.03410725
C        0.61108471       3.07814929      -0.32565536       0.43134397      -0.90602107       0.58283831
C        0.61962582      -1.97684601       1.11522887       0.35246771       0.60235429       0.32225086
C        0.12103960       2.99194786       1.11904697      -0.77296191       1.57773719       0.49614375
C        0.13481733      -0.71592024      -1.00949105      -0.64188297       0.31185874       0.41655909
C        0.19162059       1.81224486      -1.09397347       0.63920618       0.03770226       0.65303428
C        0.54318579      -0.65495351       1.95557813      -0.11179860      -1.17017701      -1.28109667
C        0.68391539       1.84452865       1.95336572      -0.36343520       0.05129412      -0.63687399
C        0.00582996       0.57157272      -0.17197331       0.09054211       0.47379798      -1.39976512
C        0.89812395       0.56812019       1.06926171      -2.14082380      -0.10751673       3.73878459
H        3.87714888      -0.23561012       1.42548424      -0.96986070      -0.22195481      -0.80676675
H       -1.27976629      -1.87965539       0.13639478       0.24473277      -0.07395132      -0.30463070
H       -0.00302914      -2.82425335      -0.71874364      -0.44019751      -0.00109830       0.06429917
H        1.69462493       3.14248368      -0.28085192       0.22423102      -0.13703936      -0.11339296
H        0.30168980       3.96913454      -0.84612031      -0.40455784       0.32296921       0.02585004
H        0.23178854      -2.77277115       1.73063032       0.08616208      -0.41964703       0.24980024
H        1.64547184      -2.25298813       0.80552657      -0.30446460       0.36307139       0.46152143
H       -0.97844419       2.89607617       1.11661939       0.29472223       0.12978958      -0.08158168
H        0.33491658       3.95604440       1.64638082      -0.22919311      -0.69274194      -0.41038890
H       -0.54049584      -0.69869712      -1.87661679       0.14417015       0.29355627       0.23657189
H        1.13843343      -0.78299323      -1.40391584       0.33586311      -0.10129999      -0.00870864
H       -0.75414273       1.97862813      -1.58869441      -0.19757907       0.03474734      -0.28022193
H        0.95642584       1.61601481      -1.84330424      -0.15290976      -0.19158332      -0.13178280
H       -0.47609910      -0.59914187       2.36746041       0.30457385       0.29085203      -0.26876571
H        1.21925672      -0.71339098       2.79646723       0.21727640       0.11676186       0.18154447
H        1.62760833       2.14907369       2.40673641      -0.00481724      -0.29079270      -0.08659971
H       -0.03777197       1.65044889       2.77153341       0.54078404      -0.08486272      -0.43869252
H       -1.02760610       0.62694831       0.17683841       0.14401517      -0.11383669       0.35675294
