30
Properties=species:S:1:pos:R:3:forces:R:3 id=46161 bond=C-O smiles="[H:13][C:3](=[C:5]([C:7]([H:17])([H:18])[H:19])[C:9]([H:23])([H:24])[O:1][C:11]([H:27])([H:28])[C:12]([H:29])([H:30])[O:2][C:10]([H:25])([H:26])[C:6](=[C:4]([H:15])[H:16])[C:8]([H:20])([H:21])[H:22])[H:14]" dataset=PubChem energy=-14764.070895003691 pbc="F F F"
O       -1.13489853       1.59254019       0.52550651       1.47364601       1.69308535       2.93744820
O        1.83783189       1.84852790       2.34788101       0.33962457      -0.24152791      -0.18986947
C       -0.86470269      -1.76508934      -0.69900406      -0.73484639       2.83064408       1.87641694
C        2.94645730       0.56339732      -0.62034388      -0.33667051      -0.89911637       3.36274248
C       -1.56185805      -0.58232410      -0.41988981       2.04611641      -3.02652594      -1.20596629
C        2.90326492       0.33931317       0.76232522       0.26323157       1.20507955      -3.11791348
C       -2.59144318      -0.07249562      -1.40870261       0.02275369       0.27895714       0.46509261
C        2.61567632      -1.02346313       1.31204193       0.69053410       0.10559966      -0.66569971
C       -1.32057058       0.19192523       0.86452120       0.27438990       0.75017172      -0.10338850
C        3.10925642       1.49150800       1.75585942      -0.29411390      -0.99675468      -0.40988903
C       -0.42751964       2.60782527       1.81303959      -0.51975374      -1.04670076      -2.52565258
C        1.04756293       2.72803628       1.52934604       0.60702567       0.10299426       0.61182723
H       -1.05298995      -2.36494453      -1.56245995      -0.27895734      -0.06928650      -0.43497953
H       -0.06782305      -2.14237745      -0.02532056      -0.71073865       0.43789307      -0.40363706
H        3.18010822       1.54564565      -1.02906305      -0.09393485      -0.34136937       0.05440572
H        2.69039718      -0.28259087      -1.27848787       0.30167168       0.70314627       0.21398207
H       -2.26293647       0.85321279      -1.87290907       0.11380918       0.22785926       0.21390803
H       -2.78343307      -0.74524624      -2.24341727       0.05122965      -0.29418683       0.33377655
H       -3.52615820       0.15335320      -0.88301135       0.06746853      -0.05973464      -0.19187167
H        2.40114657      -1.70118296       0.47312896      -0.10560898       0.09739791       0.54230518
H        3.50833932      -1.38388670       1.83266108      -0.11751467      -0.07935724      -0.00236624
H        1.81918589      -0.98144925       2.02965050      -0.50377198      -0.13794573       0.25740485
H       -2.23930751       0.09298422       1.43502068      -0.20329144       0.02017500       0.40747733
H       -0.48491126      -0.21136482       1.48288536      -0.46885495       0.19667083      -0.71070589
H        3.88237492       1.21998417       2.51172440      -1.09115512       0.10388945      -0.04367084
H        3.52747837       2.32658815       1.23291694       0.13152922       0.68790314      -0.39326908
H       -0.60684164       2.21079313       2.79503112      -0.35288279      -0.64766140       0.08980528
H       -0.84984859       3.63368570       1.76054244      -0.38702347      -1.12194448      -0.59679772
H        1.36700705       3.75953257       1.75303500      -0.13923464      -0.14359571       0.07686981
H        1.24250183       2.58722185       0.47988764      -0.04250820      -0.33500422      -0.44469098
