30
Properties=species:S:1:pos:R:3:forces:R:3 id=46161 bond=C-O smiles="[H:13][C:3](=[C:5]([C:7]([H:17])([H:18])[H:19])[C:9]([H:23])([H:24])[O:1][C:11]([H:27])([H:28])[C:12]([H:29])([H:30])[O:2][C:10]([H:25])([H:26])[C:6](=[C:4]([H:15])[H:16])[C:8]([H:20])([H:21])[H:22])[H:14]" dataset=PubChem energy=-14765.271871196643 pbc="F F F"
O       -1.06355998       1.69493081       0.65535311      -0.55567300      -0.74996050       0.42142445
O        1.76649334       1.74613728       2.21803441       0.48586488      -0.39144295      -0.18862290
C       -0.79336414      -1.66269872      -0.56915746      -0.75190354       2.83800568       1.90962162
C        2.87511875       0.46100670      -0.75019048      -0.34271209      -0.90872921       3.35587594
C       -1.49051950      -0.47993348      -0.29004321       2.04207955      -3.09238574      -1.17796084
C        2.83192637       0.23692255       0.63247862       0.26681720       1.21613063      -3.11166831
C       -2.52010463       0.02989500      -1.27885601       0.02962576       0.28995921       0.47852064
C        2.54433777      -1.12585375       1.18219533       0.71622037       0.10280588      -0.67281851
C       -1.24923203       0.29431585       0.99436780       0.15525101       0.38631104      -0.54468715
C        3.03791787       1.38911738       1.62601282      -0.34009585      -0.96071808      -0.35105859
C       -0.49885819       2.50543465       1.68319299       0.22904640       0.17726955      -1.13410511
C        0.97622438       2.62564566       1.39949944       1.19151578       0.92559579       1.13259123
H       -0.98165140      -2.26255391      -1.43261335      -0.27731298      -0.06059581      -0.43641421
H        0.00351550      -2.03998683       0.10452604      -0.74356096       0.44197206      -0.42122116
H        3.10876967       1.44325503      -1.15890965      -0.09371312      -0.34312388       0.05830839
H        2.61905863      -0.38498149      -1.40833447       0.30242545       0.69794847       0.21171399
H       -2.19159792       0.95560341      -1.74306247       0.11369529       0.22848789       0.20940298
H       -2.71209452      -0.64285562      -2.11357067       0.05278810      -0.29070298       0.34019361
H       -3.45481965       0.25574382      -0.75316475       0.06162359      -0.06150730      -0.19633383
H        2.32980802      -1.80357358       0.34328236      -0.08599244       0.09904812       0.54747018
H        3.43700077      -1.48627732       1.70281448      -0.12028227      -0.07666323      -0.00009083
H        1.74784734      -1.08383987       1.89980390      -0.49374917      -0.14108717       0.26405129
H       -2.16796896       0.19537484       1.56486728      -0.19395463       0.11314584       0.41922616
H       -0.41357271      -0.10897420       1.61273196      -0.45013620       0.30747334      -0.70840284
H        3.81103637       1.11759355       2.38187780      -1.07567657       0.09463493      -0.04904436
H        3.45613982       2.22419753       1.10307034       0.12967034       0.68776216      -0.39524703
H       -0.67818019       2.10840251       2.66518452      -0.09498618      -0.21367042       0.50870507
H       -0.92118714       3.53129508       1.63069584      -0.09327501      -0.77676823      -0.13819647
H        1.29566850       3.65714195       1.62318840       0.03879209      -0.16033078       0.06915923
H        1.17116328       2.48483123       0.35004104      -0.10391487      -0.37737369      -0.40251754
