19
Properties=species:S:1:pos:R:3:forces:R:3 id=48334 bond=C-O smiles="[H:15][C:9]([H:16])([H:17])[C:6]1=[C:5]([C:4](=[N:2][N:7]1[C:10]([H:18])([H:19])[O:3][H:11])[C:8]([H:12])([H:13])[H:14])[Br:1]" dataset=PubChem energy=-81443.8417084133 pbc="F F F"
Br      -0.71768015       3.35037611       1.56608081       0.75571373      -1.81829338      -0.89980639
N        1.32689816       0.47417645      -0.73393404      -1.03772324      -0.90366377       2.08033436
O        1.62558434      -2.21264404      -0.32904609       2.38669739     -14.44672144     -33.44493001
C        0.74431372       1.65769623      -0.51579148      -0.00607933      -0.29289225      -0.56629267
C        0.12627641       1.73001967       0.76268256      -0.32451259       0.73958486      -0.83469824
C        0.18955094       0.45056296       1.25246996       1.03252905      -0.12288246       1.86483783
N        0.99201599      -0.28175052       0.41272610      -1.11872552       1.63818411       0.91958996
C        0.59593837       2.62323378      -1.65152716      -0.66181848      -1.82440884      -1.16575654
C       -0.50098675      -0.01393487       2.54513335       0.10558358      -0.46187526      -1.88268742
C        1.55501205      -1.70714380       0.59340507      -0.22380117      16.16740018      27.78294847
H        1.50475196      -1.54172534      -1.04206701       0.75195480      -1.14522263      -0.88107068
H        0.52373644       2.00800977      -2.63320327       0.57626504       1.16652764       1.62669864
H        1.41962833       3.30608843      -1.64088749       0.15102462       0.67265937      -0.41103713
H       -0.38995605       3.07961343      -1.56308138       0.35957541       0.48458890       0.08653044
H       -1.17502480      -0.80132533       2.14800906       0.54412742      -0.15181257       1.13061343
H       -1.15492051       0.77144153       2.84595990      -0.43083418       0.71102059       0.08853531
H        0.11514867      -0.21652939       3.42787385       0.03046767      -0.57896396      -0.64713007
H        0.91912160      -2.26026441       1.14553863      -2.86117337      -0.74858784       4.38068975
H        2.53296477      -1.63657094       1.13730186      -0.02399336       0.91034303       0.76893524
