17
Properties=species:S:1:pos:R:3:forces:R:3 id=43883 bond=C-O smiles="[H:13][C:10]([H:14])([H:15])[O:6]/[C:8](=[C:9](/[C:12]([F:3])([F:4])[F:5])[O:7][C:11]([H:16])([H:17])[F:2])/[F:1]" dataset=PubChem energy=-22955.514880215746 pbc="F F F"
F        0.49154161      -1.34548740       1.91356067      -0.18747365      -0.35362558      -0.47501333
F        1.19206471       1.73203513      -1.43037307       1.76997244      -1.34331798      -1.88992077
F       -0.75227341       0.42075233       3.64539961       2.30843302      -0.28702031      -0.63477353
F        0.04030159       2.36491485       3.27541475       0.20453648      -0.07589447       0.20799153
F        1.55502918       0.86819921       3.62616686      -2.14949937      -0.91889094      -0.48439480
O        0.00951889      -0.78630011      -0.25790646       0.92986578      -0.14035427       0.16691738
O        0.40352970       2.32407960       0.48607011      -0.98172077      -2.61120636       3.81658975
C        0.28996071      -0.40926067       0.98940827      -0.30718719       5.34978246       0.74456289
C        0.32910329       0.93956049       1.46919642      -0.11112151      -2.64486073      -2.74476523
C        1.15000620      -1.45208685      -0.85244019       1.91184122      -0.77307466       1.82964241
C        0.13426207       2.29864975      -0.87333953      -1.57633619      -0.46614124       0.82317722
C        0.31419536       1.05763002       3.04716496      -0.26854843       3.13774629      -1.33884056
H        1.05023506      -1.81471197      -1.83450861      -0.98961206       0.56514287      -1.41476932
H        2.09379902      -0.86336713      -0.74184747      -1.05943991      -0.07445811      -0.24740439
H        1.34032712      -2.39480559      -0.32764281      -0.14203983       0.22568667       0.38514921
H        0.09985570       3.32334658      -1.24218654      -0.08955950       0.27252581       0.57830330
H       -0.79694639       1.77479145      -1.21581149       0.75711541       0.14450871       0.67490258
