23
Properties=species:S:1:pos:R:3:forces:R:3 id=24574 bond=C-S smiles="[c:12]1([c:14]([c:18]([c:22]([c:19]([c:15]1[F:4])[F:8])[S:11][c:23]2[c:20]([c:16]([c:13]([c:17]([c:21]2[F:10])[F:6])[F:2])[F:5])[F:9])[F:7])[F:3])[F:1]" dataset=PubChem energy=-50467.02564453336 pbc="F F F"
F        0.63685131       0.78502790       5.53963531       0.27128926      -0.04252678      -0.89748404
F       -2.27667223       0.60534897      -3.50066861       0.96632667       0.24112435       0.64036377
F        0.49976557       2.98338961       3.89863789       0.14254279      -0.70662003      -0.26109879
F        1.39471391      -1.67116833       4.46933568       0.10970210       1.39050606      -0.67830871
F       -0.59502517       2.78725081      -3.23149308       0.21416938      -0.75521445       0.34996695
F       -1.83744394      -1.62221355      -2.09195670       0.48574786       0.56059095       0.04118943
F        1.09619358       2.81170939       1.26524777      -0.00020369      -0.92295715       0.40006372
F        2.04466656      -1.87183500       1.83365429      -0.53004205       1.34507855       0.67293137
F        1.71546162       2.59034114      -1.73187550      -1.26775517      -1.32494639       0.25843305
F        0.27807016      -1.80996603      -0.37565752      -0.14723757       1.19348982      -0.68620971
S        2.09759108       0.28412204      -0.18584263      24.72850761      -2.21683080      17.34315480
C        0.95823905       0.68058846       4.24013174       0.08559673      -0.17890070      -0.59565815
C       -1.20728146       0.55575291      -2.68126520       0.16716898       1.24219596      -0.38712087
C        0.85820616       1.78743433       3.38012183      -0.12563174       0.57581750       0.43162465
C        1.37415722      -0.54021741       3.69328869      -0.47638380      -1.21821892       0.41848782
C       -0.32164477       1.65659767      -2.54056581      -0.30376413       0.41246706      -0.63482133
C       -0.97511279      -0.58963687      -1.96724185      -0.46750028      -1.46942802       0.71180554
C        1.14970121       1.69293307       2.01924253       0.15180057      -0.37186416       0.56956864
C        1.63425950      -0.66715384       2.32213951       0.37165137       0.01735806       0.40008123
C        0.80875675       1.57613342      -1.72761377      -1.30290338       0.23286197      -1.55821471
C        0.10012836      -0.67945237      -1.09338971      -1.05139758      -0.17703302      -0.98639152
C        1.55037824       0.45582633       1.49466682      -0.06986434      -0.17072893       0.15616544
C        1.01930598       0.38614004      -0.98124155     -21.95067366       2.37440026     -15.70779380
