26
Properties=species:S:1:pos:R:3:forces:R:3 id=2838 bond=C-C smiles="[H:19][C:8]([H:20])([H:21])[C:14]1([C:13]([C:11]([C:12]1([F:3])[F:4])([F:1])[F:2])([O:5][H:15])[O:6][C:10]([H:25])([H:26])[C:7]([H:16])([H:17])[H:18])[C:9]([H:22])([H:23])[H:24]" dataset=PubChem energy=-23465.006381468593 pbc="F F F"
F        1.73532517      -1.30649363       2.21892325      -0.68620333      -1.22079576       0.67254524
F        2.89976711       0.03497482       1.11200772      -1.03860726       0.62944654      -0.98965312
F        2.26734859       1.94491232       2.80973998      -1.21052235      -0.56085055       0.21551939
F        0.65015798       0.57349859       3.67599145       0.63994979       1.45189460      -1.33180478
O       -0.71578460      -0.70781361       1.24162571       1.50849902       0.66658344       0.45533765
O        0.35925507       0.12086010      -0.59178611       1.45406092       0.66249411       1.12124771
C        1.09510816      -0.78707420      -2.72195442      -0.76133277       0.60001184       0.55062746
C        0.74740330       2.39887527       0.58587870       2.40780511       8.82223654      -4.45615120
C       -1.07424908       2.14116967       1.92265145      -0.89383701      -1.77139078       0.06425369
C        1.00579191      -1.00774335      -1.23380681      -0.80263565      -1.32488648       1.25382852
C        1.63322158      -0.14418101       1.61983708       2.60893369       0.37770738       2.25376481
C        1.22435368       1.10411132       2.50777689       1.99266230      -1.84571500       1.98523020
C        0.39179997       0.15355707       0.86962239      -3.53473014      -3.61751164      -5.07835196
C        0.30582149       1.50873816       1.40805856      -6.93994828      -3.35005705       8.35441248
H       -1.43219285      -0.28437685       0.75903983      -0.15170918      -0.21116408       0.08455556
H        1.32514943      -1.73705064      -3.15801413       0.75880944      -0.35132517      -0.42951769
H        0.07906104      -0.60670518      -3.06502350      -0.01011685       0.44613703      -0.16537192
H        1.75362999       0.04156787      -2.99657305      -0.05736040      -0.39600535      -0.10968113
H        1.68727908       2.17487398       0.26655305       2.62800889      -0.04065795      -1.64745206
H        0.72126720       3.39783350       1.07734570       0.55776033      -0.49682838      -0.62020589
H        0.00654406       2.42919985      -0.15753031      -0.18903387       0.46579038      -1.79252801
H       -0.90100615       3.15438307       2.26997868       0.00424839      -0.11906199      -0.01665046
H       -1.64593272       1.58123279       2.65250508       0.80259193      -0.25054531       0.91457987
H       -1.89939670       2.12658715       1.19745020       0.84459130       0.48888565      -0.81972169
H        0.23067184      -1.85240375      -1.09244426       1.78502756       0.73269899       0.07688211
H        2.03651471      -1.22582018      -0.77526935      -1.71716336       0.21000333      -0.52076174
