26
Properties=species:S:1:pos:R:3:forces:R:3 id=2838 bond=C-C smiles="[H:19][C:8]([H:20])([H:21])[C:14]1([C:13]([C:11]([C:12]1([F:3])[F:4])([F:1])[F:2])([O:5][H:15])[O:6][C:10]([H:25])([H:26])[C:7]([H:16])([H:17])[H:18])[C:9]([H:22])([H:23])[H:24]" dataset=PubChem energy=-23462.23320622843 pbc="F F F"
F        1.49087810      -1.79924810       2.67405853      -0.67667698      -1.29151085       0.69243359
F        2.65532004      -0.45777965       1.56714300      -1.06333624       0.60041035      -0.96873732
F        2.02290152       1.45215785       3.26487526      -1.11047165      -0.57933155       0.42492441
F        0.40571091       0.08074412       4.13112673       0.52383190       1.49349983      -1.16734341
O       -0.96023167      -1.20056808       1.69676099       1.34742443       0.79024858       0.48909695
O        0.11480800      -0.37189437      -0.13665083       1.47171811       0.61746451       0.84072671
C        0.85066109      -1.27982867      -2.26681914      -0.76668407       0.57595283       0.54814931
C        0.99185037       2.89162974       0.13074342      -2.21162727       1.23452153       2.69395692
C       -1.31869615       1.64841520       2.37778673       0.38737507      -0.56521195      -1.51496775
C        0.76134484      -1.50049782      -0.77867153      -0.86149683      -1.26073082       1.31386291
C        1.38877451      -0.63693548       2.07497236       2.48202778       0.61365604       2.21204491
C        0.97990661       0.61135685       2.96291217       2.35487033      -1.07536265       0.76033789
C        0.14735290      -0.33919740       1.32475767      -2.70400722      -2.08043491      -5.65186028
C        0.06137442       1.01598369       1.86319384      -2.84483195       3.94484672       1.04643973
H       -1.67663992      -0.77713132       1.21417511      -0.17001630      -0.22042646       0.04072697
H        1.08070236      -2.22980511      -2.70287885       0.76263739      -0.34957512      -0.43967602
H       -0.16538603      -1.09945965      -2.60988822      -0.01269345       0.44932629      -0.16466384
H        1.50918292      -0.45118660      -2.54143777      -0.05293285      -0.39209698      -0.10853662
H        1.93172615       2.66762845      -0.18858223       2.40327656      -1.35218520      -0.48943401
H        0.96571427       3.89058797       0.62221042       0.00057393      -1.19940310       0.46888390
H        0.25099113       2.92195432      -0.61266559      -1.07294121      -0.89014268      -0.72648814
H       -1.14545322       2.66162860       2.72511396      -0.06177089      -0.06644635      -0.01000846
H       -1.89037979       1.08847832       3.10764036       1.00426514      -0.45936338       0.93569238
H       -2.14384377       1.63383268       1.65258548       0.79399657       0.55430334      -0.75386834
H       -0.01377523      -2.34515822      -0.63730898       1.78422963       0.70062994       0.05943043
H        1.79206764      -1.71857465      -0.32013407      -1.70869296       0.20269802      -0.52651897
