26
Properties=species:S:1:pos:R:3:forces:R:3 id=2838 bond=C-C smiles="[H:19][C:8]([H:20])([H:21])[C:14]1([C:13]([C:11]([C:12]1([F:3])[F:4])([F:1])[F:2])([O:5][H:15])[O:6][C:10]([H:25])([H:26])[C:7]([H:16])([H:17])[H:18])[C:9]([H:22])([H:23])[H:24]" dataset=PubChem energy=-23462.026703328953 pbc="F F F"
F        1.47905002      -1.82309105       2.69608120      -0.67605571      -1.29223533       0.69487877
F        2.64349196      -0.48162260       1.58916567      -1.05976837       0.59518105      -0.96752290
F        2.01107344       1.42831490       3.28689793      -1.10798526      -0.57608932       0.42761682
F        0.39388283       0.05690117       4.15314940       0.52019923       1.49329614      -1.15960272
O       -0.97205975      -1.22441103       1.71878366       1.34013300       0.78950857       0.48891066
O        0.10297992      -0.39573732      -0.11462816       1.46902541       0.61192668       0.83265429
C        0.83883301      -1.30367162      -2.24479647      -0.76664008       0.57526446       0.54769936
C        1.00367845       2.91547269       0.10872075      -2.15466693       1.39114831       2.55843286
C       -1.33052423       1.62457225       2.39980940       0.40471621      -0.54464422      -1.53859735
C        0.74951676      -1.52434077      -0.75664886      -0.86187007      -1.25812543       1.31574951
C        1.37694643      -0.66077843       2.09699503       2.47683070       0.62581667       2.20948498
C        0.96807853       0.58751390       2.98493484       2.35304079      -1.07298326       0.74027600
C        0.13552482      -0.36304035       1.34678034      -2.68579115      -2.05905664      -5.65155562
C        0.04954634       0.99214074       1.88521651      -2.90547367       3.78558299       1.17889947
H       -1.68846800      -0.80097427       1.23619778      -0.17053698      -0.22108617       0.03947165
H        1.06887428      -2.25364806      -2.68085618       0.76268162      -0.34977177      -0.43989531
H       -0.17721411      -1.12330260      -2.58786555      -0.01277806       0.44942876      -0.16463831
H        1.49735484      -0.47502955      -2.51941510      -0.05291524      -0.39197557      -0.10820909
H        1.94355423       2.69147140      -0.21060490       2.40818712      -1.37199646      -0.47514438
H        0.97754235       3.91443092       0.60018775      -0.00383366      -1.20417898       0.48089126
H        0.26281921       2.94579727      -0.63468826      -1.08813264      -0.90541823      -0.71775735
H       -1.15728130       2.63778565       2.74713663      -0.06316464      -0.06640152      -0.00833319
H       -1.90220787       1.06463537       3.12966303       1.00532763      -0.46470453       0.93827714
H       -2.15567185       1.60998973       1.67460815       0.79280535       0.55429374      -0.75231746
H       -0.02560331      -2.36900117      -0.61528631       1.78404051       0.69995334       0.05908788
H        1.78023956      -1.74241760      -0.29811140      -1.70849206       0.20255129      -0.52672913
