30
Properties=species:S:1:pos:R:3:forces:R:3 id=43837 bond=C-C smiles="[H:27][C:9]1([C:10]([C:12]2([N:3]3[C:11]1([O:1][C:7]([C:13]3([C:8]([O:2]2)([H:25])[H:26])[C:6]([H:20])([H:21])[H:22])([H:23])[H:24])[C:4]([H:14])([H:15])[H:16])[C:5]([H:17])([H:18])[H:19])([H:29])[H:30])[H:28]" dataset=PubChem energy=-16239.484631549227 pbc="F F F"
O       -0.64654596       1.65370156       1.20639480       0.19032546       2.77414366       0.96508260
O        2.18890218       0.10845388      -1.06888955      -1.70904227       0.25710288       0.53261588
N        0.75297769       0.14400665       0.64370967       0.51129319      -3.85854078      -0.28815455
C       -0.81057950      -0.41408001       2.47817570      -0.74043787       0.10231959       1.28692348
C        0.11376093       1.40807862      -1.52109354       0.78628036      -0.56768163      -0.82596771
C        2.37310970       0.71061538       2.32852266       1.94243176      -0.68192375       4.49168333
C        0.77345038       2.19579352       1.42301255      -2.03800588      -0.55213599       0.22190759
C        2.67031769       0.99269764      -0.06126266       0.06774450       2.95073108      -0.84412741
C       -1.25398870      -0.61748444       0.08264906      -2.13720733      -1.25065350      -1.14550321
C       -0.16572626      -1.06561969      -0.95122378       0.40964260       0.06483446       1.44646309
C       -0.55127211       0.26215530       1.12805015       0.82086268      -1.67614986       0.96249162
C        0.74476094       0.13331021      -0.80966085       1.04844284       0.86858771       0.42266156
C        1.67180792       1.02463414       1.15244133       0.00812371       0.50599334      -2.40476770
H       -0.38797875      -1.42137800       2.40174717       0.13934110       0.28036567       0.32180284
H       -1.92138429      -0.58982633       2.69764787       1.48039173       0.64542499      -0.46666279
H       -0.36871429       0.16636963       3.33684832      -0.47012815      -0.75385333      -0.87655913
H        0.66410786       2.37097229      -1.47046918       0.05764986      -0.93705880       0.26108991
H        0.05276571       1.15532829      -2.59733504      -0.08091449       0.15203107       0.52774850
H       -0.86681219       1.61838128      -1.13525361      -0.31219689      -0.08139528      -0.02293825
H        1.71917439       0.54727659       3.22234557       0.49582020      -0.27991413      -0.83444559
H        3.08660269      -0.10788247       2.18264304      -0.21654726       0.13641076       0.40291608
H        2.90463543       1.63930491       2.62938283       0.26912723      -0.66325445      -0.20269545
H        0.94808532       2.86790098       0.67431313      -0.15375328       2.16922802      -1.84431683
H        0.96152927       2.69555343       2.37550122      -0.71962175      -0.41316088       0.10515320
H        3.69822077       0.70134967       0.14102972      -0.20323943       0.04852334       0.38440370
H        2.66602830       2.10695745      -0.37910354       0.40474414      -1.64339795      -0.26522498
H       -2.07193418      -0.05516921      -0.37966376       0.04924674      -0.28341709      -0.00820664
H       -1.69592853      -1.60883962       0.50152357       0.59036213       2.14549747      -0.31368162
H        0.22812052      -2.00111686      -0.51440519       0.47953689       0.72170876      -0.48692413
H       -0.46300026      -1.25621210      -1.93186610      -0.96434423      -0.18336779      -1.50555345
