30
Properties=species:S:1:pos:R:3:forces:R:3 id=43837 bond=C-C smiles="[H:27][C:9]1([C:10]([C:12]2([N:3]3[C:11]1([O:1][C:7]([C:13]3([C:8]([O:2]2)([H:25])[H:26])[C:6]([H:20])([H:21])[H:22])([H:23])[H:24])[C:4]([H:14])([H:15])[H:16])[C:5]([H:17])([H:18])[H:19])([H:29])[H:30])[H:28]" dataset=PubChem energy=-16235.61656400828 pbc="F F F"
O       -1.00294522       1.81328486       0.60871412       0.24415253       2.51210467       0.88272725
O        1.83250292       0.26803718      -1.66657023      -1.80475507       0.21658218       0.69808299
N        0.39657843       0.30358995       0.04602899       2.07798319      -1.53540077       1.08079520
C       -1.16697876      -0.25449671       1.88049502      -0.60286146       0.13713949       1.26943607
C       -0.24263833       1.56766192      -2.11877422       0.74634323      -0.53322067      -0.64720902
C        2.72950896       0.55103208       2.92620334      -0.53865432       1.03273877       0.50171457
C        0.41705112       2.35537682       0.82533187      -1.26453577      -1.51030810       2.12149774
C        2.31391843       1.15228094      -0.65894334       0.73803283       2.42234891       0.39003848
C       -1.61038796      -0.45790114      -0.51503162      -2.18957403      -1.23254717      -1.18681147
C       -0.52212552      -0.90603639      -1.54890446       0.38575857       0.04760987       1.41882074
C       -0.90767137       0.42173860       0.53036947       0.24963718      -1.59028086       1.28642649
C        0.38836168       0.29289351      -1.40734153       1.34367529       0.37583236      -0.14152983
C        1.31540866       1.18421744       0.55476065       0.71854652      -1.52889173      -0.78412618
H       -0.74437801      -1.26179470       1.80406649       0.14956671       0.27047687       0.32974035
H       -2.27778355      -0.43024303       2.09996719       1.48742060       0.64649130      -0.52190897
H       -0.72511355       0.32595293       2.73916764      -0.33830269      -0.75319539      -0.92290694
H        0.30770860       2.53055559      -2.06814986       0.05570050      -0.94468096       0.25326271
H       -0.30363355       1.31491159      -3.19501572      -0.05047663       0.10305186       0.56295651
H       -1.22321145       1.77796458      -1.73293429      -0.31519403      -0.07744693      -0.03988497
H        2.07557365       0.38769329       3.82002625      -0.01765411      -0.32937677      -1.22528043
H        3.44300195      -0.26746577       2.78032372      -0.47212551       0.18182991      -0.35932586
H        3.26103469       1.47972161       3.22706351      -0.19468686      -0.36511397      -0.92735721
H        0.59168606       3.02748428       0.07663245       0.13567094       1.94232866      -1.98583934
H        0.60513001       2.85513673       1.77782054      -0.77376804      -0.34556522       0.03701297
H        3.34182151       0.86093297      -0.45665096      -0.23632797       0.10229277       0.30953117
H        2.30962904       2.26654075      -0.97678422       0.25625890      -1.65763237      -0.11889044
H       -2.42833344       0.10441409      -0.97734444       0.05838606      -0.28967625      -0.00336357
H       -2.05232779      -1.44925632      -0.09615711       0.60500810       2.16515299      -0.31127216
H       -0.12827874      -1.84153356      -1.11208587       0.49096530       0.71455083      -0.47994099
H       -0.81939952      -1.09662880      -2.52954678      -0.94461277      -0.18160907      -1.48846925
