30
Properties=species:S:1:pos:R:3:forces:R:3 id=43837 bond=C-C smiles="[H:27][C:9]1([C:10]([C:12]2([N:3]3[C:11]1([O:1][C:7]([C:13]3([C:8]([O:2]2)([H:25])[H:26])[C:6]([H:20])([H:21])[H:22])([H:23])[H:24])[C:4]([H:14])([H:15])[H:16])[C:5]([H:17])([H:18])[H:19])([H:29])[H:30])[H:28]" dataset=PubChem energy=-16238.207482614898 pbc="F F F"
O       -0.61205571       1.63825801       1.26423486       0.17807744       2.80963704       0.96547485
O        2.22339243       0.09301033      -1.01104949      -1.68273542       0.26775869       0.51382095
N        0.78746794       0.12856310       0.70154973       0.33378706      -3.94801558      -0.58503841
C       -0.77608925      -0.42952356       2.53601576      -0.76473163       0.09427577       1.29820171
C        0.14825118       1.39263507      -1.46325348       0.78855146      -0.57143665      -0.82816309
C        2.33861945       0.72605893       2.27068260       6.55487450      -2.80402126      12.09911943
C        0.80794063       2.18034997       1.48085261      -2.39022555      -0.34848388      -0.08068090
C        2.70480794       0.97725409      -0.00342260      -0.02090221       3.02275362      -1.26895752
C       -1.21949845      -0.63292799       0.14048912      -2.13662614      -1.25653573      -1.14123686
C       -0.13123601      -1.08106324      -0.89338372       0.41192008       0.06422874       1.44362605
C       -0.51678186       0.24671175       1.18589021       0.83869473      -1.68415755       0.95655345
C        0.77925119       0.11786666      -0.75182079       1.00470307       0.88061440       0.44840557
C        1.70629817       1.00919059       1.21028139      -4.36948307       2.57690420      -9.74241199
H       -0.35348850      -1.43682155       2.45958723       0.13955621       0.28190995       0.32271683
H       -1.88689404      -0.60526988       2.75548793       1.47755907       0.64385589      -0.46618313
H       -0.33422404       0.15092608       3.39468838      -0.48885963      -0.76277970      -0.86954598
H        0.69859811       2.35552874      -1.41262912       0.05798166      -0.93604590       0.26147342
H        0.08725596       1.13988474      -2.53949498      -0.08165891       0.15376692       0.52649662
H       -0.83232194       1.60293773      -1.07741355      -0.31211979      -0.08206653      -0.02185264
H        1.68468414       0.56272014       3.16450551       0.62233163      -0.28348924      -0.62459691
H        3.05211244      -0.09243892       2.12480298      -0.11199640       0.04583998       0.66145232
H        2.87014518       1.65474846       2.57154277       0.46884674      -0.73007122       0.04678227
H        0.98257557       2.85245743       0.73215319      -0.16400646       2.18610282      -1.83931977
H        0.99601952       2.68010988       2.43334128      -0.71014046      -0.43682599       0.10570788
H        3.73271102       0.68590612       0.19886978      -0.21296536       0.04586924       0.40748968
H        2.70051855       2.09151390      -0.32126348       0.41595665      -1.62544166      -0.27129562
H       -2.03744393      -0.07061276      -0.32182370       0.04901031      -0.28168722      -0.00725669
H       -1.66143828      -1.62428317       0.55936363       0.58939376       2.14456010      -0.31362995
H        0.26261077      -2.01656041      -0.45656513       0.47848579       0.72144354      -0.48685248
H       -0.42851001      -1.27165565      -1.87402604      -0.96571892      -0.18436891      -1.50594773
