30
Properties=species:S:1:pos:R:3:forces:R:3 id=43837 bond=C-C smiles="[H:27][C:9]1([C:10]([C:12]2([N:3]3[C:11]1([O:1][C:7]([C:13]3([C:8]([O:2]2)([H:25])[H:26])[C:6]([H:20])([H:21])[H:22])([H:23])[H:24])[C:4]([H:14])([H:15])[H:16])[C:5]([H:17])([H:18])[H:19])([H:29])[H:30])[H:28]" dataset=PubChem energy=-16226.172277225307 pbc="F F F"
O       -0.53732683       1.60479700       1.38955501       0.15490420       2.93083893       0.95924141
O        2.29812131       0.05954932      -0.88572934      -1.55524035       0.28026291       0.47067007
N        0.86219682       0.09510209       0.82686988      -0.34871489      -4.21057146      -1.73403861
C       -0.70136037      -0.46298457       2.66133591      -0.82200408       0.07359300       1.33227522
C        0.22298006       1.35917406      -1.33793333       0.79533059      -0.58004807      -0.84019139
C        2.26389057       0.75951994       2.14536245      38.38761193     -16.90343040      64.86728688
C        0.88266951       2.14688896       1.60617276      -3.70681734       0.32407675      -0.94902782
C        2.77953682       0.94379308       0.12189755      -0.18301818       3.23520318      -2.82372609
C       -1.14476957      -0.66638900       0.26580927      -2.13071124      -1.27566576      -1.12605929
C       -0.05650713      -1.11452425      -0.76806357       0.42423510       0.06027729       1.43559400
C       -0.44205298       0.21325074       1.31121036       0.89805954      -1.70379305       0.98613167
C        0.85398007       0.08440565      -0.62650064       0.86852168       0.91880182       0.50175715
C        1.78102705       0.97572958       1.33560154     -35.48631951      16.61570122     -61.64766175
H       -0.27875962      -1.47028256       2.58490738       0.14017505       0.28729562       0.32411992
H       -1.81216516      -0.63873089       2.88080808       1.46749095       0.63708054      -0.46828129
H       -0.25949516       0.11746507       3.52000853      -0.51744864      -0.78448965      -0.85078922
H        0.77332699       2.32206773      -1.28730897       0.05929711      -0.93297095       0.26211914
H        0.16198484       1.10642373      -2.41417483      -0.08373792       0.15922927       0.52269434
H       -0.75759306       1.56947672      -0.95209340      -0.31081687      -0.08213935      -0.02276915
H        1.60995526       0.59618115       3.03918536       0.93149720      -0.34908965       0.21563495
H        2.97738356      -0.05897791       1.99948283       0.26352845      -0.41594955       1.53338542
H        2.79541630       1.68820947       2.44622262       1.23165824      -0.83732335       0.84688695
H        1.05730445       2.81899642       0.85747334      -0.15064432       2.21416139      -1.85921252
H        1.07074840       2.64664887       2.55866143      -0.63238798      -0.54750050       0.12011234
H        3.80743990       0.65244511       0.32418993      -0.25511897       0.03086863       0.51602954
H        2.77524743       2.05805289      -0.19594333       0.42219283      -1.54755040      -0.26662145
H       -1.96271505      -0.10407377      -0.19650355       0.05023852      -0.27288677      -0.00507164
H       -1.58670940      -1.65774418       0.68468378       0.58705512       2.14296647      -0.31201669
H        0.33733965      -2.05002142      -0.33124498       0.47661942       0.72164204      -0.48677031
H       -0.35378113      -1.30511666      -1.74870589      -0.96898998      -0.18734820      -1.50662170
