45
Properties=species:S:1:pos:R:3:forces:R:3 id=25060 bond=C-O smiles="[H:26][C:8]1([C:10]([C:14]([C:18]([C:15]([C:11]1([H:32])[H:33])([H:40])[H:41])([C:6]([H:22])([H:23])[O:2][O:5][C:19]2([C:16]([C:12]([C:9]([C:13]([C:17]2([H:44])[H:45])([H:36])[H:37])([H:28])[H:29])([H:34])[H:35])([H:42])[H:43])[C:7]([H:24])([H:25])[O:3][O:1][H:20])[O:4][H:21])([H:38])[H:39])([H:30])[H:31])[H:27]" dataset=PubChem energy=-25182.868247632403 pbc="F F F"
O        4.39729499       3.91076012       2.03421473       0.97412515      -1.28542519      -0.48536887
O        1.85679268       0.18523188       1.41910052      22.84951852      18.69381316     -37.79594069
O        3.12095880       3.64420767       1.41916108      -0.61292143       0.81999739       1.08236243
O       -0.80779858       0.34427026       1.66304986      -0.73905918      -0.26228663      -0.29477281
O        1.22517144       1.45668442       1.05910343       0.55030311       2.17946105      -1.04018078
C        1.42096893      -0.24497846       2.22379093     -19.86605522     -17.22246580      33.83270635
C        3.28302049       2.70560737       0.38245458       0.74635267      -0.46961182       0.04012501
C       -2.00518627      -2.91443672       1.38681309      -1.00654227      -0.19735039       0.29195863
C       -0.04253808       2.20544178      -2.25453448      -1.35647087      -0.29652428      -0.34477542
C       -1.24032088      -2.21804920       0.27730670      -1.10195806       0.30652743      -0.21530804
C       -2.00875707      -2.06293097       2.68236427       0.56473522      -0.01532216       0.39964908
C       -0.32511640       2.98047872      -0.97656297      -0.68199303      -0.25270629       0.08181362
C        0.73228797       0.94229080      -1.97517180       0.73187739       0.32806760       0.31057982
C        0.10332214      -1.75129357       0.70429395       1.06902084       0.62518982      -0.37134184
C       -0.57170506      -1.58656111       3.04306654      -1.48139166       1.19568288       0.30991475
C        0.96652049       3.38966293      -0.27801990      -1.40631001      -1.10746069       0.90570006
C        2.06483256       1.31040342      -1.31963157      -0.12355672      -0.11975443       0.07726732
C        0.03058742      -0.78425625       1.89897005      -1.38849598      -1.90631182       1.01319660
C        1.87593674       2.17324562      -0.02353751       1.41690283       0.02796128      -0.21072416
H        4.39707326       4.77939196       2.45064318      -1.07338725       0.13135417      -0.42572779
H       -0.31870551       0.98976984       1.11545847      -0.52906773      -0.79762500       0.61846797
H        2.05999844      -1.01549688       2.63855724       0.25630241      -0.79806189       0.56902036
H        1.29847638       0.51367186       2.99843149      -0.59185155       0.04969836       2.28496456
H        3.75481390       3.23365374      -0.45681119      -0.23713509      -0.33943951      -0.14543139
H        3.96585035       1.87851496       0.67469969      -0.54770272       0.42795102       0.04101034
H       -1.56569667      -3.89801326       1.59478132       0.29828981       0.23858400       0.13988230
H       -3.03408141      -3.20287409       1.03832046       0.73633425       0.63706746       0.39121847
H        0.50424079       2.85721035      -2.92969489       0.09585148      -0.02560744      -0.29957715
H       -1.00567305       1.92223425      -2.73032116       0.54043642       0.38425421       0.11449091
H       -1.79163237      -1.32868794      -0.02699973      -0.21039471       0.00082534      -0.02960446
H       -1.18303485      -2.84731260      -0.59493007       0.11709561      -0.32957830      -0.34143765
H       -2.60740323      -1.15377679       2.67229275      -0.24584516      -0.17152672      -0.63235882
H       -2.39052338      -2.64197674       3.52098874      -0.05087290      -0.17740638      -0.01730651
H       -0.94077540       3.86625142      -1.20164311       0.30602370      -0.25918439       0.12421754
H       -0.94882846       2.34180422      -0.31354904       0.38101184       0.43536656      -0.29690618
H        0.92454841       0.34910624      -2.86947798      -0.05362178       0.12142606      -0.03043150
H        0.20620422       0.30312255      -1.28026890      -0.43239819      -0.07239986       0.04377973
H        0.72052111      -2.61162534       0.95752810       0.17830568      -0.03902966       0.28289656
H        0.61142313      -1.27728572      -0.14721980      -0.08611786      -0.05273554       0.24550245
H       -0.60700364      -0.93157187       3.94864444      -0.00568901      -0.57534456      -0.57726977
H        0.00760357      -2.45065990       3.26254586       0.81415378      -0.62065028       0.15838226
H        1.49799192       4.07607098      -0.88395452       0.63482220       0.69949622      -0.55593262
H        0.67858660       3.88372011       0.65900428       0.54520473      -0.15605403      -0.16228175
H        2.57040620       0.36257044      -1.10651207       0.25749079       0.44464073       0.26905310
H        2.67116427       1.87159140      -2.06157946      -0.23824057      -0.20045260       0.64421260
