43
Properties=species:S:1:pos:R:3:forces:R:3 id=35421 bond=C-N smiles="[H:26][c:8]1[c:6]([c:11]([c:7]([c:9]([c:12]1[C:19]2([c:13]3[c:10]([c:14]4[c:5]([n:2][c:4]3[N:16]([C:3](=[S:1])[N:17]2[H:31])[H:30])[C:20]([C:22]([C:23]([C:21]4([H:38])[H:39])([H:42])[H:43])([H:40])[H:41])([H:36])[H:37])[N:15]([H:28])[H:29])[H:35])[H:27])[H:25])[C:18]([H:32])([H:33])[H:34])[H:24]" dataset=PubChem energy=-35805.008493088484 pbc="F F F"
S        1.18451233      -0.12274628       5.75229286       0.08426648       0.32022257       0.47571791
N       -1.51079874       1.74186188       2.13471412       0.00706320      -0.21224663       0.37249400
C        1.08686348       0.50829135       4.21631382       0.68511281      -2.27381342       0.92251675
C       -0.29076002       1.28281910       2.43773221      -1.02805173       1.25101291      -1.68525776
C       -1.75176530       2.17041654       0.88243439       1.00114008       0.05682560      -0.11213848
C        4.28517743      -1.61138361      -0.15465368      -0.29171846       0.49284734      -0.58709472
C        2.07900472      -2.62297790      -0.02595438       0.47120132       0.85807424       0.08723697
C        3.84190531      -0.54871648       0.63806007       0.21376048      -0.91171967       0.06708371
C        1.63089330      -1.53738372       0.77819036       0.88034510      -0.73692292      -0.40483095
C        0.47337372       1.66243822       0.23035883     -15.50868516       2.70869264      15.05612600
C        3.39799733      -2.63619225      -0.52562542       0.01658554      -0.23058123       0.45952189
C        2.52250333      -0.52912276       1.14377641       0.95761919       0.81252581      -0.60700948
C        0.73170923       1.22227497       1.52757584       0.09130125      -0.40324857       2.05891641
C       -0.77896552       2.18733472      -0.12792028      -2.33737506       0.67044253       1.57132651
N        1.23407134       1.53713635      -0.57327325      16.03593167      -3.47635881     -17.41527702
N       -0.08423136       0.91542551       3.73449301      -0.33690298       0.94480660       0.48459848
N        2.13457008       0.32235647       3.36949848      -0.43891904      -0.19649684       0.12899158
C        3.92247481      -3.75309723      -1.41343976      -0.02663001      -1.07958179       0.54632398
C        2.09341379       0.70291665       1.97931038       0.08012603      -0.11618630      -1.46084826
C       -3.14368133       2.64573414       0.63366280      -0.87361185       0.02331954      -0.30708529
C       -1.07629542       2.67642004      -1.54817558       0.27355716      -0.34406595       1.55628289
C       -3.48141555       2.69340832      -0.85454358       1.02347605       1.06898659       0.77765584
C       -2.36552219       3.45270616      -1.58712102      -1.17766396      -0.44111207      -0.65892170
H        5.29848738      -1.56424444      -0.61111654      -0.81916699      -0.22181654       0.59966280
H        1.43128689      -3.45061223      -0.31874324      -0.01167582       0.40645329       0.24346730
H        4.59833975       0.19970310       0.88486059      -0.62318911       0.06722293       0.07376692
H        0.61579238      -1.45692461       1.13322436      -0.14290555      -0.21042353      -0.04180682
H        0.90508243       1.56287239      -1.54475683       0.94287409       0.08166120       0.47375053
H        1.91234383       0.83415643      -0.33532930       1.04498596       0.05917105      -1.11666660
H       -0.78208427       1.18338454       4.40578507      -0.18412157      -0.21112428       0.01947076
H        2.67382188      -0.52208345       3.59218859      -0.23096512       1.01983355       0.01165946
H        3.99102659      -3.42923443      -2.44920087      -0.07440803      -0.01963211      -0.06580026
H        3.29974146      -4.69404237      -1.36783744       0.49788897       1.16732065      -0.06394995
H        4.94773598      -4.05684488      -1.09840156      -0.72601681       0.31981101      -0.20025291
H        2.82010003       1.52687306       1.81612777      -0.07822809      -0.56951641      -0.08422629
H       -3.84554366       1.96523244       1.12917088       0.24110591       0.25948105       0.15319989
H       -3.30420808       3.65251142       1.03737985       0.19987860      -0.24339638       0.22762119
H       -0.31719266       3.36913091      -1.87036754       0.69747038      -0.09048910      -0.35623904
H       -1.11480598       1.78708298      -2.17825771      -0.01069870       0.16541070      -0.49461280
H       -4.40281944       3.22389800      -0.99358440      -0.61579862       0.01447932      -0.12117758
H       -3.56573705       1.68782682      -1.19103814      -0.13982273      -0.76596165      -0.67237261
H       -2.68016843       3.53198773      -2.64763308       0.29022489       0.49342902       0.55743236
H       -2.23860459       4.44724590      -1.11305142      -0.05962281      -0.50219356      -0.47525391
