38
Properties=species:S:1:pos:R:3:forces:R:3 id=42181 bond=C-C smiles="[H:28][c:13]1[c:12]([c:15]([c:16]([c:14]([c:17]1[N:18]([H:30])[C:5](=[S:1])[C:9]2=[C:10]([O:2][C:7](=[C:8]2[H:25])[H:24])[C:20]([H:34])([H:35])[H:36])[H:29])[O:4][C:21]([H:37])([H:38])[C:11](=[C:6]([H:22])[H:23])[H:26])[O:3][C:19]([H:31])([H:32])[H:33])[H:27]" dataset=PubChem energy=-35346.903428338584 pbc="F F F"
S        0.57796130       2.68222010      -1.25848626      -0.01828412       0.40151135       0.45008496
O       -1.46308816       6.71272123      -0.28831499       0.07733108      -0.72167546      -0.02623698
O        3.11105500      -1.80539334       2.87276888      -0.08777921      -1.01162326       0.03679945
O        1.47654985      -1.93938433       0.60663337      -0.66648903      -0.14457388      -0.64725265
C        0.09009602       3.39644420       0.16835309       0.86642755      -2.27355111       0.29492156
C       -0.75103385      -5.04906734      -1.58020827       3.86459344       2.32795601       0.63595250
C       -2.13529194       6.27049577       0.83708561       1.46719897      -2.57024366      -0.24006630
C       -1.71716583       4.99956668       1.13409633       0.90553677       0.67133345      -0.58544550
C       -0.67791022       4.61219346       0.14841861      -1.99671545       2.38861902       0.91856637
C       -0.62626565       5.70472085      -0.72011255       0.23953855      -0.98634543       1.43307999
C        0.49231774      -4.43852837      -1.34127745      -4.16037610      -0.24056643       0.07070307
C        2.62292420       0.46046156       3.15356208      -1.33143142       0.24549094      -1.15336954
C        1.96184169       1.62510479       2.78049565      -0.63358843      -0.35249180      -1.11906238
C        0.89922979       0.43531567       0.96362720       0.21086821      -0.17429066       0.50345798
C        2.40845858      -0.71985423       2.43144012       0.28925552      -0.17872465       0.64433379
C        1.55561076      -0.75424063       1.31527919       0.10023208       0.90209482      -0.00493541
C        1.08045756       1.63159138       1.68253226       0.78980447      -1.61071553       0.65276205
N        0.33449185       2.78371465       1.42609144      -0.96995101       2.09224994      -2.05432590
C        2.38163995      -3.02513468       3.13563252      -0.32685293      -0.09515715      -0.52791269
C        0.27597963       5.88867557      -1.88668059      -0.57136008       0.65361765      -0.25083163
C        0.64425453      -1.98929989      -0.54662775       0.06649670      -0.57155751       0.45848661
H       -1.65747005      -4.48805173      -1.51027986      -0.46131475       0.09945417       0.02252818
H       -0.79228932      -6.09354050      -1.90739438       0.12683274       0.39257716       0.19460926
H       -2.83947361       6.83903825       1.39261771      -0.24728517       0.84141712      -0.36840873
H       -2.02160061       4.39303219       1.97262479      -0.17959704       0.12216265      -0.08265626
H        1.33687322      -5.11165460      -1.40584823       0.77987356       0.79381122       0.19399595
H        3.22245155       0.48040724       4.02916575       0.55311444      -0.32462510       0.38552851
H        2.08044635       2.54783738       3.29831791       0.25631269       0.40354909       0.50999812
H        0.23104268       0.43382317       0.13860620      -0.30316133       0.03345106      -0.43563770
H        0.10729553       3.36719334       2.21610142       0.14435361      -0.12417583      -0.00513265
H        2.24375497      -3.66526663       2.24722923       0.07205019       0.64212272       0.16455101
H        1.40213912      -2.80410206       3.56419397       0.03703965       0.09952928      -0.09753095
H        2.92249261      -3.63037454       3.85123229       0.39959944       0.31302529       0.20720409
H        0.41486219       6.96223962      -2.07990001      -0.32559914      -0.37508960      -0.25378063
H       -0.15034116       5.32875479      -2.75248431       0.59347451       0.61873953       0.52146967
H        1.26138197       5.50448596      -1.63624715      -0.12422082      -0.31437725      -0.13772305
H       -0.39544321      -1.63700735      -0.31406664       0.77444238      -1.02505878      -0.32421051
H        1.09499537      -1.38109195      -1.35111140      -0.20787294      -0.94217476       0.01935537
