14
Properties=species:S:1:pos:R:3:forces:R:3 id=38588 bond=C-O smiles="[H:8][C:3]([H:9])([H:10])[O:1][C:4]([H:11])([H:12])[C:5]([H:13])([H:14])[N:2]([H:6])[H:7]" dataset="DES370K Monomers" energy=-6795.929969532947 pbc="F F F"
O        1.06705097      -0.33882081      -0.17568359      -1.20581448       2.66263464      -2.00230874
N       -1.98437831       0.10316476       0.69501093      -0.39472415       0.28792181       1.17281109
C        2.42129574       0.16201013      -0.44141534      -1.41717701       2.10120660      -0.25448829
C       -0.35511486       0.68846110      -1.09227326       0.24345871      -1.90844859      -0.16564801
C       -1.65281234      -0.18204817      -0.68827435       1.75151939       0.41439623       1.27862222
H       -1.94736824       1.10911194       0.92395851       0.02579496      -1.00904142      -0.26719002
H       -1.40112649      -0.40641841       1.37013063      -0.26030614       0.51325437      -0.74819836
H        2.38407336       1.21570805      -0.89436493      -0.08318266      -1.24282281       0.68700960
H        3.04162226       0.30115291       0.48845976      -0.79540147      -0.67160324      -0.77194560
H        2.90407500      -0.41401943      -1.22044847       0.24140632      -0.50976341       0.20206799
H       -0.29401099       0.68226912      -2.22637620       0.95999833      -0.36226021       1.39296736
H       -0.28787251       1.78800091      -0.75719365      -0.01496978      -2.10918170       0.12896952
H       -2.53129516       0.06923880      -1.30750170       0.65196653       0.08469282      -0.11013897
H       -1.51173434      -1.31622353      -0.71549853       0.29594611       1.74930711      -0.54022772
