14
Properties=species:S:1:pos:R:3:forces:R:3 id=38588 bond=C-O smiles="[H:8][C:3]([H:9])([H:10])[O:1][C:4]([H:11])([H:12])[C:5]([H:13])([H:14])[N:2]([H:6])[H:7]" dataset="DES370K Monomers" energy=-6795.091916249427 pbc="F F F"
O        1.13661343      -0.38906829      -0.13085040      -0.79788285       2.47774654      -1.79335691
N       -2.05394077       0.15341224       0.65017774      -0.40016047       0.29744757       1.12071643
C        2.49085820       0.11176265      -0.39658215      -1.55048050       1.99377169      -0.22286439
C       -0.42467732       0.73870858      -1.13710645      -0.44203056      -1.50569481      -0.58586779
C       -1.72237480      -0.13180069      -0.73310754       1.95502216       0.30303575       1.48011962
H       -2.01693070       1.15935942       0.87912532       0.02062579      -1.00801760      -0.26525118
H       -1.47068895      -0.35617093       1.32529744      -0.25680202       0.50196287      -0.74677093
H        2.45363582       1.16546057      -0.84953174      -0.07172903      -1.23993260       0.69400836
H        3.11118472       0.25090543       0.53329295      -0.77442680      -0.64405898      -0.75171126
H        2.97363746      -0.46426691      -1.17561528       0.25377890      -0.50774161       0.18776073
H       -0.36357345       0.73251660      -2.27120939       1.01122680      -0.38207153       1.39100236
H       -0.35743497       1.83824839      -0.80202684       0.10704445      -2.14190782       0.19720609
H       -2.60085762       0.11948628      -1.35233489       0.66866140       0.11709724      -0.15993265
H       -1.58129680      -1.26597605      -0.76033172       0.27694777       1.73940231      -0.54326740
