14
Properties=species:S:1:pos:R:3:forces:R:3 id=38588 bond=C-O smiles="[H:8][C:3]([H:9])([H:10])[O:1][C:4]([H:11])([H:12])[C:5]([H:13])([H:14])[N:2]([H:6])[H:7]" dataset="DES370K Monomers" energy=-6797.917772903704 pbc="F F F"
O        0.89659160      -0.21569183      -0.28554511       0.47493622       1.84130289      -1.32620141
N       -1.81391894      -0.01996422       0.80487245      -0.34081487       0.26234168       1.28677887
C        2.25083637       0.28513911      -0.55127686      -1.00887213       2.08478766      -0.09153077
C       -0.18465549       0.56533212      -0.98241174       0.26766811      -1.88305889      -0.08310925
C       -1.48235297      -0.30517715      -0.57841283       0.85612128       0.79768860       0.64488857
H       -1.77690887       0.98598296       1.03382003       0.03151495      -1.00353835      -0.27731053
H       -1.23066712      -0.52954739       1.47999215      -0.28691521       0.52811043      -0.72806726
H        2.21361399       1.33883703      -1.00422645      -0.20311866      -1.24710504       0.67379546
H        2.87116289       0.42428189       0.37859824      -0.83026992      -0.73096737      -0.83677984
H        2.73361563      -0.29089045      -1.33030999       0.18759884      -0.51161703       0.22803441
H       -0.12355162       0.55914014      -2.11651468       0.56550612      -0.14485233       1.21833842
H       -0.11741314       1.66487193      -0.64733213      -0.60389438      -1.73961777      -0.19780372
H       -2.36083579      -0.05389018      -1.19764018       0.55474109      -0.01629917       0.02705623
H       -1.34127497      -1.43935251      -0.60563701       0.33718470       1.76236212      -0.53867676
