32
Properties=species:S:1:pos:R:3:forces:R:3 id=2696 bond=C-N smiles="[H:21][C:7]1([C:8]([C:13]1([H:31])[C:11]([H:29])([C:14]2([C:9]([C:10]2([H:27])[H:28])([H:25])[H:26])[H:32])/[N:1]=[C:3]/3[N:4]([C:12]([C:6]([O:2]3)([H:19])[H:20])([H:30])[C:5]([H:16])([H:17])[H:18])[H:15])([H:23])[H:24])[H:22]" dataset=PubChem energy=-16718.31086085837 pbc="F F F"
N        1.33346395      -0.04419541       0.82534483      73.83749056      49.76732420      61.14539172
O        2.37544731       1.87182138       1.71210575       0.08485653       0.07068215       0.30682666
C        1.38248734       1.25734577       1.05900061       0.65692981      -2.28830958       0.97184895
N        0.37079700       2.10306332       0.64881930       3.15819630       1.07313499      -0.20608413
C        0.42061384       4.59936056       0.41678341      -1.29988986      -1.22858565       0.79051302
C        2.08371918       3.27479944       1.79064584      -3.38990720      -1.90368789       1.71087526
C        0.76137462      -2.08057575      -1.62344499       1.37307981      -1.42619548       1.72309626
C        2.22568393      -1.59615235      -1.32701369      -2.97644354       0.69314370      -0.33037182
C       -0.75155365      -1.50736909       2.21255926      -0.49913334       0.28035204       1.86248350
C       -1.59938693      -1.73977642       0.97048916       1.28010156       0.00488621      -0.76625025
C        0.69932155      -0.40708618       0.31554810     -69.06353204     -43.35050734     -55.93350963
C        0.58420516       3.38842330       1.31373548       0.25368316       0.09843286      -0.15366173
C        1.24281919      -1.73241716      -0.17305978      -0.54165362      -2.92064961      -3.29847408
C       -0.66838336      -0.51633816       1.09975143      -2.45370980      -1.30286829      -0.74456420
H       -0.49548759       1.67028794       0.69912443      -1.48126993      -0.02265487      -0.25836333
H       -0.57307174       4.63075266       0.00651020      -0.48199567       0.07975106      -0.09593202
H        1.07630537       4.49274454      -0.38036078       1.34481101       0.16220152      -1.47371184
H        0.58081828       5.47699365       0.98202062       0.33915728       1.06363127       0.43659548
H        2.65979652       3.74136767       1.09709060       1.94934143       1.67113695      -1.55451812
H        2.16096727       3.60866484       2.82926845       0.46188384       0.04172404      -0.41317505
H        0.02747315      -1.33955651      -2.00304122       0.78189590      -0.81928780       0.14256395
H        0.66527115      -3.14600854      -1.88297267      -0.28635650       0.76183083      -0.11223013
H        2.35386133      -0.65557950      -1.84553428       0.50044408       0.38323821       0.59435137
H        3.02632022      -2.27949791      -1.40789409       0.51247983      -0.66613495      -0.11472425
H        0.14110953      -2.12290960       2.42780833      -0.66545601       0.27374983      -0.48781261
H       -1.25380146      -1.22138005       3.21853833       0.69365004      -0.40941290      -2.01787476
H       -1.32925534      -2.56669192       0.22840227      -0.21001938       1.46475841       1.28571714
H       -2.63613700      -1.48334127       0.98312373      -0.52338264      -0.23983673       0.31306872
H        0.56632288       0.18149448      -0.58643503      -2.37063387       0.13968836      -2.94490819
H       -0.14464410       3.44292102       2.11230516       0.17367309       0.15437565       0.57633094
H        1.58789063      -2.39329247       0.67751088      -0.83299963       0.39312582      -1.35335555
H       -1.09268820       0.51106424       1.21865182      -0.32391340      -2.00107433       0.39900627
