32
Properties=species:S:1:pos:R:3:forces:R:3 id=2696 bond=C-N smiles="[H:21][C:7]1([C:8]([C:13]1([H:31])[C:11]([H:29])([C:14]2([C:9]([C:10]2([H:27])[H:28])([H:25])[H:26])[H:32])/[N:1]=[C:3]/3[N:4]([C:12]([C:6]([O:2]3)([H:19])[H:20])([H:30])[C:5]([H:16])([H:17])[H:18])[H:15])([H:23])[H:24])[H:22]" dataset=PubChem energy=-16733.162661850583 pbc="F F F"
N        1.79321719       0.21890040       1.19494746      -0.54813051       0.92675281      -0.56635292
O        2.83520055       2.13491719       2.08170838       0.14459470       0.04523114       0.26766042
C        1.84224058       1.52044158       1.42860324      -1.98622682      -4.91350464      -1.98033240
N        0.83055024       2.36615913       1.01842193       2.58062776       2.01323703       0.03449997
C        0.88036708       4.86245637       0.78638604      -1.27134492      -1.20148331       0.82407687
C        2.54347242       3.53789525       2.16024847      -3.45314867      -1.82699762       1.68169640
C        0.30162138      -2.34367156      -1.99304762       1.30575967      -0.56370698       1.66612114
C        1.76593069      -1.85924816      -1.69661632      -2.77354659       0.45718915      -0.78305759
C       -1.21130689      -1.77046490       1.84295663      -0.80511148       0.07616015       2.05005218
C       -2.05914017      -2.00287223       0.60088653       1.66625801      -0.47044707      -0.90429124
C        0.23956831      -0.67018199      -0.05405453      -0.64583523      -0.21629657       1.36088497
C        1.04395840       3.65151911       1.68333811      -0.01908851       0.03211029      -0.03602636
C        0.78306595      -1.99551297      -0.54266241       1.58546103       1.18736215       0.54610011
C       -1.12813660      -0.77943397       0.73014880       1.99306949       1.12658206      -0.48173187
H       -0.03573435       1.93338375       1.06872706      -1.65066624      -0.56019859       0.08845418
H       -0.11331850       4.89384847       0.37611283      -0.49111706       0.07612759      -0.09793808
H        1.53605861       4.75584035      -0.01075815       1.34718954       0.15255040      -1.48126906
H        1.04057152       5.74008946       1.35162325       0.33748844       1.08980106       0.42645446
H        3.11954976       4.00446348       1.46669323       1.95828745       1.67273915      -1.55102073
H        2.62072051       3.87176065       3.19887108       0.45900038       0.04072617      -0.40776735
H       -0.43228009      -1.60265232      -2.37264385       0.76374724      -0.88132946       0.03763577
H        0.20551791      -3.40910435      -2.25257530      -0.34679287       0.77722627       0.16217451
H        1.89410809      -0.91867531      -2.21513691       0.50063933       0.26907369       0.72695289
H        2.56656698      -2.54259372      -1.77749672       0.47587825      -0.68183676      -0.10784581
H       -0.31864371      -2.38600541       2.05820570      -0.70418790       0.35224600      -0.53599443
H       -1.71355470      -1.48447586       2.84893570       0.70057359      -0.39795716      -2.06344254
H       -1.78900858      -2.82978773      -0.14120036      -0.27829550       1.41182805       1.31578093
H       -3.09589024      -1.74643708       0.61352110      -0.42362469      -0.07528903       0.23634951
H        0.10656964      -0.08160133      -0.95603766       0.28974370       0.84141183       0.41912814
H        0.31510914       3.70601683       2.48190779       0.20344246       0.26689870       0.64633935
H        1.12813739      -2.65638828       0.30790825      -0.86853539       0.24291204      -1.54835364
H       -1.55244144       0.24796843       0.84904919      -0.04746805      -1.27033856       0.05799468
