16
Properties=species:S:1:pos:R:3:forces:R:3 id=40056 bond=N-N smiles="[H:15][C:8]1([C:7]([C:5]([O:3][N:4]([C:6]1([H:11])[H:12])[N:2]=[O:1])([H:9])[H:10])([H:13])[H:14])[H:16]" dataset=PubChem energy=-11324.151666632886 pbc="F F F"
O        1.82674706      -1.55196056       1.94041959       2.87610380      -7.90085616       1.98835902
N        2.26910782      -0.40793785       1.55695633     133.81695947    -158.21051516      18.60163981
O        0.47599982       0.05347905       2.15987898      -6.10112780       2.39215623       0.33319926
N        1.77183287       0.15478921       1.50118423    -128.60714747     158.31492128     -19.36755102
C       -0.49084242      -0.36346041       1.16703082      -2.03364767       1.54946271       0.31228297
C        2.00841598       1.07872881       0.41267097      -3.83883690       5.93973096      -2.30977088
C       -0.59044726       0.76078902       0.07928492       0.22114701      -2.71702154       0.68959656
C        0.76168162       0.85537590      -0.58064507       1.32994335       2.41172151       2.44859026
H       -1.52757997      -0.60323738       1.60331262       1.74684543       0.64853434      -0.01818442
H       -0.17356939      -1.24517094       0.71035936       0.67944516      -1.57368790      -0.59166866
H        2.87094907       0.76415835      -0.11256705       0.86379300      -0.62207074       0.12812487
H        2.19712131       2.15909089       0.73080936      -0.82139086      -1.39397248      -0.34923122
H       -0.88278134       1.62196613       0.65909331      -0.16396767       0.63995119      -0.59887017
H       -1.21786065       0.47446715      -0.79549526      -0.39287094       0.39786999       1.15279866
H        1.00810389       0.08270170      -1.25102066      -0.03427283      -0.93525521      -0.75469395
H        0.66727764       1.79571785      -1.03322720       0.45880596       1.05734937      -1.66692878
