49
Properties=species:S:1:pos:R:3:forces:R:3 id=21069 bond=C-S smiles="[H:29][c:9]1[c:7]([c:5]([n:1][c:6]([c:8]1[H:28])[S:4][C:19]([H:41])([H:42])[C:22]([H:47])([H:48])[C:23]2([C:24]([c:15]3[c:11]([c:12]([c:14]([c:10]([c:13]3[O:3]2)[H:30])[C:20]([H:43])([H:44])[C:21]([H:45])([H:46])[C:16]([H:32])([H:33])[H:34])[O:2][H:25])[H:31])([C:17]([H:35])([H:36])[H:37])[C:18]([H:38])([H:39])[H:40])[H:49])[H:26])[H:27]" dataset=PubChem energy=-37585.12904217838 pbc="F F F"
N       -0.22841278       1.63203792       3.57524977       2.10055717       0.17794533      -0.17506788
O       -0.03524522      -1.67088973      -3.04974847      -0.50785331      -0.24575972      -1.22320897
O        1.85358347       1.76052648       0.74861348       0.64546794      -0.44408021       0.91346651
S        2.74514844       3.08358419       3.40615529      -2.21501402      -1.52311582       0.32406408
C       -1.13173780       0.65162589       3.72865377       0.83846853       0.09661628      -0.17074485
C        1.07352599       1.33128945       3.71019326      -1.16283317       1.61359488      -0.19870701
C       -0.74071857      -0.61871167       4.06759343      -0.94607703      -2.06785309       0.20477431
C        1.52519479       0.06637721       4.08629356       0.50238509       0.29510984      -0.04643636
C        0.58592018      -0.94978710       4.29286943       0.31203374       0.73202517      -0.33995472
C        1.51980342      -0.57542515       0.03525109       0.14321467       0.39474407       0.91165656
C        0.39328005       0.53820984      -2.25347500      -0.05036325       0.02286806       0.22284745
C        0.45324014      -0.87433290      -2.05873662      -0.12233423       1.68146794      -0.49434594
C        1.40795543       0.81038562      -0.12875354       0.00209109      -0.73814480       0.19527333
C        0.99376325      -1.46791089      -0.90631419       0.12966322       1.26572891      -0.07258353
C        0.83515768       1.38531458      -1.23443275      -0.22190342      -1.46815070      -0.41234895
C       -0.83060036      -3.24302709       1.08400929       1.22826027       0.04167781      -0.26265778
C        2.11103930       3.29560888      -1.97819024       0.27186639       0.53561620       0.20165589
C       -0.35162662       3.58549416      -1.46811574       0.48764617       0.04489164       0.18952275
C        1.92459763       4.40308487       2.38250524       0.88212932      -0.35524599      -0.25485460
C        0.96927033      -2.94932830      -0.68395441      -0.13812751       0.17836588       0.24219174
C       -0.44421588      -3.46854389      -0.36360138       0.76470243      -1.19264216      -0.04078816
C        2.07412602       4.20048868       0.85367361      -0.02161216      -0.26922000       0.65689055
C        1.24279164       3.00247204       0.41712983      -0.41403991       0.07247153      -0.95618631
C        0.95372300       2.86383354      -1.09511202      -0.92298234       0.17084405      -0.97909614
H       -0.32407008      -1.13681340      -3.82658773       0.44822987      -0.58437424       1.21216892
H       -2.18420181       0.82197933       3.53997169       0.15333456       0.51792700       0.02311954
H       -1.50514290      -1.42716403       4.10173092       0.60666847       0.81229959       0.14081684
H        2.57931128      -0.12718408       4.19540820       0.08623041       0.04595232       0.01336402
H        0.89729407      -1.96431096       4.57359181      -0.17043754       0.60517369      -0.17494558
H        1.99261631      -0.95413518       0.95311502      -0.30071332       0.13449058      -0.50726935
H       -0.00392459       0.99884765      -3.19217210       0.26274392      -0.75440283       0.82369709
H       -0.91131602      -2.19156396       1.27378535      -0.07841370       0.57331754       0.32700770
H       -0.13192366      -3.69233882       1.80636686      -0.05350618       0.19652510      -0.37190818
H       -1.75482760      -3.70931613       1.21469808      -1.64817341      -0.53785923       0.57229439
H        3.05708493       3.09420908      -1.48321944       0.09131843      -0.07178975      -0.11464482
H        2.11613537       2.81172240      -2.94290310      -0.14990341      -0.29723541      -0.15834073
H        2.03444781       4.35126316      -2.17195588       0.20525814       0.58718525       0.00276120
H       -1.21572672       3.11039889      -1.02827698      -0.12681050      -0.15455136       0.31779932
H       -0.27866886       4.59750331      -1.09018498      -0.18769424       0.35222293      -0.06051153
H       -0.53926979       3.62258207      -2.53294903       0.21972232       0.02049069      -0.28850432
H        2.39204265       5.38332283       2.61229676      -0.21221830      -0.75326616       0.41453884
H        0.88531017       4.41816175       2.69579667      -0.10538420       0.14069978      -0.11923571
H        1.64277454      -3.23696124       0.14438773      -0.29435394       0.29099576      -0.33669841
H        1.34891357      -3.43469798      -1.56482559       0.08183820      -0.26388208      -0.45300306
H       -1.21586989      -3.05377757      -1.01692825       0.32371726       0.01551510      -0.04612033
H       -0.40360592      -4.56570708      -0.54646831      -0.25854016       0.61239509       0.03169763
H        3.14292158       4.09148538       0.56326756      -0.79831428       0.01672877       0.27688885
H        1.68463363       5.12119829       0.38761118       0.06398050      -0.42921716      -0.07141954
H        0.25751813       3.05618918       0.90825644       0.25384726      -0.09342278       0.11006025
