49
Properties=species:S:1:pos:R:3:forces:R:3 id=21069 bond=C-S smiles="[H:29][c:9]1[c:7]([c:5]([n:1][c:6]([c:8]1[H:28])[S:4][C:19]([H:41])([H:42])[C:22]([H:47])([H:48])[C:23]2([C:24]([c:15]3[c:11]([c:12]([c:14]([c:10]([c:13]3[O:3]2)[H:30])[C:20]([H:43])([H:44])[C:21]([H:45])([H:46])[C:16]([H:32])([H:33])[H:34])[O:2][H:25])[H:31])([C:17]([H:35])([H:36])[H:37])[C:18]([H:38])([H:39])[H:40])[H:49])[H:26])[H:27]" dataset=PubChem energy=-37573.20981519132 pbc="F F F"
N        0.21297068       2.09472249       3.49497008      -4.92334442      -2.08263474       0.26403094
O       -0.47662868      -2.13357430      -2.96946878      -0.49227040      -0.22640497      -1.20591904
O        1.41220001       1.29784191       0.82889317       0.76109953      -0.22992668       1.08833853
S        2.30376498       2.62089962       3.48643498      52.67715232      55.45794967     -10.82640434
C       -0.69035434       1.11431046       3.64837408       1.50277897      -0.17663686      -0.14064073
C        1.51490945       1.79397402       3.62991357     -49.16588560     -50.84615348       9.25977449
C       -0.29933511      -0.15602710       3.98731374      -1.98761883      -2.16389032       0.19595642
C        1.96657825       0.52906178       4.00601387      -1.17721507      -4.25575479       1.35557533
C        1.02730364      -0.48710253       4.21258974       1.39509555       1.28244172      -0.24672595
C        1.07841996      -1.03810972       0.11553078       0.15950627       0.39028179       0.90559382
C       -0.04810341       0.07552527      -2.17319531      -0.05734739       0.00454959       0.20823859
C        0.01185668      -1.33701747      -1.97845693      -0.13818619       1.68988177      -0.52190503
C        0.96657197       0.34770105      -0.04847385      -0.04173551      -0.89514515       0.11375568
C        0.55237979      -1.93059546      -0.82603450       0.14736712       1.26923366      -0.04964191
C        0.39377422       0.92263001      -1.15415306      -0.18006811      -1.45115646      -0.34160875
C       -1.27198382      -3.70571166       1.16428898       1.23895179       0.03307770      -0.26137760
C        1.66965584       2.83292431      -1.89791055       0.26204969       0.53441670       0.19444457
C       -0.79301008       3.12280959      -1.38783605       0.49220437       0.04582588       0.19909830
C        1.48321417       3.94040030       2.46278493       1.08764571       1.76181913      -0.04476186
C        0.52788687      -3.41201287      -0.60367472      -0.13314001       0.17131160       0.24485600
C       -0.88559934      -3.93122846      -0.28332169       0.75610283      -1.18602631      -0.03248842
C        1.63274256       3.73780411       0.93395330       0.17687509      -0.52757132       0.73623325
C        0.80140818       2.53978747       0.49740952      -0.59688880       0.10182454      -1.10670937
C        0.51233954       2.40114897      -1.01483233      -0.87466528       0.16985878      -0.98839789
H       -0.76545354      -1.59949797      -3.74630804       0.44516638      -0.58503363       1.21122160
H       -1.74281835       1.28466390       3.45969200       0.11541645       0.49416702      -0.00706313
H       -1.06375944      -0.96447946       4.02145123       0.62034223       0.78676982       0.10865901
H        3.02069474       0.33550049       4.11512851       0.09362161       0.09178723      -0.06221511
H        1.33867753      -1.50162639       4.49331212      -0.16845958       0.58248826      -0.19504853
H        1.55123285      -1.41681975       1.03339471      -0.31420033       0.14608207      -0.49950047
H       -0.44530805       0.53616308      -3.11189241       0.26253838      -0.75282962       0.82760173
H       -1.35269948      -2.65424853       1.35406504      -0.08423270       0.57297993       0.33032256
H       -0.57330712      -4.15502339       1.88664655      -0.06200530       0.19790123      -0.37743854
H       -2.19621106      -4.17200070       1.29497777      -1.64225037      -0.53286206       0.57253442
H        2.61570147       2.63152451      -1.40293975       0.09646971      -0.07345411      -0.11741650
H        1.67475191       2.34903783      -2.86262341      -0.14553282      -0.29382368      -0.15582014
H        1.59306435       3.88857859      -2.09167619       0.20726933       0.59111742      -0.00118994
H       -1.65711018       2.64771432      -0.94799729      -0.12524653      -0.15452083       0.31679069
H       -0.72005232       4.13481874      -1.00990529      -0.19128154       0.35551859      -0.06084341
H       -0.98065325       3.15989750      -2.45266934       0.22181383       0.01869924      -0.28594800
H        1.95065919       4.92063826       2.69257645      -0.08983116      -0.70359509       0.17344260
H        0.44392671       3.95547718       2.77607636       0.36021030       0.25149326      -0.24746382
H        1.20139108      -3.69964581       0.22466742      -0.29822730       0.29345901      -0.33719023
H        0.90753011      -3.89738255      -1.48454590       0.08432535      -0.26060549      -0.45694910
H       -1.65725335      -3.51646214      -0.93664856       0.32327292       0.01493802      -0.05034193
H       -0.84498938      -5.02839165      -0.46618862      -0.25468578       0.61275193       0.02832734
H        2.70153812       3.62880081       0.64354725      -0.77342185       0.01016018       0.17502146
H        1.24325017       4.65851372       0.46789087       0.09033830      -0.45467256       0.04350922
H       -0.18386533       2.59350461       0.98853613       0.33257595      -0.07940502       0.06662223
