49
Properties=species:S:1:pos:R:3:forces:R:3 id=21069 bond=C-S smiles="[H:29][c:9]1[c:7]([c:5]([n:1][c:6]([c:8]1[H:28])[S:4][C:19]([H:41])([H:42])[C:22]([H:47])([H:48])[C:23]2([C:24]([c:15]3[c:11]([c:12]([c:14]([c:10]([c:13]3[O:3]2)[H:30])[C:20]([H:43])([H:44])[C:21]([H:45])([H:46])[C:16]([H:32])([H:33])[H:34])[O:2][H:25])[H:31])([C:17]([H:35])([H:36])[H:37])[C:18]([H:38])([H:39])[H:40])[H:49])[H:26])[H:27]" dataset=PubChem energy=-37587.2387232749 pbc="F F F"
N       -0.00302548       1.86830238       3.53425589       0.12023824      -0.02516461      -0.19124254
O       -0.26063252      -1.90715419      -3.00875459      -0.49994403      -0.23493578      -1.21346556
O        1.62819617       1.52426202       0.78960736       0.69303460      -0.36373291       0.95704372
S        2.51976114       2.84731973       3.44714917      -0.04700069       0.58706547      -0.14407469
C       -0.90635050       0.88789035       3.68765989       1.12018117       0.10309526      -0.16351272
C        1.29891329       1.56755391       3.66919938      -1.00901164       0.49579898       0.01476527
C       -0.51533127      -0.38244721       4.02659955      -1.15644859      -2.08984329       0.18745150
C        1.75058209       0.30264167       4.04529968      -0.31295739      -0.60406570       0.17394335
C        0.81130748      -0.71352264       4.25187555       0.66464731       0.77173108      -0.27038351
C        1.29441612      -0.81168961       0.07624497       0.15068430       0.39595119       0.90754181
C        0.16789275       0.30194538      -2.21248112      -0.05323177       0.01655062       0.21665411
C        0.22785284      -1.11059736      -2.01774274      -0.13009703       1.68355899      -0.50785094
C        1.18256813       0.57412116      -0.08775966      -0.02345553      -0.80201833       0.15624609
C        0.76837595      -1.70417535      -0.86532031       0.13741749       1.26520936      -0.06242406
C        0.60977038       1.14905012      -1.19343887      -0.20478741      -1.46145534      -0.38185101
C       -1.05598766      -3.47929155       1.12500317       1.23285867       0.03306335      -0.25828270
C        1.88565200       3.05934442      -1.93719636       0.26757369       0.53542724       0.19872056
C       -0.57701392       3.34922970      -1.42712186       0.48989580       0.04455000       0.19371959
C        1.69921033       4.16682041       2.42349912       0.77163544      -0.05826487      -0.20781905
C        0.74388303      -3.18559276      -0.64296053      -0.13561905       0.17530979       0.24319503
C       -0.66960318      -3.70480835      -0.32260750       0.76196633      -1.18738185      -0.03761521
C        1.84873872       3.96422422       0.89466749       0.02856922      -0.33449786       0.67033379
C        1.01740434       2.76620758       0.45812371      -0.48846272       0.09227069      -1.01213466
C        0.72833570       2.62756908      -1.05411814      -0.90310226       0.17197369      -0.98150869
H       -0.54945738      -1.37307786      -3.78559385       0.44679158      -0.58483514       1.21127849
H       -1.95881451       1.05824379       3.49897781       0.13903278       0.49965034       0.02101884
H       -1.27975560      -1.19089957       4.06073704       0.60728857       0.79289237       0.13782949
H        2.80469858       0.10908038       4.15441432       0.10850309       0.05055911      -0.01707480
H        1.12268137      -1.72804650       4.53259793      -0.20601462       0.58444369      -0.17418975
H        1.76722901      -1.19039964       0.99410890      -0.30634385       0.13763487      -0.50300205
H       -0.22931189       0.76258319      -3.15117822       0.26262240      -0.75363481       0.82557163
H       -1.13670332      -2.42782842       1.31477923      -0.08189220       0.57763564       0.32671111
H       -0.35731096      -3.92860328       1.84736074      -0.05758189       0.19577118      -0.37493185
H       -1.98021490      -3.94558059       1.25569196      -1.64424809      -0.53486804       0.57276191
H        2.83169763       2.85794462      -1.44222556       0.09377602      -0.07275789      -0.11568756
H        1.89074807       2.57545794      -2.90190922      -0.14808045      -0.29572350      -0.15736378
H        1.80906051       4.11499870      -2.13096200       0.20593606       0.58860066       0.00071080
H       -1.44111402       2.87413443      -0.98728310      -0.12614573      -0.15421709       0.31749026
H       -0.50405616       4.36123885      -1.04919110      -0.18948546       0.35330897      -0.06074626
H       -0.76465709       3.38631761      -2.49195515       0.22084023       0.01960384      -0.28755528
H        2.16665535       5.14705837       2.65329064      -0.18173480      -0.82602347       0.38819721
H        0.65992287       4.18189729       2.73679055      -0.04195817       0.06005252      -0.10978714
H        1.41738724      -3.47322570       0.18538161      -0.29588279       0.29189741      -0.33691456
H        1.12352627      -3.67096244      -1.52383171       0.08299863      -0.26220933      -0.45471438
H       -1.44125719      -3.29004203      -0.97593437       0.32345217       0.01516320      -0.04806388
H       -0.62899322      -4.80197154      -0.50547443      -0.25706502       0.61314858       0.03133730
H        2.91753428       3.85522092       0.60426144      -0.79358917       0.01956622       0.25453775
H        1.45924633       4.88493383       0.42860506       0.06861545      -0.43444996      -0.03622107
H        0.03213083       2.81992472       0.94925032       0.29211042      -0.08884212       0.10234486
