24
Properties=species:S:1:pos:R:3:forces:R:3 id=29246 bond=C-N smiles="[H:11][C:1]1=[C:3]([N:5]([C:4](=[C:2]1[H:12])[C:8]([H:16])([H:17])[H:18])[N:6]([C:9]([H:19])([H:20])[H:21])[C:10]([H:22])([H:23])[H:24])[C:7]([H:13])([H:14])[H:15]" dataset=PubChem energy=-11497.487375883893 pbc="F F F"
C        1.57062907       2.57119748       0.09795403       0.11382678      -1.80286564       1.08001430
C        2.36582155       1.86744007       1.08321647      -0.94694696      -0.25504459      -0.70324001
C        0.61444029       1.67096063      -0.31727000      -1.09527153       1.34688087      -1.16105753
C        1.85837335       0.58406099       1.20041691       0.69627783       0.71677377       0.45503927
N        0.75441853       0.43710718       0.34062998       0.76688274       1.60225573       0.82188488
N       -0.11645066      -0.71154288       0.30656889      -3.52424741      52.80788598      63.74864710
C       -0.46048146       2.06356903      -1.33555742      -0.06300019      -0.86245890       0.32258012
C        2.46917052      -0.46327207       2.08477692      -2.21211115      -0.63686031       0.05982341
C       -0.08565780      -1.32333319      -0.40042448       4.69164346     -51.47840469     -59.22164385
C       -1.35304742      -0.60769812       1.08781658       0.27601103       3.03912659       1.06923869
H        1.67972965       3.60448738      -0.19289138      -0.13982340      -0.21685170      -0.17775738
H        3.19362158       2.29071399       1.64205865      -0.13331606      -0.36853461      -0.14040856
H       -0.40415227       3.12666746      -1.59816701       0.36540402      -0.36793158       0.17810918
H       -1.46865922       1.92480823      -0.93370076       0.08453871      -0.14672173      -0.02875903
H       -0.38938450       1.46261164      -2.25353904      -0.03888810       0.22564546       0.25772784
H        3.35967035      -0.07250599       2.52728014       0.43635229       0.16966619       0.24264581
H        2.69620270      -1.35029725       1.49936037       0.15446014      -0.17653157       0.11434294
H        1.74008245      -0.76495770       2.89397148       0.86915705       0.20396910      -0.71800768
H       -0.64503111      -2.26626245      -0.17834419       0.53248858      -0.43236241      -0.90841050
H        0.99040923      -1.53897755      -0.60781121       0.32374626      -1.56690740      -1.41802017
H       -0.46902748      -0.94209949      -1.34985542      -1.09564939      -0.54212928      -3.21316345
H       -1.71961241      -1.55228106       1.40416221       0.16628850      -1.07491539       0.02550856
H       -1.21406608       0.02555102       1.98055987       0.01949795      -0.22913654      -0.46104628
H       -2.12557273      -0.14051262       0.47775469      -0.24641790       0.04644049      -0.22575864
