24
Properties=species:S:1:pos:R:3:forces:R:3 id=29246 bond=C-N smiles="[H:11][C:1]1=[C:3]([N:5]([C:4](=[C:2]1[H:12])[C:8]([H:16])([H:17])[H:18])[N:6]([C:9]([H:19])([H:20])[H:21])[C:10]([H:22])([H:23])[H:24])[C:7]([H:13])([H:14])[H:15]" dataset=PubChem energy=-11505.979301836383 pbc="F F F"
C        1.54496836       3.08102273       0.68711518      -0.00169341      -1.72039553       0.88958110
C        2.34016084       2.37726532       1.67237762      -0.93397080      -0.35548854      -0.58272915
C        0.58877958       2.18078588       0.27189115      -0.92749808       1.56739007      -1.02636181
C        1.83271264       1.09388624       1.78957806       1.09737527       0.48632274       0.26486538
N        0.72875782       0.94693243       0.92979113      -1.13033369      -0.32958494      -0.50137457
N       -0.14211137      -0.20171763       0.89573004       2.86012767      -0.41197763       0.17108412
C       -0.48614217       2.57339428      -0.74639627      -0.02816077      -0.91299956       0.40383515
C        2.44350981       0.04655318       2.67393807      -2.16338851      -0.61665808       0.05297145
C       -0.05999709      -1.83315844      -0.98958563       0.43495740      -0.23763424      -0.41429784
C       -1.37870813      -0.09787287       1.67697773      -0.07746988       1.62435895      -1.46279269
H        1.65406894       4.11431263       0.39626977      -0.12709228      -0.20051302      -0.15750663
H        3.16796087       2.80053924       2.23121980      -0.17226989      -0.34770584      -0.09225943
H       -0.42981298       3.63649271      -1.00900586       0.37683315      -0.37645210       0.15265215
H       -1.49431993       2.43463348      -0.34453961       0.10015226      -0.16168871      -0.02053283
H       -0.41504521       1.97243689      -1.66437789      -0.03373552       0.20605196       0.23366222
H        3.33400964       0.43731926       3.11644129       0.44686654       0.20168881       0.25170923
H        2.67054199      -0.84047200       2.08852152       0.08777119      -0.15000186       0.11313295
H        1.71442174      -0.25513245       3.48313263       0.87123945       0.19627657      -0.75539182
H       -0.61937040      -2.77608770      -0.76750534       0.39168546       1.25000822       0.78981489
H        1.01606994      -2.04880280      -1.19697236      -0.72225614       0.60524224       1.16093457
H       -0.44336677      -1.45192474      -1.93901657      -0.33915064       0.80886568       0.66148924
H       -1.74527312      -1.04245581       1.99332336       0.07645411      -1.03086532       0.09795112
H       -1.23972679       0.53537627       2.56972102       0.34330581      -0.23285419      -0.44656521
H       -2.15123344       0.36931263       1.06691584      -0.42800889       0.14107091       0.21690304
