50
Properties=species:S:1:pos:R:3:forces:R:3 id=18349 bond=C-C smiles="[H:21][C:1]1([C:2]([C:13]1([H:45])[C:19]([C:14]2([C:3]([C:4]2([H:27])[H:28])([H:25])[H:26])[H:46])([C:15]3([C:5]([C:6]3([H:31])[H:32])([H:29])[H:30])[H:47])[C:20]([C:16]4([C:7]([C:8]4([H:35])[H:36])([H:33])[H:34])[H:48])([C:17]5([C:9]([C:10]5([H:39])[H:40])([H:37])[H:38])[H:49])[C:18]6([C:11]([C:12]6([H:43])[H:44])([H:41])[H:42])[H:50])([H:23])[H:24])[H:22]" dataset=PubChem energy=-21234.25407653189 pbc="F F F"
C        2.38086881       1.91760771       3.00189090       1.30723444      -0.09841905       0.49618030
C        2.05955817       0.46697728       3.10233093       2.90267608      -2.05433128       0.34348508
C        1.47626676       3.72603385      -0.01178067       1.01429663      -2.94175578       1.28380964
C        1.94447507       2.59245149      -0.92643069       1.44507145       0.05542895       1.64846132
C       -0.94710789       2.98502270       2.71649814       0.22215772      -1.87054214      -2.17822426
C       -1.93859301       2.27841131       1.76434565       1.49350616      -1.38821799       2.75495098
C        1.64387586      -1.84629119      -1.61762520       0.39406459      -2.63976412       1.89890498
C        2.77842822      -1.15635490      -0.90130254      -0.72487371       0.78174138       1.13895060
C       -1.50390277       0.82005180      -1.99451136       1.67475536      -2.41540005       0.86140776
C       -1.77427207      -0.73297043      -1.69275831       1.12146241       2.25579328      -0.67054157
C        0.52840306      -2.21483095       1.88232673      -0.98071348      -0.86627917      -0.41327096
C       -0.84132049      -1.73927720       2.44667447       1.24249294       0.49707058      -0.74917605
C        1.93772342       1.09431236       1.80424488      -1.23823704      -0.02448499      -0.85118657
C        0.74897634       2.33502213      -0.09257620      -2.32262299       1.39967614      -0.55201883
C       -0.54210881       1.62419669       2.08626545      -1.11854250      -0.00682564       0.92293189
C        1.41118863      -0.49115974      -1.03997358      -2.36966743       1.35536225      -0.84126981
C       -1.27472935       0.21778093      -0.57203364       0.45411570      -0.39702295      -2.04781103
C       -0.38791410      -1.34701570       1.01982147       1.06299849      -1.72810854      -1.83416432
C        0.63380276       1.21970408       1.04605428      -2.81456718       2.16531737      -1.10301367
C        0.05214175      -0.00992806       0.21513510       1.80991428      -2.49649777      -0.55619403
H        1.73072853       2.35798256       3.78790021       0.61250744       0.77062133      -1.54690284
H        3.48056497       2.13320939       2.93130541      -1.45320336       0.29239734       0.56506763
H        2.89834823      -0.27411593       3.21075201      -1.18033689       0.72275614       0.11947540
H        1.20660075       0.30950455       3.66354609      -1.38254955      -0.73153383       0.95162444
H        0.91479935       4.46010176      -0.49149560      -0.44112200       1.40740584      -0.33421663
H        2.17529084       3.95139829       0.81625272      -0.96808220       0.02823220      -0.52167214
H        1.83897270       2.87968079      -1.94906258       0.18915485      -0.74448738      -0.63690454
H        2.87637677       2.06722776      -0.54148078      -1.18628200       0.88022289      -1.11377987
H       -0.24553828       3.72316186       2.43015266      -0.24479325       1.26789706      -0.40099653
H       -1.16575239       2.88208596       3.74445892      -0.10475781       0.22868989       0.85652698
H       -1.99481569       2.57377283       0.78322925      -0.22390677       1.04607537      -1.94920829
H       -2.89045558       1.80156331       2.15591813       1.51047627       0.72249027      -0.32542271
H        1.76945593      -2.17784273      -2.64202162      -0.27526316       0.87319462      -0.20427174
H        1.33661904      -2.74380171      -1.02778526      -0.11929290       0.93632138      -0.36537560
H        3.16383209      -1.46503603       0.08113489      -0.67869411      -0.21837364      -0.49645783
H        3.54353919      -0.67309713      -1.44701370       0.61690925       0.31418086      -0.70755490
H       -0.57074712       0.98027883      -2.59598326      -1.16561608      -0.00405511       0.72905214
H       -2.32658778       1.48330019      -2.19856858      -0.09849625       0.00225478       0.12904963
H       -2.79899202      -1.00815435      -1.77049207      -0.71035782      -0.01653255       0.61502120
H       -1.18096719      -1.47281344      -2.24741410       0.30426753       0.67597768       0.65474245
H        0.67447009      -3.32795270       1.65977860      -0.36438162       1.89320432       0.11200534
H        1.43182816      -1.68632086       2.09400773       0.23363738      -0.06630381       0.92705354
H       -1.68124137      -2.44814308       2.64139486       0.99008964       0.66327771      -0.52962839
H       -0.74027727      -0.94717033       3.18463922      -0.24457272      -0.33633218      -0.14413164
H        2.76168527       0.76814814       1.20546068       0.27631423       0.38793724      -0.53872201
H       -0.23788355       2.50584666      -0.75707006       2.29667574      -0.73997621       2.07158570
H       -0.64534435       0.97227554       2.96034622       0.23969429      -0.49508159      -1.07650250
H        1.37465700       0.19028592      -1.97067257       0.05596932      -0.49824758       2.17863956
H       -2.04081426       0.38993548       0.14237044      -0.60358543       0.33789825       0.26173899
H       -0.72254620      -2.02119930       0.18955729      -0.45530071       0.81798656       1.16914000
