50
Properties=species:S:1:pos:R:3:forces:R:3 id=18349 bond=C-C smiles="[H:21][C:1]1([C:2]([C:13]1([H:45])[C:19]([C:14]2([C:3]([C:4]2([H:27])[H:28])([H:25])[H:26])[H:46])([C:15]3([C:5]([C:6]3([H:31])[H:32])([H:29])[H:30])[H:47])[C:20]([C:16]4([C:7]([C:8]4([H:35])[H:36])([H:33])[H:34])[H:48])([C:17]5([C:9]([C:10]5([H:39])[H:40])([H:37])[H:38])[H:49])[C:18]6([C:11]([C:12]6([H:43])[H:44])([H:41])[H:42])[H:50])([H:23])[H:24])[H:22]" dataset=PubChem energy=-21219.712370550085 pbc="F F F"
C        2.72472404       1.79585030       2.68433328       1.25020360      -0.09415156       0.52524059
C        2.40341340       0.34521987       2.78477331       2.89148648      -2.04251969       0.33251071
C        1.82012199       3.60427644      -0.32933829       1.02775665      -2.99232140       1.29403191
C        2.28833030       2.47069408      -1.24398831       1.49072485       0.12641461       1.60159810
C       -0.60325266       2.86326529       2.39894052       0.19676985      -1.87774123      -2.10335120
C       -1.59473778       2.15665390       1.44678803       1.52264446      -1.41514750       2.73388960
C        1.30002063      -1.72453378      -1.30006758       2.33497308      -3.57040174      -0.32983521
C        2.43457299      -1.03459749      -0.58374492       0.14752413       0.11112916       0.31243074
C       -1.16004754       0.69829439      -2.31206898       1.72867069      -2.49226372       1.00633807
C       -1.43041684      -0.85472784      -2.01031593       1.14757036       2.23128400      -0.64762327
C        0.87225829      -2.33658836       1.56476911      -1.34660546      -0.63068183      -0.19829477
C       -0.49746526      -1.86103461       2.12911685       1.12086141       0.49150441      -0.65110166
C        2.28157865       0.97255495       1.48668726      -1.18907737       0.00881247      -0.87251449
C        1.09283157       2.21326472      -0.41013382      -2.28287057       1.50844351      -0.44299837
C       -0.19825358       1.50243928       1.76870783      -1.01605692       0.28740388       1.01408820
C        1.06733340      -0.36940233      -0.72241596      59.87802199     -21.45979228     -58.62996920
C       -0.93087412       0.09602352      -0.88959126      -2.65321627       0.03659722      -0.85478025
C       -0.04405887      -1.46877311       0.70226385      -1.17409479      -2.11991906       1.33660217
C        0.97765799       1.09794667       0.72849666      -3.92655826       3.98351813       0.93306399
C        0.39599698      -0.13168547      -0.10242252     -58.31614347      18.95887545      55.25323884
H        2.07458376       2.23622515       3.47034259       0.61254060       0.76985353      -1.54418804
H        3.82442020       2.01145198       2.61374779      -1.45858568       0.29009012       0.54874260
H        3.24220346      -0.39587334       2.89319439      -1.16249167       0.71347042       0.11122912
H        1.55045598       0.18774714       3.34598847      -1.38264376      -0.73202248       0.94344470
H        1.25865458       4.33834435      -0.80905322      -0.44538888       1.39325819      -0.33507597
H        2.51914607       3.82964088       0.49869510      -0.97877495       0.02636167      -0.51613102
H        2.18282793       2.75792338      -2.26662020       0.18911076      -0.74514888      -0.63454490
H        3.22023200       1.94547035      -0.85903840      -1.18060464       0.89660474      -1.10204650
H        0.09831695       3.60140445       2.11259504      -0.24067101       1.26532410      -0.39868378
H       -0.82189716       2.76032855       3.42690130      -0.12035157       0.25048016       0.86085267
H       -1.65096046       2.45201542       0.46567163      -0.23667324       1.04575677      -1.95230612
H       -2.54660035       1.67980590       1.83836051       1.51158391       0.72412509      -0.32992544
H        1.42560070      -2.05608532      -2.32446400       0.01499534       0.84919052      -0.21672824
H        0.99276381      -2.62204430      -0.71022764       0.55762895       1.12086397      -1.21004129
H        2.81997686      -1.34327862       0.39869251      -0.57952027      -0.16008069      -0.85018365
H        3.19968396      -0.55133972      -1.12945608       0.58705929       0.24781147      -0.79933651
H       -0.22689189       0.85852142      -2.91354088      -1.12351812      -0.04202105       0.57402087
H       -1.98273255       1.36154278      -2.51612620      -0.04079868       0.05989537       0.19311663
H       -2.45513679      -1.12991176      -2.08804969      -0.70932899      -0.01927455       0.65643955
H       -0.83711196      -1.59457085      -2.56497172       0.18396574       0.76087888       0.59878641
H        1.01832532      -3.44971011       1.34222098      -0.32633153       1.85202240       0.05737143
H        1.77568339      -1.80807827       1.77645011       0.04509853      -0.20680179       1.11214454
H       -1.33738614      -2.56990049       2.32383724       1.00061963       0.63770628      -0.48527590
H       -0.39642204      -1.06892774       2.86708160      -0.26709179      -0.34613488      -0.08718033
H        3.10554050       0.64639073       0.88790306       0.26632006       0.58621108      -0.36538340
H        0.10597168       2.38408925      -1.07462768       2.27498667      -0.73072223       2.07128102
H       -0.30148912       0.85051813       2.64278860       0.24446273      -0.50808161      -1.08777653
H        1.03080177       0.31204333      -1.65311495       1.71665500      -0.72311749       0.83218514
H       -1.69695903       0.26817807      -0.17518718      -0.83254547       0.37161247       0.09442247
H       -0.37869097      -2.14295671      -0.12800033      -0.95200118       1.30383327       1.64815292
