25
Properties=species:S:1:pos:R:3:forces:R:3 id=45546 bond=C-O smiles="[H:24][c:11]1[c:15]([c:12]([c:14]([c:10]([c:13]1[O:2][H:16])[H:23])[O:3][H:17])[H:25])/[C:9](=[C:8]([H:21])/[C:7]2=[C:5]([O:1][C:4](=[C:6]2[H:20])[H:18])[H:19])/[H:22]" dataset=PubChem energy=-18757.564549220337 pbc="F F F"
O        3.20070658       2.68011012      -2.85667482       0.39917840       1.32182438       0.73498436
O       -1.35166575      -3.53606806       1.54704305      -0.35039325      -0.21155759       0.65389222
O       -1.31455129       0.14247145       4.32269807      -3.85732535       7.15342542      15.32026326
C        2.86697899       3.96035662      -2.44328180      -2.42326583      -0.11817808       1.90906942
C        2.67943035       1.84879139      -1.92555062      -1.23731668      -0.04022790       0.83588475
C        1.98080729       3.90531149      -1.35763434       1.99656099      -0.08469462      -1.11477118
C        1.89188109       2.52225103      -1.01571683       0.03704168      -0.82958914      -0.30180093
C        1.09059391       1.90846338       0.05452248      -0.68044384      -2.34997620       0.12452553
C        0.76267602       0.54891307       0.07850995       0.60712193       2.88354004       0.64314422
C       -1.35554995      -1.67173824       3.06091960       0.26892290      -0.77683359      -1.25022925
C       -0.34440936      -1.51062164       0.87580494       0.57460134       1.10319579       0.37033119
C       -0.29370334       0.39186784       2.38007816      -0.04581235      -0.52720972      -1.34991679
C       -1.01245679      -2.24891147       1.83573838      -0.02814252       0.43808241      -0.02810615
C       -1.03406097      -0.33239481       3.32464084       4.66523598      -7.08721247     -15.09418214
C        0.05693622      -0.18156478       1.14000627      -0.91654079      -0.07841713       0.60708486
H       -1.18159117      -3.71152172       0.62150396       0.09631356       0.05285955      -0.03537066
H       -1.40859622      -0.54544185       4.97902079      -0.60272624       0.22473035       0.76302219
H        3.14900241       4.89855470      -2.89057174       0.56645191      -0.66488098      -0.79549771
H        2.84653077       0.77602538      -1.94284812       0.29347859       0.48781494      -0.54790326
H        1.60634027       4.74578562      -0.77122036       0.06410357      -0.33273166      -0.50540100
H        0.72757651       2.59994092       0.83734782       0.25410354      -0.66314440      -0.43907685
H        1.05898921      -0.08969829      -0.73108760       0.20647884       0.04770864      -0.42529308
H       -1.88968720      -2.24504170       3.79870161      -0.16386248      -0.17293548       0.15971714
H       -0.08362337      -1.96724066      -0.05803475       0.08556687      -0.14501184      -0.36345881
H       -0.04893639       1.40709433       2.60655077       0.19467087       0.36705778       0.12814075
