12
Properties=species:S:1:pos:R:3:forces:R:3 id=40809 bond=C-O smiles="[H:6][C:2]([H:7])([H:8])[C:4]([H:11])([H:12])[C:3]([H:9])([H:10])[O:1][H:5]" dataset="DES370K Monomers" energy=-5289.120558253702 pbc="F F F"
O        1.67210428       1.28694981      -0.12128198      -2.11736086      -1.49840813      -2.05928134
C       -0.10697188      -1.20704836       1.09933494       1.47436026       1.11560843      -2.18781471
C        0.18438395       0.56124341      -0.94811918      -1.06230320       1.57177738       3.00062665
C       -0.50910834      -0.72862220      -0.32354533       1.51844936      -1.46465996      -1.04843744
H        1.66326133       1.55665296       0.82391001      -1.22242302      -0.71219178      -0.95014358
H        0.98802491      -1.46445936       0.92930387      -1.31802548       0.56065656       1.32360852
H       -0.36938537      -0.28649628       1.57519506       0.91757024       0.38201916       1.56596029
H       -0.67001326      -1.99500185       1.57426916      -0.20393459      -0.36493565      -0.51277448
H        0.28763016       0.58617848      -2.06493379       1.08025846      -0.26405382       1.44875267
H       -0.65236492       1.25947159      -0.73518111       1.32598819       0.59171793      -0.12740105
H       -1.57853512      -0.65983128      -0.37528263      -0.55929305       0.78346543      -0.09375515
H       -0.28414238      -1.50902957      -1.02396465       0.16694772      -0.70144105      -0.35907846
