12
Properties=species:S:1:pos:R:3:forces:R:3 id=40809 bond=C-O smiles="[H:6][C:2]([H:7])([H:8])[C:4]([H:11])([H:12])[C:3]([H:9])([H:10])[O:1][H:5]" dataset="DES370K Monomers" energy=-5285.75971134162 pbc="F F F"
O        2.02673529       1.45993796       0.07581293      -1.15447115      -0.61371013      -0.63693231
C       -0.46160289      -1.38003651       0.90224003       1.43873889       1.02177015      -1.98372000
C       -0.17024706       0.38825526      -1.14521409      -3.70324553      -0.31429796       0.95742759
C       -0.86373935      -0.90161035      -0.52064024       2.03637760      -1.30193315      -1.04391427
H        2.01789234       1.72964111       1.02100492      -0.71039865      -0.48183260      -0.77318292
H        0.63339390      -1.63744751       0.73220896      -1.33935382       0.57779913       1.29968963
H       -0.72401638      -0.45948443       1.37810015       0.94271650       0.36250977       1.52943446
H       -1.02464427      -2.16799000       1.37717425      -0.21751851      -0.36930955      -0.53297248
H       -0.06700085       0.41319033      -2.26202870       1.38237424      -0.17463964       1.33604093
H       -1.00699593       1.08648344      -0.93227602       1.68450052       0.93443952       0.24191073
H       -1.93316613      -0.83281943      -0.57237754      -0.63046717       0.99227866      -0.02530838
H       -0.63877339      -1.68201772      -1.22105956       0.27075240      -0.63328819      -0.36901015
