12
Properties=species:S:1:pos:R:3:forces:R:3 id=40809 bond=C-O smiles="[H:6][C:2]([H:7])([H:8])[C:4]([H:11])([H:12])[C:3]([H:9])([H:10])[O:1][H:5]" dataset="DES370K Monomers" energy=-5288.29265113808 pbc="F F F"
O        1.74130058       1.32070359      -0.08282444      -2.07702984      -1.36735980      -1.90749038
C       -0.17616818      -1.24080214       1.06087740       1.46632443       1.09676822      -2.14483175
C        0.11518765       0.52748963      -0.98657672      -1.57624940       1.15159654       2.60290460
C       -0.57830464      -0.76237598      -0.36200287       1.66675278      -1.42101941      -1.01724620
H        1.73245763       1.59040674       0.86236755      -1.17339448      -0.67116503      -0.86466510
H        0.91882861      -1.49821314       0.89084633      -1.32488276       0.57033323       1.31579085
H       -0.43858167      -0.32025006       1.53673752       0.92824332       0.37782582       1.55232013
H       -0.73920956      -2.02875563       1.53581162      -0.21023311      -0.36773003      -0.51903133
H        0.21843386       0.55242470      -2.10339133       1.20724434      -0.21879152       1.43755822
H       -0.72156122       1.22571781      -0.77363865       1.47397018       0.68825861      -0.00888374
H       -1.64773142      -0.69358506      -0.41374017      -0.57271127       0.84030912      -0.08328354
H       -0.35333868      -1.54278335      -1.06242219       0.19175011      -0.67880995      -0.36314528
