12
Properties=species:S:1:pos:R:3:forces:R:3 id=40809 bond=C-O smiles="[H:6][C:2]([H:7])([H:8])[C:4]([H:11])([H:12])[C:3]([H:9])([H:10])[O:1][H:5]" dataset="DES370K Monomers" energy=-5286.871964340562 pbc="F F F"
O        1.87969316       1.38821116      -0.00590935      -1.59380972      -0.96009611      -1.26430164
C       -0.31456076      -1.30830971       0.98396231       1.45113333       1.05712792      -2.05946231
C       -0.02320493       0.45998206      -1.06349181      -2.76469317       0.31980317       1.69446359
C       -0.71669722      -0.82988355      -0.43891796       1.88632478      -1.35548129      -1.01045529
H        1.87085021       1.65791431       0.93928264      -0.96327493      -0.57527628      -0.78591594
H        0.78043603      -1.56572071       0.81393124      -1.33386906       0.57927523       1.30526001
H       -0.57697425      -0.38775763       1.45982243       0.93989838       0.37027703       1.53581983
H       -0.87760214      -2.09626320       1.45889653      -0.21662437      -0.37003942      -0.52749223
H        0.08004128       0.48491713      -2.18030642       1.33769538      -0.18079716       1.38613923
H       -0.85995380       1.15821024      -0.85055374       1.62349479       0.83525908       0.14878383
H       -1.78612400      -0.76109263      -0.49065526      -0.60237407       0.92977605      -0.05512406
H       -0.49173126      -1.61029092      -1.13933728       0.23604613      -0.64984190      -0.36788897
