12
Properties=species:S:1:pos:R:3:forces:R:3 id=40809 bond=C-O smiles="[H:6][C:2]([H:7])([H:8])[C:4]([H:11])([H:12])[C:3]([H:9])([H:10])[O:1][H:5]" dataset="DES370K Monomers" energy=-5290.539000763351 pbc="F F F"
O        1.44721632       1.17725000      -0.24626900       6.13227073       1.74105687       2.75639786
C        0.11791608      -1.09734855       1.22432196       1.50168655       1.17000166      -2.33876097
C        0.40927191       0.67094322      -0.82313216      -6.66351972      -0.29854214      -0.10442174
C       -0.28422038      -0.61892239      -0.19855831       0.69577177      -1.86684562      -1.32883712
H        1.43837337       1.44695315       0.69892299      -0.73149278      -0.66625421      -1.36352203
H        1.21291287      -1.35475955       1.05429089      -1.27342732       0.51042398       1.35565657
H       -0.14449741      -0.17679647       1.70018208       0.85681796       0.41612938       1.64097878
H       -0.44512530      -1.88530204       1.69925618      -0.16001689      -0.34078995      -0.47378445
H        0.51251812       0.69587829      -1.93994677       0.17521465      -0.68048703       1.10056725
H       -0.42747696       1.36917140      -0.61019409      -0.09754418       0.26540343      -0.79751458
H       -1.35364716      -0.55013147      -0.25029561      -0.54457952       0.57664969      -0.09738590
H       -0.05925442      -1.39932976      -0.89897763       0.10738421      -0.82679900      -0.35076046
