29
Properties=species:S:1:pos:R:3:forces:R:3 id=33547 bond=C-S smiles="[H:22][C:10]1([C:8]([O:2][C:9]([C:11]([N:6]1[C:12]([H:26])([H:27])[C:13]([H:28])([H:29])[C:7]([H:16])([H:17])[N:1]=[C:5]([S:3][H:14])[S:4][H:15])([H:24])[H:25])([H:20])[H:21])([H:18])[H:19])[H:23]" dataset=PubChem energy=-35261.71253916265 pbc="F F F"
N        2.21096231       1.35799297      -1.95880209       4.54524981      -3.77235179       1.28486419
O       -1.81441187      -0.72533033       2.99331511      -0.82289017       0.90145550       2.39446679
S        3.55271269      -0.14406381      -3.65204845       1.58714378      -0.73352132      -0.15256398
S        5.36676291       0.98091804      -0.40589663      -2.05016030      -0.28301224      -1.45891080
C        3.31386591       0.62819752      -2.14728318      -4.26218103       4.67573058       2.08076199
N       -0.99234055       0.07277676       0.48277275       0.16158897      -0.79704246       1.24391952
C        1.83363200       1.81960001      -0.60094999      -0.43140972       0.04533758       1.89074291
C       -1.01007794      -1.57874725       2.29883517      -1.21634546       1.10601689      -4.85566827
C       -2.76023578      -0.05028007       2.24300636       0.21609679       0.49483954      -1.33581508
C       -0.05120828      -0.80394170       1.27846064      -1.93554222      -0.62148759       0.39018435
C       -1.96248530       0.90223101       1.34485043       0.23202034      -1.56908554      -1.42992484
C       -0.39408075       0.72003266      -0.68359553      -2.02262335      -2.46419618      -0.35744145
C        0.28063130       1.96312084      -0.41539370       1.98886110       1.54461489      -0.71625360
H        2.43906713       0.37787570      -4.12031375      -0.60883553       0.11219516      -0.30354722
H        4.76132491       2.06707360       0.13966134       0.09109927      -0.40032442      -0.29452840
H        2.13343502       1.15765044       0.27268660       0.30084835       0.30011474      -1.54630829
H        2.34498168       2.76203373      -0.44477688      -0.06347085       0.29765146       0.07645938
H       -0.55065941      -2.12844202       2.99017633       2.33751489      -2.18497426       2.52568886
H       -1.71100604      -2.24799773       1.72216524       0.96175515       0.31192251       0.04487260
H       -3.55498051       0.36697081       2.85412515       0.60817677       0.69211766       0.51457551
H       -3.33247207      -0.71640048       1.63859857      -0.17836324      -1.00672830      -0.86490444
H        0.79179693      -0.37126539       1.80963696      -0.24331049       1.04818123       0.49409953
H        0.51375381      -1.50569222       0.64854757      -0.86973260      -0.01371872      -0.34982264
H       -1.43614994       1.50254574       2.02650584       0.89111843       1.21924876       0.78806678
H       -2.58652567       1.52734568       0.69988565       0.15210466      -0.24212363      -0.04568512
H        0.29486432       0.04569265      -1.17140244       0.23798410      -0.62500208       0.27697606
H       -1.16806173       0.76952579      -1.46795343      -0.05628529       0.50696942       0.43730355
H       -0.12402760       2.39990952       0.48387493       0.88908877       0.07318482       0.71983391
H       -0.02587933       2.65339234      -1.13241039      -0.44496622       1.38583968      -1.44835175
