29
Properties=species:S:1:pos:R:3:forces:R:3 id=33547 bond=C-S smiles="[H:22][C:10]1([C:8]([O:2][C:9]([C:11]([N:6]1[C:12]([H:26])([H:27])[C:13]([H:28])([H:29])[C:7]([H:16])([H:17])[N:1]=[C:5]([S:3][H:14])[S:4][H:15])([H:24])[H:25])([H:20])[H:21])([H:18])[H:19])[H:23]" dataset=PubChem energy=-35212.739620910805 pbc="F F F"
N        2.89526131       1.47556648      -1.37833991      -8.54499104       0.61116022      -3.08850730
O       -1.13011287      -0.60775682       3.57377729      -0.80450281       0.88317448       2.40457528
S        4.23701169      -0.02649030      -3.07158627      -0.93308359      -2.32115587      -3.53369309
S        4.68246391       0.86334453      -0.98635881     185.50419476      30.19569370     156.67753970
C        3.99816491       0.74577103      -1.56682100    -178.87382306     -29.63763906    -151.70700385
N       -0.30804155       0.19035027       1.06323493       0.13094685      -0.76873806       1.30791432
C        2.51793100       1.93717352      -0.02048781      -0.61494115      -1.04576755       1.13725705
C       -0.32577894      -1.46117374       2.87929735      -1.21471642       1.10758688      -4.84756976
C       -2.07593678       0.06729344       2.82346854       0.20299220       0.51905702      -1.34618289
C        0.63309072      -0.68636819       1.85892282      -1.98781171      -0.58870265       0.36611094
C       -1.27818630       1.01980452       1.92531261       0.23742880      -1.60305078      -1.41167370
C        0.29021825       0.83760617      -0.10313335      -1.95759512      -2.48147002      -0.37046101
C        0.96493030       2.08069435       0.16506848       1.79520142       1.48862713      -0.81094869
H        3.12336613       0.49544921      -3.53985157      -0.60221894      -0.00569048      -0.50144763
H        4.07702591       1.94950009      -0.44080084       3.37915760       1.38953728       2.87066046
H        2.81773402       1.27522395       0.85314878       0.16068458       0.27877047      -0.96403341
H        3.02928068       2.87960724       0.13568530      -0.34263157       0.75241114       0.73973341
H        0.13363959      -2.01086851       3.57063851       2.33434930      -2.18946641       2.53381585
H       -1.02670704      -2.13042422       2.30262742       0.96471806       0.31350056       0.04261209
H       -2.87068151       0.48454432       3.43458733       0.60577703       0.68784572       0.52030779
H       -2.64817307      -0.59882697       2.21906075      -0.17701751      -1.00767164      -0.86457447
H        1.47609593      -0.25369188       2.39009914      -0.23380969       1.05599956       0.51424178
H        1.19805281      -1.38811871       1.22900975      -0.87574989      -0.02173155      -0.36264851
H       -0.75185094       1.62011925       2.60696802       0.88816858       1.22420087       0.79160442
H       -1.90222667       1.64491919       1.28034783       0.15851882      -0.24577382      -0.04822395
H        0.97916332       0.16326616      -0.59094026       0.27808737      -0.52107800       0.23115713
H       -0.48376273       0.88709930      -0.88749125      -0.02133929       0.50152470       0.43588310
H        0.56027140       2.51748303       1.06433711       0.92910876       0.08826707       0.75294166
H        0.65841967       2.77096585      -0.55194821      -0.37807687       1.34249432      -1.45722819
