29
Properties=species:S:1:pos:R:3:forces:R:3 id=33547 bond=C-S smiles="[H:22][C:10]1([C:8]([O:2][C:9]([C:11]([N:6]1[C:12]([H:26])([H:27])[C:13]([H:28])([H:29])[C:7]([H:16])([H:17])[N:1]=[C:5]([S:3][H:14])[S:4][H:15])([H:24])[H:25])([H:20])[H:21])([H:18])[H:19])[H:23]" dataset=PubChem energy=-35244.71896433076 pbc="F F F"
N        2.82268414       1.46309656      -1.43990408      -5.45659358      -0.73527376      -1.78112072
O       -1.20269004      -0.62022674       3.51221312      -0.80688941       0.88425847       2.40608973
S        4.16443452      -0.03896022      -3.13315044      -0.22883213      -1.83539657      -2.59065432
S        4.75504108       0.87581445      -0.92479464      75.90999776      12.01654800      63.85287413
C        3.92558774       0.73330111      -1.62838517     -72.71100722      -9.71065295     -59.76751277
N       -0.38061872       0.17788035       1.00167076       0.13082535      -0.77394268       1.30547382
C        2.44535383       1.92470360      -0.08205198      -0.44722349      -0.95157182       0.61875617
C       -0.39835611      -1.47364366       2.81773318      -1.21218248       1.10906598      -4.85195765
C       -2.14851395       0.05482352       2.76190437       0.20521585       0.51734675      -1.34711058
C        0.56051355      -0.69883811       1.79735865      -1.98574996      -0.59512550       0.36613445
C       -1.35076347       1.00733460       1.86374844       0.23938371      -1.60150531      -1.41562873
C        0.21764108       0.82513625      -0.16469752      -1.94315950      -2.49276388      -0.38481914
C        0.89235313       2.06822443       0.10350431       1.86862264       1.60257265      -0.75432591
H        3.05078896       0.48297929      -3.60141574      -0.62415788       0.00577807      -0.35265088
H        4.14960308       1.96197001      -0.37923667       2.56456594       0.30020214       2.01325026
H        2.74515685       1.26275403       0.79158461       0.22449288       0.26893706      -1.03353184
H        2.95670351       2.86713732       0.07412113      -0.15925050       0.77100367       0.61284571
H        0.06106242      -2.02333843       3.50907434       2.33435027      -2.18959772       2.53379379
H       -1.09928421      -2.14289414       2.24106325       0.96403264       0.31308307       0.04318671
H       -2.94325868       0.47207440       3.37302316       0.60541612       0.68819331       0.52040339
H       -2.72075024      -0.61129689       2.15749658      -0.17705249      -1.00796326      -0.86462682
H        1.40351876      -0.26616180       2.32853497      -0.23298655       1.05533098       0.51113655
H        1.12547564      -1.40058863       1.16744558      -0.87448687      -0.01736382      -0.36040483
H       -0.82442811       1.60764933       2.54540385       0.88782078       1.22416075       0.79132076
H       -1.97480384       1.63244927       1.21878366       0.15831681      -0.24499067      -0.04781300
H        0.90658615       0.15079624      -0.65250443       0.26833007      -0.53200378       0.23855047
H       -0.55633990       0.87462938      -0.94905542      -0.02530264       0.50579375       0.43973190
H        0.48769423       2.50501311       1.00277294       0.90172604       0.08181257       0.74888406
H        0.58584250       2.75849593      -0.61351238      -0.38818227       1.34171450      -1.45714420
