29
Properties=species:S:1:pos:R:3:forces:R:3 id=33547 bond=C-S smiles="[H:22][C:10]1([C:8]([O:2][C:9]([C:11]([N:6]1[C:12]([H:26])([H:27])[C:13]([H:28])([H:29])[C:7]([H:16])([H:17])[N:1]=[C:5]([S:3][H:14])[S:4][H:15])([H:24])[H:25])([H:20])[H:21])([H:18])[H:19])[H:23]" dataset=PubChem energy=-35260.91790241788 pbc="F F F"
N        2.08654431       1.33661597      -2.06434067       5.13601014      -3.81291267       1.43804415
O       -1.93882987      -0.74670733       2.88777653      -0.81963985       0.90130475       2.38826351
S        3.42829469      -0.16544081      -3.75758703       1.60363982      -0.75505130      -0.12978006
S        5.49118091       1.00229504      -0.30035805      -1.71272509      -0.10509443      -1.10374263
C        3.18944791       0.60682052      -2.25282176      -5.06117916       4.56428729       1.46856879
N       -1.11675855       0.05139976       0.37723417       0.16945393      -0.79217004       1.23022139
C        1.70921400       1.79822301      -0.70648857      -0.60884329       0.08140936       2.03725045
C       -1.13449594      -1.60012425       2.19329659      -1.22006449       1.10488443      -4.85299623
C       -2.88465378      -0.07165707       2.13746778       0.21648256       0.49066680      -1.33260278
C       -0.17562628      -0.82531870       1.17292206      -1.92620393      -0.62453678       0.39451293
C       -2.08690330       0.88085401       1.23931185       0.22778208      -1.56303733      -1.43058981
C       -0.51849875       0.69865566      -0.78913411      -2.03520643      -2.47294192      -0.34214087
C        0.15621330       1.94174384      -0.52093228       1.98550911       1.55032783      -0.71743959
H        2.31464913       0.35649870      -4.22585233      -0.61312866       0.09564762      -0.33514724
H        4.88574291       2.08845060       0.24519992       0.11183619      -0.37795908      -0.25915885
H        2.00901702       1.13627344       0.16714802       0.30610363       0.28892783      -1.57419489
H        2.22056368       2.74065673      -0.55031546      -0.04431206       0.26704055       0.03486187
H       -0.67507741      -2.14981902       2.88463775       2.33835562      -2.18393406       2.52377200
H       -1.83542404      -2.26937473       1.61662666       0.96193892       0.31210165       0.04494607
H       -3.67939851       0.34559381       2.74858657       0.60911565       0.69275980       0.51313332
H       -3.45689007      -0.73777748       1.53305999      -0.17855323      -1.00611031      -0.86490501
H        0.66737893      -0.39264239       1.70409838      -0.24594111       1.04747842       0.49296307
H        0.38933581      -1.52706922       0.54300899      -0.86985666      -0.01533282      -0.34932143
H       -1.56056794       1.48116874       1.92096726       0.89191299       1.21794307       0.78735704
H       -2.71094367       1.50596868       0.59434707       0.15083854      -0.24201447      -0.04549121
H        0.17044632       0.02431565      -1.27694102       0.23674827      -0.63508876       0.28016213
H       -1.29247973       0.74814879      -1.57349201      -0.05821189       0.51115744       0.43643708
H       -0.24844560       2.37853252       0.37833635       0.89568549       0.07241112       0.71646998
H       -0.15029733       2.63201534      -1.23794897      -0.45033835       1.39031938      -1.44579917
