20
Properties=species:S:1:pos:R:3:forces:R:3 id=26019 bond=C-N smiles="[H:14]/[C:7](=[C:8]([C:11]([F:4])([F:5])[F:6])/[N:9]([C:12]([H:15])([H:16])[H:17])[C:13]([H:18])([H:19])[H:20])/[C:10]([F:1])([F:2])[F:3]" dataset=PubChem energy=-24140.758162893242 pbc="F F F"
F       -0.24429192       1.18640207       3.42703100       0.08113806      -0.60231506      -0.69681403
F        1.18288920       2.71111928       3.31921693       0.49744217       1.68617798      -0.05940289
F        1.81027887       0.79132353       2.77145143      -0.25866575      -0.46932018      -0.61785997
F       -0.11752822       3.00022899      -1.18321518       1.28114650      -0.56802976      -0.53361179
F       -1.82572986       1.84908472      -1.02098791       0.99954684      -1.57191657       0.77114639
F       -0.22535112       1.02307694      -2.19490794       0.78975480      -0.23956623      -0.01087918
C        0.28480819       1.98377882       1.28585960       0.29242409      -1.49792913      -3.09838556
C        0.27093105       1.12488000       0.19254895       0.46394365      -0.84997675       3.05785128
N        0.78631610      -0.26657713       0.35098892       0.65031541       2.14770393       0.61905988
C        0.78914736       1.64302288       2.65174647      -0.54821915      -0.54721295       1.38778027
C       -0.42743238       1.67324327      -1.07289533      -2.15869581       2.16222621       0.43233818
C       -0.12542390      -1.35261983       0.46453756       0.06276520      -0.73662751      -3.97217168
C        2.14876932      -0.62571627      -0.06663755       0.00086199       2.10262028      -1.70854721
H       -0.05128225       3.01476417       1.16313113      -0.00012605      -0.43529613       0.19109450
H       -0.99893850      -0.95460540      -0.02742562      -1.02626815      -0.67295648       0.26191833
H       -0.32272583      -1.79915101       1.38299247      -0.24542566      -0.15213769       2.02339828
H        0.23343176      -2.23020488      -0.20813552      -0.63097194       1.39902758       0.88343844
H        2.16053039      -0.32837564      -1.20472614       0.85352173      -0.77863972       1.93812632
H        2.25744170      -1.70832497       0.03241863       0.10340889       0.40393209       0.00423298
H        2.97011143      -0.07730925       0.51207015      -1.21172978      -0.78422288      -0.86396642
