20
Properties=species:S:1:pos:R:3:forces:R:3 id=26019 bond=C-N smiles="[H:14]/[C:7](=[C:8]([C:11]([F:4])([F:5])[F:6])/[N:9]([C:12]([H:15])([H:16])[H:17])[C:13]([H:18])([H:19])[H:20])/[C:10]([F:1])([F:2])[F:3]" dataset=PubChem energy=-24140.58920787072 pbc="F F F"
F       -0.20583034       1.08256198       3.43885488       0.07318992      -0.65589679      -0.61817719
F        1.22135078       2.60727919       3.33104081       0.51406469       1.65667247      -0.02081648
F        1.84874045       0.68748344       2.78327531      -0.18567429      -0.58357891      -0.58306499
F       -0.07906664       2.89638890      -1.17139130       1.25922859      -0.48413089      -0.62142445
F       -1.78726828       1.74524463      -1.00916403       0.88555103      -1.54442294       0.70144297
F       -0.18688954       0.91923685      -2.18308406       0.79984355      -0.32477906      -0.12855783
C        0.32326977       1.87993873       1.29768348       0.01503587      -0.44379383      -2.98880455
C        0.30939263       1.02103991       0.20437283      -2.36306231       7.16302348       2.76774542
N        0.74785452      -0.16273704       0.33916504       3.78829047      -6.56115285       1.02286197
C        0.82760894       1.53918279       2.66357035      -0.69669136      -0.35605422       1.16841537
C       -0.38897080       1.56940318      -1.06107145      -2.38359736       2.67114419       0.40122469
C       -0.16388548      -1.24877974       0.45271368       0.13821522      -1.30321476      -4.00313983
C        2.11030774      -0.52187618      -0.07846143       0.31603065       1.59004108      -1.66804625
H       -0.01282067       2.91092408       1.17495501       0.05389346      -0.37492411       0.29586150
H       -1.03740008      -0.85076531      -0.03924950      -1.02336599      -0.64892823       0.26685941
H       -0.36118741      -1.69531092       1.37116859      -0.23831313      -0.11046881       2.01783527
H        0.19497018      -2.12636479      -0.21995940      -0.64930895       1.40726433       0.91984983
H        2.12206881      -0.22453555      -1.21655002       0.79791687      -0.75089151       1.95982283
H        2.21898012      -1.60448488       0.02059475       0.15979609       0.41559342      -0.01918472
H        2.93164985       0.02653084       0.50024627      -1.26562973      -0.76435906      -0.86028774
