20
Properties=species:S:1:pos:R:3:forces:R:3 id=26019 bond=C-N smiles="[H:14]/[C:7](=[C:8]([C:11]([F:4])([F:5])[F:6])/[N:9]([C:12]([H:15])([H:16])[H:17])[C:13]([H:18])([H:19])[H:20])/[C:10]([F:1])([F:2])[F:3]" dataset=PubChem energy=-24136.712643838295 pbc="F F F"
F       -0.37890741       1.54984236       3.38564743       0.08652089      -0.56305887      -0.72050333
F        1.04827371       3.07455957       3.27783336       0.49269360       1.73632015      -0.06046965
F        1.67566338       1.15476382       2.73006786      -0.36545587      -0.42572877      -0.75883945
F       -0.25214371       3.36366928      -1.22459875       1.34330234      -0.56568087      -0.50247653
F       -1.96034535       2.21252501      -1.06237148       1.07047566      -1.59488282       0.81589829
F       -0.35996661       1.38651723      -2.23629151       0.76281643      -0.13868482       0.05242693
C        0.15019270       2.34721911       1.24447603       0.66088009      -2.78271042      -2.98042707
C        0.13631556       1.48832029       0.15116538       0.02735137      -0.23930909       2.00397193
N        0.92093159      -0.63001742       0.39237249       1.10109161       1.73188829       2.77274808
C        0.65453187       2.00646317       2.61036290      -0.43557830      -0.64949046       1.57421469
C       -0.56204787       2.03668356      -1.11427890      -2.08886503       1.75137149       0.41131523
C        0.00919159      -1.71606012       0.50592113       0.04905435      -0.12147317      -4.57737294
C        2.28338481      -0.98915656      -0.02525398      -0.32529483       2.88205760      -2.21280618
H       -0.18589774       3.37820446       1.12174756      -0.06894966      -0.42219265       0.04184924
H       -0.86432301      -1.31804569       0.01395795      -0.96596951      -0.62093130       0.23252793
H       -0.18811034      -2.16259130       1.42437604      -0.21485509       0.02721338       2.13962799
H        0.36804725      -2.59364517      -0.16675195      -0.65283907       1.27420626       0.73232619
H        2.29514588      -0.69181593      -1.16334257       0.88774988      -0.84173049       1.90974948
H        2.39205719      -2.07176526       0.07380220      -0.10459959       0.25814335      -0.01873494
H        3.10472692      -0.44074954       0.55345372      -1.26075776      -0.70626845      -0.85359676
