18
Properties=species:S:1:pos:R:3:forces:R:3 id=41644 bond=C-N smiles="[C:17]1([C:15]([O:12][C:16]([C:18]([N:13]1[C:14]([F:1])([F:2])[F:3])([F:10])[F:11])([F:6])[F:7])([F:4])[F:5])([F:8])[F:9]" dataset=PubChem energy=-38625.36060956506 pbc="F F F"
F       -0.78975839       1.01133255      -3.02315076       0.45353457      -0.23040244       2.10958155
F        0.80856066      -0.40609380      -3.05621059      -0.97440643       0.87378191       2.52962841
F       -1.09609516      -0.96439311      -2.13366182       1.55016899       2.04304549       1.02026096
F        2.79170846      -0.58178710       3.08590531       0.25227132      -1.46243743       0.41788690
F        2.68175983       1.47776658       2.64340794      -1.23241962      -0.78444427      -0.36965476
F       -0.24305975       2.15866066       3.62886942      -1.40388158      -0.13548724      -0.65317335
F       -1.25903297       0.30876333       2.67780781      -0.79560627       1.24749039       0.84626366
F        2.80249190       0.42904493       0.37488860       1.06260589      -0.16382606      -0.75958318
F        1.62795048      -1.38057970       0.73182815       0.45567793       0.89360359       0.75238361
F       -1.34810901       1.92039359       0.81755966       1.83019974       0.34870158       0.87769234
F        0.71174792       2.82084609       1.17695958      -1.42136311      -1.10971346       0.68426234
O        0.76870197       0.30549265       3.26302493       2.64678241       0.06917682      -1.59046169
N        0.46936389       0.58383309       0.40654004       0.26515410      -0.68636101       2.95489689
C       -0.23425515       0.05013484      -2.30413683      -0.28713010      -2.03022281      -3.76396910
C        2.00111973       0.27588744       2.53093278      -1.42494761       1.57380247       0.39523134
C       -0.20538032       1.14810572       2.74180424       0.88755488      -1.39002768       0.88065479
C        1.74134969      -0.04349791       1.00301856      -2.47818168       1.03640917      -1.84160068
C       -0.05776805       1.65985895       1.30138995       0.61784885      -0.10275824      -4.51310959
