18
Properties=species:S:1:pos:R:3:forces:R:3 id=41644 bond=C-N smiles="[C:17]1([C:15]([O:12][C:16]([C:18]([N:13]1[C:14]([F:1])([F:2])[F:3])([F:10])[F:11])([F:6])[F:7])([F:4])[F:5])([F:8])[F:9]" dataset=PubChem energy=-38626.24526023159 pbc="F F F"
F       -0.74853071       1.04260393      -2.86432204       0.53740552      -0.27944183       2.21849691
F        0.84978834      -0.37482242      -2.89738187      -1.03469556       0.93914578       2.60740528
F       -1.05486748      -0.93312173      -1.97483310       1.58330592       2.09730936       0.89862756
F        2.75048078      -0.61305848       2.92707659       0.22764379      -1.45307720       0.35953389
F        2.64053215       1.44649520       2.48457922      -1.22742152      -0.79722925      -0.37213280
F       -0.28428743       2.12738928       3.47004070      -1.40431816      -0.13868943      -0.66684600
F       -1.30026065       0.27749195       2.51897909      -0.77799099       1.27499133       0.84696916
F        2.76126422       0.39777355       0.21605988       1.10621853      -0.21119642      -0.70795928
F        1.58672280      -1.41185108       0.57299943       0.54846553       0.81600579       0.75689921
F       -1.38933669       1.88912221       0.65873094       1.79169606       0.38440519       0.87786498
F        0.67052024       2.78957471       1.01813086      -1.44266840      -1.13442576       0.70634801
O        0.72747429       0.27422127       3.10419621       2.66742841       0.05173924      -1.58678715
N        0.42813621       0.55256171       0.24771132       0.40473813      -0.53664632       2.50473062
C       -0.19302747       0.08140622      -2.14530811      -0.13156888      -1.95798369      -2.75284168
C        1.95989205       0.24461606       2.37210406      -1.50035303       1.67433841       0.45921517
C       -0.24660800       1.11683434       2.58297552       0.91510028      -1.42275963       0.86621917
C        1.70012201      -0.07476929       0.84418984      -2.64921351       0.84864813      -2.24306454
C       -0.09899573       1.62858757       1.14256123       0.39167050      -0.16606011      -4.79468669
