18
Properties=species:S:1:pos:R:3:forces:R:3 id=41644 bond=C-N smiles="[C:17]1([C:15]([O:12][C:16]([C:18]([N:13]1[C:14]([F:1])([F:2])[F:3])([F:10])[F:11])([F:6])[F:7])([F:4])[F:5])([F:8])[F:9]" dataset=PubChem energy=-38626.31777333446 pbc="F F F"
F       -0.74578220       1.04468869      -2.85373345       0.54018438      -0.28057801       2.21940223
F        0.85253685      -0.37273766      -2.88679328      -1.03638177       0.94096162       2.60645395
F       -1.05211897      -0.93103697      -1.96424451       1.57796565       2.09244364       0.88277240
F        2.74773227      -0.61514324       2.91648800       0.22614150      -1.45242720       0.35647786
F        2.63778364       1.44441044       2.47399063      -1.22725184      -0.79745134      -0.37231723
F       -0.28703594       2.12530452       3.45945211      -1.40440568      -0.13920744      -0.66734827
F       -1.30300916       0.27540719       2.50839050      -0.77694722       1.27598789       0.84622012
F        2.75851571       0.39568879       0.20547129       1.10399641      -0.21224314      -0.70580850
F        1.58397429      -1.41393584       0.56241084       0.55192735       0.81290313       0.75671924
F       -1.39208520       1.88703745       0.64814235       1.79119071       0.38475788       0.87710102
F        0.66777173       2.78748995       1.00754227      -1.44304107      -1.14138524       0.70515185
O        0.72472578       0.27213651       3.09360762       2.66839263       0.05055694      -1.58734437
N        0.42538770       0.55047695       0.23712273       0.42106191      -0.51779345       2.44618827
C       -0.19027896       0.08349098      -2.13471952      -0.11664389      -1.94847502      -2.65943935
C        1.95714354       0.24253130       2.36151547      -1.50289950       1.67845743       0.46179239
C       -0.24935651       1.11474958       2.57238693       0.91623074      -1.42092573       0.86613835
C        1.69737350      -0.07685405       0.83360125      -2.65653426       0.83338866      -2.25546821
C       -0.10174424       1.62650281       1.13197264       0.37258077      -0.16999013      -4.79861185
