16
Properties=species:S:1:pos:R:3:forces:R:3 id=1734 bond=C-N smiles="[H:14][C:7]([H:15])([H:16])[N:4]([H:8])[C:3](=[O:1])[C:6]([H:12])([H:13])[O:2][C:5]([H:9])([H:10])[H:11]" dataset="DES370K Monomers" energy=-9883.43485854181 pbc="F F F"
O       -0.80194617       1.63452447      -0.47752853       0.79040801      -1.75340207       1.87596940
O       -0.21225093      -1.63663732       0.56367905      -1.03210407       0.62521088       1.32286909
C       -0.08203300       0.63387317      -0.09345212     -12.17603281       5.90883024       4.78526258
N        0.88420618       0.37110519      -0.71859832      10.45557231      -5.78060114      -5.54044745
C       -1.33887768      -2.43493056       0.17175122      -0.47646554      -1.65623178       0.96535526
C       -0.57390291      -0.28425696       1.07849760      -0.09907638      -0.09743940      -3.08842821
C        1.31758810       1.12756108      -1.87834079       0.09309779       0.97435426       0.07165116
H        1.21115781      -0.60601819      -0.54706056       0.17853151       1.26783382      -0.47034466
H       -1.46745980      -3.37386154       0.83296551       0.29155871       1.67650221      -0.46566982
H       -1.26708877      -2.90763354      -0.82015340       0.55531891       0.79157555       0.04458448
H       -2.26612771      -1.85892736       0.20309944       0.15803634      -0.08207121       0.00443863
H       -0.21575857       0.05633728       2.02361126       1.19639433      -0.64751437       0.69281076
H       -1.64519179      -0.08304739       1.17959387       0.07510413      -0.59023552      -0.53329677
H        2.36320556       1.00255810      -2.09389610       0.35190580      -0.87865188      -0.06740572
H        0.70969928       1.01434242      -2.79771490       0.15991149      -0.06342579       0.82308351
H        1.30296982       2.15301966      -1.52901347      -0.52398808       0.30868724      -0.42123361
