10
Properties=species:S:1:pos:R:3:forces:R:3 id=42130 bond=C-N smiles="[C:9](/[N:7]=[N:8]/[C:10]([F:4])([F:5])[F:6])([F:1])([F:2])[F:3]" dataset=PubChem energy=-21363.906213231556 pbc="F F F"
F        2.51539186       2.41146539       1.11723618      -0.91610456       0.58904713       0.01936011
F        0.84497664       3.23239373       2.29458426       0.20962639      -1.04364511      -2.61774579
F        0.89596560       3.41366695       0.01315950       0.10026050      -0.58190900       1.72044594
F       -0.61115466      -1.98538059       1.14295310       0.85731047       0.63055857      -1.22783627
F        0.69103862      -2.49812097      -0.57141536      -0.79828774       1.74116136       0.81136351
F       -1.17893444      -1.34868187      -0.87916511       1.84197688       0.06967008       1.11015687
N        0.42908493       1.33725957       0.91376017       2.46858081      -5.17026285      -2.76241067
N        1.08463034       0.34804736       0.35663868      -3.89787435       4.11373660       2.48693782
C        1.18685290       2.64169620       1.08810212       0.90970340      -0.73044838       0.24231773
C       -0.12368040      -1.56144923      -0.03916562      -0.76494801       0.38187017       0.22455354
