10
Properties=species:S:1:pos:R:3:forces:R:3 id=42130 bond=C-N smiles="[C:9](/[N:7]=[N:8]/[C:10]([F:4])([F:5])[F:6])([F:1])([F:2])[F:3]" dataset=PubChem energy=-21366.395528615958 pbc="F F F"
F        2.26317166       2.01288115       1.03461684      -0.95750476       0.56696596       0.00822989
F        0.59275644       2.83380949       2.21196492       0.15146988      -1.10053598      -2.64494778
F        0.64374540       3.01508271      -0.06945984       0.03031810      -0.63961713       1.70095933
F       -0.35893446      -1.58679635       1.22557244      -0.00201856      -0.74588220      -0.45041300
F        0.94325882      -2.09953673      -0.48879602      -0.89124806       0.60780160       0.39087181
F       -0.92671424      -0.95009763      -0.79654577       1.03959736      -0.38747412       0.47736004
N        0.17686473       0.93867533       0.83114083       1.27029337      -3.21763232      -1.85009580
N        0.83241014      -0.05053688       0.27401934       1.36702825       9.16380140       2.42139309
C        0.93463270       2.24311196       1.00548278       1.23005861      -0.96066009       0.20864247
C        0.12853980      -1.16286499       0.04345372      -3.24030482      -3.28857731      -0.25993692
