42
Properties=species:S:1:pos:R:3:forces:R:3 id=15251 bond=N-O smiles="[H:24][c:7]1[c:6]([c:8]([c:10]([c:11]([c:9]1[H:26])[N:12]([H:27])[C:14]([H:30])([H:31])[C:19]([H:40])([C:13]([H:28])([H:29])[O:3][N:2]=[C:5]([C:20]2([C:15]([C:16]2([H:34])[H:35])([H:32])[H:33])[H:41])[C:21]3([C:17]([C:18]3([H:38])[H:39])([H:36])[H:37])[H:42])[O:4][H:22])[I:1])[H:25])[H:23]" dataset=PubChem energy=-32120.787775380006 pbc="F F F"
I        4.06394114       0.46282941      -3.17714528      -1.10462436      -1.56954383       1.45691169
N       -0.93655047       2.39673058       1.39083763       1.17040085      -0.59206518       0.28147233
O        0.35632997       3.50592148       0.93122726      -0.78482232      -1.99435418       1.39290064
O        2.24456014       2.48089027      -1.14227763      -0.80209883      -0.17834767       0.47971366
C       -0.63453922       1.41550402       2.23866196       3.07683422       3.69094880      -2.60177814
C        2.68506851      -2.57140601      -0.05523131      -0.11692927      -0.09550488       0.06886262
C        1.29863330      -2.43970358       0.02417540       0.29281482       0.26292867       0.54553142
C        3.44857325      -1.88640296      -0.98542014      -0.76609061       1.31821304      -0.43404013
C        0.66424417      -1.46523082      -0.76640061       0.00050288      -0.61110924       0.29138237
C        2.85601582      -0.86697268      -1.72004393      -0.45154911       0.49726542      -0.60969000
C        1.44317933      -0.61567760      -1.56908944       1.13932402      -0.21872196       0.00285165
N        0.86489911       0.46404293      -2.16899255      -1.12320550       1.31782282      -2.73431092
C        0.40334203       3.92320358      -0.44778017       0.09167472      -1.29847878       0.92163758
C        0.05698492       1.49471438      -1.39130381       3.32049111       1.55900139      -4.53769969
C        1.93138554       0.37790837       2.09921999      -2.31242823       1.30262274       2.93372029
C        1.27284994       0.05314817       3.47656234       0.90747010       0.98868036       0.07237471
C       -2.48828444      -0.41176500       1.83754130      -1.37217967      -1.36118583       0.31117532
C       -3.13142142       0.80480928       2.41669353      -0.61476413       0.99240764       1.85015996
C        0.88933313       2.82027518      -1.41566471      -0.10892727       0.44265531       0.25920456
C        0.82860588       1.30080603       2.78790124      -1.27311908      -2.02424071      -1.81780925
C       -1.67767725       0.48119775       2.68141158       0.86027634       0.61667813       1.96825628
H        2.09211220       1.69546687      -0.59578315       1.03364221       0.37703488      -0.01990864
H        3.28629889      -3.13047421       0.64036119      -0.43754232      -0.60237805       0.17949097
H        0.79843331      -3.03080189       0.81347563      -0.02213726       0.47386933      -0.83614564
H        4.49442806      -2.05490529      -1.00068775       0.73912938      -0.04367412      -0.22128835
H       -0.43952820      -1.34228742      -0.81314448       1.05554449      -0.05876506       0.25303878
H        1.28066595       0.65231019      -3.15213946      -1.18195151       0.27144361       2.74472682
H       -0.57483182       4.26655042      -0.71991173      -0.58324947       0.36842298      -0.44183664
H        1.14533260       4.77110016      -0.48940006      -0.78367883      -0.89015761       0.29410382
H        0.00325348       1.15479216      -0.46747199      -0.15324872      -1.55848089       4.26349792
H       -0.91307316       1.76376688      -1.68742970      -1.40091883      -0.39698518      -1.03543769
H        1.72592034      -0.07748569       1.17267765      -0.54518064      -0.91411327      -0.41366461
H        2.88527479       0.78445922       2.18716236       1.38450104       0.63339346      -0.08517003
H        1.76827660       0.43325679       4.40496906       0.15353740      -1.36151191      -0.94747451
H        0.64389228      -0.81182952       3.59962471      -0.14578155       0.02989218      -0.12623966
H       -2.36569891      -0.59315296       0.77466031       0.18738628       0.48137207       0.21558675
H       -2.80204640      -1.30343743       2.40071293       0.32333132       0.22506989      -0.63784774
H       -3.73436079       0.75176464       3.38819702       0.61082098      -0.28178519      -1.87392989
H       -3.29483566       1.74333827       1.87701233       0.07813234      -0.74769674      -0.12104681
H        0.83254815       3.30589592      -2.40272215       0.14752647      -0.45429717       0.00819350
H        1.26650639       2.15667658       3.21718486      -0.13368502       1.12443264       0.07175409
H       -1.43218670       0.12094088       3.72023232      -0.36048025       0.27295342      -1.36732937
