42
Properties=species:S:1:pos:R:3:forces:R:3 id=15251 bond=N-O smiles="[H:24][c:7]1[c:6]([c:8]([c:10]([c:11]([c:9]1[H:26])[N:12]([H:27])[C:14]([H:30])([H:31])[C:19]([H:40])([C:13]([H:28])([H:29])[O:3][N:2]=[C:5]([C:20]2([C:15]([C:16]2([H:34])[H:35])([H:32])[H:33])[H:41])[C:21]3([C:17]([C:18]3([H:38])[H:39])([H:36])[H:37])[H:42])[O:4][H:22])[I:1])[H:25])[H:23]" dataset=PubChem energy=-32118.964439755244 pbc="F F F"
I        4.25407062       0.62594572      -3.24473505      -1.10806366      -1.57330379       1.46103044
N       -1.12667995       2.23361427       1.45842740       1.47147742      -1.84702783       1.60512132
O        0.54645945       3.66903779       0.86363749      -0.64310875      -1.05820382      -0.09986975
O        2.43468962       2.64400658      -1.20986740      -0.78238784      -0.21938618       0.46017284
C       -0.82466870       1.25238771       2.30625173       2.31745366       3.91534469      -3.08544429
C        2.87519799      -2.40828970      -0.12282108      -0.13912643      -0.12003127       0.07769690
C        1.48876278      -2.27658727      -0.04341437       0.31502438       0.16553637       0.44238930
C        3.63870273      -1.72328665      -1.05300991      -0.77371942       1.33878056      -0.44584198
C        0.85437365      -1.30211451      -0.83399038      -0.01235780      -0.65477531       0.22480723
C        3.04614530      -0.70385637      -1.78763370      -0.42305200       0.48460522      -0.61777652
C        1.63330881      -0.45256129      -1.63667921       1.10507267      -0.17166320      -0.01730676
N        1.05502859       0.62715924      -2.23658232      -1.10115913       1.25816717      -2.71554560
C        0.59347151       4.08631989      -0.51536994       0.25220921      -1.49213826       1.67656415
C        0.24711440       1.65783069      -1.45889358       3.28898412       1.62460958      -4.49486875
C        1.74125606       0.21479206       2.16680976      -2.37949644       1.31268684       2.96195897
C        1.08272046      -0.10996814       3.54415211       0.88219963       0.94393339       0.06121436
C       -2.67841392      -0.57488131       1.90513107      -1.39007524      -1.32398562       0.27685636
C       -3.32155090       0.64169297       2.48428330      -0.62546648       0.97696645       1.82817483
C        1.07946261       2.98339149      -1.48325448      -0.07192081       0.46975602       0.20187049
C        0.63847640       1.13768972       2.85549101      -0.99156122      -1.91251202      -1.82017822
C       -1.86780673       0.31808144       2.74900135       0.81291346       0.42597134       2.08014446
H        2.28224168       1.85858318      -0.66337292       1.02091821       0.39826088      -0.00973188
H        3.47642837      -2.96735790       0.57277142      -0.43758090      -0.60386266       0.18159872
H        0.98856279      -2.86768558       0.74588586      -0.01866456       0.47468294      -0.82765629
H        4.68455754      -1.89178898      -1.06827752       0.73951665      -0.04407079      -0.22220482
H       -0.24939872      -1.17917111      -0.88073425       1.04658548      -0.05081702       0.25589713
H        1.47079543       0.81542650      -3.21972923      -1.17440720       0.27579417       2.75101624
H       -0.38470234       4.42966673      -0.78750150      -0.59642675       0.44569549      -0.46125387
H        1.33546208       4.93421647      -0.55698983      -0.68454564      -0.74661166       0.16847443
H        0.19338296       1.31790847      -0.53506176      -0.15645111      -1.53200393       4.34205897
H       -0.72294368       1.92688319      -1.75501947      -1.39850332      -0.39748500      -1.04831043
H        1.53579086      -0.24060200       1.24026742      -0.53177551      -0.79266123      -0.30848357
H        2.69514531       0.62134291       2.25475213       1.37747345       0.65884604      -0.07764330
H        1.57814712       0.27014048       4.47255883       0.12112125      -1.34114321      -0.94202185
H        0.45376280      -0.97494583       3.66721448      -0.14021505       0.02030616      -0.11763135
H       -2.55582839      -0.75626927       0.84225008       0.19268534       0.47615695       0.21632542
H       -2.99217588      -1.46655374       2.46830270       0.33599269       0.23751975      -0.62230895
H       -3.92449027       0.58864833       3.45578679       0.61804923      -0.26618663      -1.88179392
H       -3.48496514       1.58022196       1.94460210       0.03856523      -0.74155079      -0.12357394
H        1.02267763       3.46901223      -2.47031192       0.15304633      -0.47457861      -0.01155945
H        1.07637691       1.99356027       3.28477463      -0.18314786       1.16271928       0.03884144
H       -1.62231618      -0.04217543       3.78782209      -0.33168828       0.28889800      -1.35986528
