42
Properties=species:S:1:pos:R:3:forces:R:3 id=15251 bond=N-O smiles="[H:24][c:7]1[c:6]([c:8]([c:10]([c:11]([c:9]1[H:26])[N:12]([H:27])[C:14]([H:30])([H:31])[C:19]([H:40])([C:13]([H:28])([H:29])[O:3][N:2]=[C:5]([C:20]2([C:15]([C:16]2([H:34])[H:35])([H:32])[H:33])[H:41])[C:21]3([C:17]([C:18]3([H:38])[H:39])([H:36])[H:37])[H:42])[O:4][H:22])[I:1])[H:25])[H:23]" dataset=PubChem energy=-32112.586061520713 pbc="F F F"
I        3.75973398       0.20184331      -3.06900167      -1.08929098      -1.55338640       1.44103807
N       -0.63234331       2.65771668       1.28269402     -48.62372273     -44.48825423      19.41523786
O        0.05212281       3.24493538       1.03937087      50.30560073      43.10259039     -19.13241445
O        1.94035298       2.21990417      -1.03413402      -0.94888929       0.02484656       0.47509262
C       -0.33033206       1.67649012       2.13051835       0.61215930      -0.44608481       0.73771383
C        2.38086135      -2.83239211       0.05291230      -0.09970250      -0.04774898       0.03855100
C        0.99442614      -2.70068968       0.13231901       0.29580889       0.32944649       0.59755857
C        3.14436609      -2.14738906      -0.87727653      -0.74199302       1.28904630      -0.43272821
C        0.36003701      -1.72621692      -0.65825700       0.03761616      -0.55119486       0.27194103
C        2.55180866      -1.12795878      -1.61190032      -0.51756087       0.50283842      -0.57545930
C        1.13897217      -0.87666370      -1.46094583       1.24070314      -0.39781909       0.14170002
N        0.56069195       0.20305683      -2.06084894      -1.20837541       1.56473124      -2.77965455
C        0.09913487       3.66221748      -0.33963656       1.66880782       2.33025681      -1.84027127
C       -0.24722224       1.23372828      -1.28316020       3.28414885       1.28658562      -4.60505031
C        2.23559270       0.63889447       1.99107638      -2.04434098       1.38160122       2.90893091
C        1.57705710       0.31413427       3.36841873       0.79001855       1.10388143       0.00286872
C       -2.18407728      -0.15077890       1.72939769      -1.14707166      -1.65751381       0.43340040
C       -2.82721426       1.06579538       2.30854992      -0.54082984       1.06199820       2.11245215
C        0.58512597       2.55928908      -1.30752110       0.06104062      -0.04393198       0.67541101
C        1.13281304       1.56179213       2.67975763      -1.69344089      -1.52565833      -2.10958028
C       -1.37347009       0.74218385       2.57326797       0.83390133       0.64082776       1.89213568
H        1.78790504       1.43448077      -0.48763954       1.07879073       0.30500801      -0.06485156
H        2.98209173      -3.39146031       0.74850480      -0.43529783      -0.59918353       0.17539503
H        0.49422615      -3.29178799       0.92161924      -0.02822582       0.48306311      -0.84831686
H        4.19022090      -2.31589139      -0.89254414       0.73769952      -0.04311466      -0.21948921
H       -0.74373536      -1.60327352      -0.70500087       1.08305802      -0.08006477       0.25983116
H        0.97645879       0.39132409      -3.04399585      -1.20347844       0.25235666       2.71334156
H       -0.87903898       4.00556432      -0.61176812      -0.76882537       0.14723222      -0.01915566
H        0.84112544       4.51011406      -0.38125645      -0.82113735      -0.94576665       0.03545408
H       -0.30095368       0.89380606      -0.35932838      -0.17984196      -1.62099508       4.23704560
H       -1.21728032       1.50278078      -1.57928609      -1.41384815      -0.38914202      -1.02602798
H        2.03012750       0.18350041       1.06453404      -0.55336654      -1.05888202      -0.43729291
H        3.18948195       1.04544532       2.07901875       1.45607088       0.51711768      -0.11516136
H        2.07248376       0.69424289       4.29682545       0.17959805      -1.36568343      -0.96025458
H        0.94809944      -0.55084342       3.49148110      -0.16209705       0.06413380      -0.13604921
H       -2.06149175      -0.33216686       0.66651670       0.11160066       0.44945283       0.21611668
H       -2.49783924      -1.04245133       2.29256932       0.19921793       0.15132633      -0.69433960
H       -3.43015363       1.01275074       3.28005341       0.50603794      -0.29318116      -1.87937707
H       -2.99062850       2.00432437       1.76886872       0.09274845      -0.75521177      -0.09531422
H        0.52834099       3.04490982      -2.29457854       0.06773498      -0.31635711       0.16827706
H        1.57071355       2.41766268       3.10904125       0.15237623       1.03625011       0.29779278
H       -1.12797954       0.38192698       3.61208871      -0.57369187       0.15284156      -1.27396762
