42
Properties=species:S:1:pos:R:3:forces:R:3 id=15251 bond=N-O smiles="[H:24][c:7]1[c:6]([c:8]([c:10]([c:11]([c:9]1[H:26])[N:12]([H:27])[C:14]([H:30])([H:31])[C:19]([H:40])([C:13]([H:28])([H:29])[O:3][N:2]=[C:5]([C:20]2([C:15]([C:16]2([H:34])[H:35])([H:32])[H:33])[H:41])[C:21]3([C:17]([C:18]3([H:38])[H:39])([H:36])[H:37])[H:42])[O:4][H:22])[I:1])[H:25])[H:23]" dataset=PubChem energy=-32120.299588185524 pbc="F F F"
I        4.10957221       0.50197732      -3.19336683      -1.10583797      -1.57102886       1.45800598
N       -0.98218154       2.35758267       1.40705918       1.26016029      -0.83609733       0.57162984
O        0.40196104       3.54506939       0.91500571      -0.81014315      -1.81118063       1.07093483
O        2.29019121       2.52003818      -1.15849918      -0.79491563      -0.19168958       0.47549747
C       -0.68017029       1.37635611       2.25488351       2.97730411       3.75704286      -2.71899307
C        2.73069958      -2.53225810      -0.07145286      -0.12188442      -0.10200669       0.07107516
C        1.34426437      -2.40055567       0.00795385       0.29476486       0.24235858       0.52521429
C        3.49420432      -1.84725505      -1.00164169      -0.76823029       1.32266114      -0.43569379
C        0.70987524      -1.42608291      -0.78262216      -0.00431970      -0.62357193       0.27886608
C        2.90164689      -0.82782477      -1.73626548      -0.44507726       0.49528005      -0.61185259
C        1.48881040      -0.57652969      -1.58531099       1.13037015      -0.20525029      -0.00437301
N        0.91053018       0.50319084      -2.18521410      -1.11744064       1.30083409      -2.72880049
C        0.44897310       3.96235149      -0.46400172       0.09613665      -1.39526782       1.10446837
C        0.10261599       1.53386229      -1.40752536       3.31354134       1.58003705      -4.52582428
C        1.88575447       0.33876046       2.11544154      -2.32780272       1.30375421       2.93625586
C        1.22721887       0.01400026       3.49278389       0.90369752       0.97823647       0.07056094
C       -2.53391551      -0.45091291       1.85376285      -1.37795856      -1.34850833       0.30041614
C       -3.17705249       0.76566137       2.43291508      -0.62133914       0.98764967       1.84159361
C        0.93496420       2.85942309      -1.43188626      -0.10372286       0.45958279       0.23987409
C        0.78297481       1.26165812       2.80412279      -1.20693210      -2.00776588      -1.81704716
C       -1.72330832       0.44204984       2.69763313       0.84158538       0.57441356       1.99100413
H        2.13774327       1.73461478      -0.61200470       1.02950369       0.38283725      -0.01631228
H        3.33192996      -3.09132630       0.62413964      -0.43764205      -0.60263290       0.18003661
H        0.84406438      -2.99165398       0.79725408      -0.02123409       0.47421868      -0.83390815
H        4.54005913      -2.01575738      -1.01690930       0.73923840      -0.04372593      -0.22152686
H       -0.39389713      -1.30313951      -0.82936603       1.05272153      -0.05623660       0.25391547
H        1.32629702       0.69145810      -3.16836101      -1.18002690       0.27289378       2.74675957
H       -0.52920075       4.30569833      -0.73613328      -0.58304663       0.39029715      -0.45526447
H        1.19096367       4.81024807      -0.50562161      -0.75589231      -0.85186494       0.27527199
H        0.04888455       1.19394007      -0.48369354      -0.15212428      -1.54990481       4.28344070
H       -0.86744209       1.80291479      -1.70365125      -1.39994134      -0.39716450      -1.03890164
H        1.68028927      -0.11663360       1.18889920      -0.54151050      -0.88589726      -0.39203108
H        2.83964372       0.74531131       2.20338391       1.38177216       0.64156171      -0.08132626
H        1.72264553       0.39410888       4.42119061       0.14612608      -1.35753424      -0.94610542
H        0.59826121      -0.85097743       3.61584626      -0.14459895       0.02709803      -0.12395601
H       -2.41132998      -0.63230087       0.79088186       0.18971088       0.48013073       0.21575813
H       -2.84767747      -1.34258534       2.41693448       0.32779295       0.22942405      -0.63274465
H       -3.77999186       0.71261673       3.40441857       0.61365906      -0.27713030      -1.87622617
H       -3.34046673       1.70419036       1.89323388       0.06634173      -0.74636405      -0.12177139
H        0.87817922       3.34504383      -2.41894370       0.15026059      -0.46188232       0.00075970
H        1.22087532       2.11752867       3.23340641      -0.14980621       1.13431890       0.06047121
H       -1.47781777       0.08179297       3.73645387      -0.34972632       0.28058666      -1.36660123
