16
Properties=species:S:1:pos:R:3:forces:R:3 id=38005 bond=C-S smiles="[H:10][C:4]([H:11])([H:12])[C:6]([H:15])([C:7]([H:16])([C:5]([H:13])([H:14])[Cl:1])[S:3][H:9])[S:2][H:8]" dataset=PubChem energy=-38471.85241307207 pbc="F F F"
Cl       3.49428885      -0.06675979      -0.51473286      -0.40432081       0.26001553       0.12206901
S       -0.10732329       1.91459967       1.27304501      15.25136421     114.00770353      38.60315944
S        1.79432337       0.01517955       2.60424420      -0.32855017      -0.19983234      -0.09501202
C       -0.92188866       0.97789887      -0.43369510      -0.60984158      -1.97919066      -2.74414207
C        2.15910225       1.02525979       0.01197717      -0.69010714       0.20730007      -0.14994028
C       -0.27670021       0.91597590       0.92954901     -16.45242366    -105.13400096     -36.88504884
C        1.13055955       0.25630895       0.88274946       1.50793851      -5.56477317      -1.13482422
H        0.22896643       1.73086132       2.52201659       0.64936523       1.05361590       1.47242007
H        0.61806719       0.03048882       3.32668826       0.69333759      -0.17050611      -0.72475662
H       -1.00637729      -0.02706429      -0.88155904       0.12654177       0.42355029       0.13048410
H       -0.36659254       1.62752751      -1.12341001       0.04022663      -0.20464244       0.39512608
H       -1.91338713       1.40833822      -0.37776866      -0.09177963       0.00391531       0.42737389
H        1.65489452       1.44436803      -0.89531567       0.61508305      -0.50254264       0.81988961
H        2.61014192       1.84612754       0.56512105      -0.02331846      -0.20124273      -0.17039204
H       -0.93129046       0.32335642       1.54676894      -0.77256186      -2.45604779      -0.24820053
H        1.00950064      -0.77281102       0.46991931       0.48043921       0.45267338       0.17839348
