39
Properties=species:S:1:pos:R:3:forces:R:3 id=22310 bond=C-N smiles="[H:16][C:6]([H:17])([H:18])[C:3]1=[C:4]([N:5]([N:1]=[C:2]1[C:14]([C:8]([H:22])([H:23])[H:24])([C:9]([H:25])([H:26])[H:27])[C:10]([H:28])([H:29])[H:30])[C:7]([H:19])([H:20])[H:21])[C:15]([C:11]([H:31])([H:32])[H:33])([C:12]([H:34])([H:35])[H:36])[C:13]([H:37])([H:38])[H:39]" dataset=PubChem energy=-16863.686369384013 pbc="F F F"
N       -0.89139644       1.40792404      -0.13734125       0.11948024      -0.74161667       0.84122149
C       -0.39393929       0.19488127      -0.35902267       0.85843810       0.76604489       1.01485317
C        0.77672535      -0.00992980       0.52505997      -1.03321958       0.95217383      -1.44380421
C        0.95043674       1.19898961       1.21597267      -0.65623723      -1.33264517      -0.00610902
N       -0.16792271       1.96345327       0.86430068       1.00368116      -0.08293016      -0.44465313
C        1.56993850      -1.27805688       0.51963439       0.02005725      -0.40705561       1.06088111
C       -0.70917873       3.14750868       1.49752179       0.23442091      -0.35825411       1.12655459
C       -2.33549085      -0.00564744      -1.96990811       0.31396551       0.42162901      -0.10025868
C       -1.46369043      -2.05601551      -0.72643327      -0.44879252       0.94899094      -0.27217164
C       -0.11896613      -0.87556245      -2.61548435      -0.32580833      -0.25360402      -0.10535793
C        3.48695096       1.34197400       1.44204796       0.25935427      -0.58701733       0.27247102
C        2.11688563       2.97645209       2.68811716      -0.78354589      -0.40143954      -0.51571399
C        2.13105389       0.68129929       3.45679463      -1.05839809      -0.49531282      -0.07619450
C       -1.06570319      -0.70290436      -1.41405736      -0.47099277       0.28985868       0.41773249
C        2.15021762       1.52265976       2.17338265      -0.66386850       0.79009326       0.42736165
H        2.45117172      -1.26392867       1.16791041      -0.26144953       0.20622393      -0.03737428
H        1.94713589      -1.52983882      -0.46401392      -0.21487937      -0.19126531      -0.20024318
H        0.92807015      -2.08949997       0.93028189       0.50353654       0.34710813      -0.56127709
H       -0.12902759       4.02668911       1.30076161       0.16601668       0.47378890      -0.26380168
H       -0.71666567       2.99256259       2.57834807       0.19783445       0.02636736      -0.05731608
H       -1.74979071       3.30337173       1.27552424      -0.15185838      -0.17328407      -0.74939860
H       -2.92710892      -0.67143371      -2.59139763       0.19800711      -0.28659383      -0.10730059
H       -2.99467340       0.36937204      -1.20451485      -0.07416471      -0.00873839       0.45072579
H       -2.07560936       0.87083266      -2.58262693       0.05401300      -0.33056278       0.22221456
H       -0.58749512      -2.66236951      -0.64718150       0.37812244      -0.59183958       0.11330962
H       -2.24578467      -2.58127691      -1.28264260       0.32713443       0.04786499      -0.17041052
H       -1.88102117      -1.89743640       0.27927555       0.27238081       0.14550356      -0.32308197
H       -0.63581744      -1.39214553      -3.44440852       0.20355008       0.37525684       0.30096007
H        0.74486900      -1.46767523      -2.37241446       0.38171829      -0.31837578       0.20641593
H        0.25537631       0.10300673      -2.93526064      -0.29414135      -0.21399902      -0.08950637
H        4.31014212       1.21629737       2.18016196      -0.54179897       0.11243507      -0.52771013
H        3.47560819       0.49184537       0.76782344       0.07486988      -0.16641331       0.19828518
H        3.71301803       2.18170879       0.81360901       0.06640166       0.59167116      -0.19607123
H        1.27455351       3.17073581       3.36501993       0.24899701      -0.08723802      -0.32631158
H        2.06215176       3.62895725       1.82441641       0.13747878       0.43978470       0.14536192
H        3.01406106       3.12966654       3.25090445       0.58939464       0.33240550       0.17083194
H        1.20728722       0.91900907       4.01274121       0.45563287      -0.18397521      -0.09054488
H        2.99051365       0.80430673       4.11541403       0.02842346       0.47021235      -0.22343571
H        2.10057017      -0.36774113       3.22202266      -0.11231440      -0.52179322      -0.07800534
