43
Properties=species:S:1:pos:R:3:forces:R:3 id=30975 bond=C-N smiles="[H:29][c:9]1[c:8]([c:11]([c:16]([c:17]([c:12]1[H:32])[C:21]([H:36])([H:37])[H:38])[N:20]([C:23]([H:39])([H:40])[c:19]2[c:14]([c:10]([c:13]([c:18]([c:15]2[H:35])[C:22]([F:1])([F:2])[F:3])[H:33])[H:30])[H:34])[C:25]([H:41])([H:42])[C:26]([H:43])([C:24]([F:4])([F:5])[F:6])[O:7][H:27])[H:31])[H:28]" dataset=PubChem energy=-38805.61839203677 pbc="F F F"
F        0.49913221      -1.43562376      -4.99060882      -0.45246734      -0.45921085       0.94433643
F        0.38277396      -2.93249594      -3.36088384      -0.33480688       0.69878604      -0.41480054
F       -1.00994349      -1.21979272      -3.39137281       0.72106926      -0.59231559      -0.38027999
F        2.12629240       4.93585626       1.71370095      -1.61611442      -0.12467057      -0.22134492
F        0.15564858       5.54109326       0.85849374       0.46995538       0.15982800       0.75496295
F        0.31559348       4.79156533       2.94303578       0.10843362      -0.02912012      -1.13304141
O        0.78437998       2.97577849      -0.23726940       0.21535026       0.47917066      -0.06848315
C       -2.88058872       0.05022738       1.66883153      -0.58654530       0.23071832      -0.52739791
C       -2.99504561      -0.72129329       2.80859059       0.71016293      -0.55961322       0.75496792
C        2.95354651       0.88881070      -2.61185016      -0.06544807      -0.49056795      -0.43339242
C       -1.64865346       0.51992995       1.23427200       0.26151414      -0.12323464       0.29028840
C       -1.82540555      -1.01363381       3.53613704      -0.29774260       0.38368909      -0.94245407
C        2.07200443       0.15613437      -3.43393244      -0.16877746       0.07280510       1.01499991
C        3.03003311       0.63546193      -1.24554099      -0.93197591      -0.10583717      -0.52467858
C        1.28736227      -0.99406182      -1.44219328      -0.35707431      -0.11337574      -0.95904005
C       -0.47239096       0.28517709       1.96797865      -0.27026260      -0.73610523      -0.15194370
C       -0.57668455      -0.49520954       3.11937708      -0.72941232      -0.70988142       1.39188749
C        1.23968898      -0.79228543      -2.84121265       0.70755237       0.24984522       0.89541270
C        2.15263819      -0.27474617      -0.62859262      -0.06897828       0.31099679       0.21748875
N        0.77583726       0.77768006       1.52959496       2.07869960      -1.10279960      -1.62145882
C        0.62202798      -0.80752667       3.98594468       0.08335083      -0.64635584      -0.71170850
C        0.27393239      -1.61140215      -3.65395750       0.04307293       0.48257783      -0.16265936
C        2.11915147      -0.45491295       0.87308265      -1.04647196       2.38988058      -0.39477104
C        0.76614752       4.65615645       1.66514641       1.08697274      -0.72874589      -0.75086396
C        1.15484070       2.12721936       1.97902566       0.70148452      -0.37676014      -0.78141105
C        0.46542380       3.23592321       1.12407410      -0.53087531      -1.91526326       0.11252327
H        0.70020389       2.00389424      -0.40014845       0.08902702       1.05552260       0.74630342
H       -3.78238911       0.26321540       1.08430147       0.46696971      -0.03518463       0.17052751
H       -3.95841307      -1.13972207       3.12546152       0.48012582       0.29700665      -0.17918328
H        3.59870767       1.63527275      -3.07662476      -0.19139674      -0.23688991       0.26154831
H       -1.58775646       1.05296711       0.30365697       0.06641464       0.20806299      -0.17716356
H       -1.89550395      -1.68259319       4.39356726       0.18012469       0.33953180      -0.12320032
H        1.98050522       0.34321865      -4.48867144       0.20851128       0.06908032      -0.11271716
H        3.70016431       1.20239604      -0.64529897       0.42999806       0.32393314       0.36271106
H        0.60736505      -1.73501622      -1.04051770       0.08523938       0.10636055       0.24483369
H        1.18043195      -1.66381892       3.54549974      -0.12603299       0.64259334       0.33087331
H        0.34287093      -1.08978768       4.99708145      -0.16297419      -0.00338450      -0.05540640
H        1.26080905       0.05727146       4.04063338       0.43455180       0.14110774      -0.02063563
H        3.10805749      -0.23192184       1.29985790      -0.78706912       0.40463510       0.28153594
H        1.87028002      -1.47607576       1.06893102      -0.82384632      -0.20437667       0.76839672
H        2.25201635       2.23074165       1.83132297      -0.73420387       0.07780344       0.29112560
H        0.87761109       2.28810159       3.00714391       0.14699157      -0.05333721       0.60173013
H       -0.63619382       3.12779180       1.20718270       0.49896393       0.22252011       0.39348682
