43
Properties=species:S:1:pos:R:3:forces:R:3 id=30975 bond=C-N smiles="[H:29][c:9]1[c:8]([c:11]([c:16]([c:17]([c:12]1[H:32])[C:21]([H:36])([H:37])[H:38])[N:20]([C:23]([H:39])([H:40])[c:19]2[c:14]([c:10]([c:13]([c:18]([c:15]2[H:35])[C:22]([F:1])([F:2])[F:3])[H:33])[H:30])[H:34])[C:25]([H:41])([H:42])[C:26]([H:43])([C:24]([F:4])([F:5])[F:6])[O:7][H:27])[H:31])[H:28]" dataset=PubChem energy=-38805.37582917461 pbc="F F F"
F        0.24436572      -1.20185612      -4.86609787      -0.46477320      -0.47479820       0.92487944
F        0.12800747      -2.69872830      -3.23637289      -0.35734591       0.66907643      -0.42000506
F       -1.26470998      -0.98602508      -3.26686186       0.65828874      -0.58554346      -0.36934924
F        2.38105889       4.70208862       1.58919000      -1.61781493      -0.15456368      -0.22162072
F        0.41041507       5.30732562       0.73398279       0.47916495       0.12006467       0.76641242
F        0.57035997       4.55779769       2.81852483       0.12642364      -0.04213678      -1.10952776
O        1.03914647       2.74201085      -0.36178035      -0.12717193       0.80973355       0.31426894
C       -2.62582223      -0.18354026       1.54432058      -0.61118499       0.17519155      -0.54934556
C       -2.74027912      -0.95506093       2.68407964       0.72878143      -0.54610756       0.73996533
C        2.69878002       1.12257834      -2.48733921      -0.10116983      -0.46524892      -0.49161148
C       -1.39388697       0.28616231       1.10976105       0.36793095      -0.05719006       0.40927803
C       -1.57063906      -1.24740145       3.41162609      -0.31787793       0.36865931      -0.99636311
C        1.81723794       0.38990201      -3.30942149      -0.14122140       0.07636286       0.97932557
C        2.77526662       0.86922957      -1.12103004      -0.64689498      -0.56359194      -0.77226449
C        1.03259578      -0.76029418      -1.31768233      -0.29780777      -0.01127287      -0.99085230
C       -0.21762447       0.05140945       1.84346770      -1.72632278      -0.13190727       0.11991095
C       -0.32191806      -0.72897718       2.99486613      -0.58888236      -0.65923115       1.29053477
C        0.98492249      -0.55851779      -2.71670170       0.57860063       0.34512621       0.84164040
C        1.89787170      -0.04097853      -0.50408167       1.70971464      -1.26892535      -1.90128553
N        1.03060375       0.54391242       1.40508401     -10.98943010      10.73228973       7.07889052
C        0.87679447      -1.04129431       3.86143373       0.07842218      -0.67045172      -0.70022169
C        0.01916590      -1.37763451      -3.52944655       0.17227826       0.53698424      -0.12335536
C        1.86438498      -0.22114531       0.99759360      10.37016545      -8.10361647      -5.88334111
C        1.02091401       4.42238881       1.54063546       1.03521815      -0.63732362      -0.75658877
C        1.40960719       1.89345172       1.85451471      -0.11709283       0.55936829      -0.79953778
C        0.72019029       3.00215557       0.99956315      -0.51520129      -1.75268709       0.22198110
H        0.95497038       1.77012660      -0.52465940      -0.07996769       1.35729644       0.45984951
H       -3.52762262       0.02944776       0.95979052       0.47628572      -0.04128623       0.17051597
H       -3.70364658      -1.37348971       3.00095057       0.48499794       0.30565181      -0.17541503
H        3.34394118       1.86904039      -2.95211381      -0.19578341      -0.22759616       0.25287093
H       -1.33298997       0.81919947       0.17914602       0.04690492       0.22483503      -0.17803496
H       -1.64073746      -1.91636083       4.26905631       0.19442961       0.35287055      -0.12405911
H        1.72573873       0.57698629      -4.36416049       0.21716781       0.06391672      -0.11169553
H        3.44539782       1.43616368      -0.52078802       0.47013257       0.27264621       0.32464240
H        0.35259856      -1.50124858      -0.91600675       0.12880408       0.02996447       0.24730899
H        1.43519844      -1.89758656       3.42098879      -0.13031145       0.63784274       0.34549943
H        0.59763742      -1.32355532       4.87257050      -0.14408757       0.02621768      -0.06481566
H        1.51557554      -0.17649618       3.91612243       0.45737700       0.16049075       0.01493722
H        2.85329100       0.00184580       1.42436885       0.38309582      -0.58543147      -0.22570609
H        1.61551353      -1.24230812       1.19344197       0.20037917      -0.92875890       0.20391995
H        2.50678284       1.99697401       1.70681202      -0.76132737      -0.03735478       0.28892247
H        1.13237758       2.05433395       2.88263296       0.08370109      -0.09421236       0.56084175
H       -0.38142733       2.89402416       1.08267175       0.49908368       0.21780228       0.42000314
