24
Properties=species:S:1:pos:R:3:forces:R:3 id=6248 bond=C-O smiles="[H:24][C@@:12]([C@@:10]([H:22])([C@:11]([H:23])([C:8]([H:19])([H:20])[I:2])[O:5][H:15])[O:4][H:14])([C@@:9]([H:21])([C:7]([H:17])([H:18])[I:1])[O:3][H:13])[O:6][H:16]" dataset=PubChem energy=-30820.77632540385 pbc="F F F"
I        4.26891114      -2.76079561       0.16179573      -0.21391628       0.64598355       0.04132625
I       -3.40654514       3.49384258       1.29505986      -0.11590494      -0.15596072      -0.00275084
O        1.89579870      -1.35802569       2.15657127      -0.12366148      -0.25766332      -0.36712375
O       -0.65478991      -0.17388697      -0.63603151       0.09101772      -0.33644653      -0.22125639
O       -0.53213880       2.64161378      -0.82206996      -1.12523515      -2.31877255       3.34284276
O        1.56246568       1.13974688       1.95572018       0.14332900       0.16189991       0.00692780
C        3.33779194      -0.80561342       0.26093638       0.23990314       1.20726867       0.69202659
C       -2.50944494       1.59152720       0.88930124       0.42453857       0.26265579      -1.15497293
C        1.91014541      -0.87082984       0.79430149       0.16582165      -1.43716820      -0.93033875
C       -0.30620329       0.39934748       0.60404243       0.72385429       1.28873629      -1.05308788
C       -1.00555490       1.77396128       0.66520487       0.73330370       1.03465515      -0.29157203
C        1.23284550       0.52888020       0.71135178       0.39740745      -0.94028933       1.34544074
H        2.18514861      -2.29610635       2.20722687      -0.23892788       1.13455131      -0.37144308
H       -0.48145477       0.53061000      -1.28401756      -0.23412931      -0.32505500       0.17473145
H       -0.92914459       3.52459389      -0.79626568      -0.08254553      -0.45896561       0.42942490
H        1.80245687       0.39824313       2.55457365      -0.27097664       0.78306284      -0.36608420
H        3.92263795      -0.11918481       0.92567998      -0.20606618      -0.93408885      -0.56946909
H        3.32571031      -0.35008063      -0.73210943       0.15100526      -0.47047412       0.06835348
H       -2.99965284       1.17536227       0.00634646       0.06748953       0.14244556       0.25499704
H       -2.68405579       0.92381863       1.74132192       0.17129148       0.40190101      -0.19414905
H        1.38274850      -1.59243371       0.15921098      -0.22126035       0.28816753       0.14323117
H       -0.60289906      -0.22706254       1.46134412      -0.29106432       0.20235323      -0.52557802
H       -0.62126730       2.32127831       1.54755526       0.18928097       0.14111248      -1.03883130
H        1.65969778       1.07574980      -0.15157467      -0.37544590      -0.05571483       0.58869956
