22
Properties=species:S:1:pos:R:3:forces:R:3 id=19522 bond=C-N smiles="[H:13][C:7]1([C:8]([C:10]([C:12]([C:11]([C:9]1([H:17])[H:18])([H:21])[N:5]([F:1])[F:2])([H:22])[N:6]([F:3])[F:4])([H:19])[H:20])([H:15])[H:16])[H:14]" dataset=PubChem energy=-20235.535982958183 pbc="F F F"
F        1.51960271       1.06728239      -2.24329620      -0.61869141       1.43580062      -0.20370666
F       -0.75133122       1.86896688      -2.47390848       2.38007436      -0.00356510       0.66130179
F       -1.08658499      -2.48762443      -0.26557406       0.24772546      -0.18999409       1.12216232
F       -2.26224739      -0.74394681       0.43551704       0.51246922      -0.12565786       1.37938176
N        0.25599655       1.18022449      -1.72908216      -3.19946792      -2.51411697      -0.29576128
N       -1.09618015      -1.12811115      -0.15363451       0.05880763       1.22269457      -4.83612245
C        1.29439049       1.77038581       1.79935402       1.95953511      -0.29226172      -0.22519546
C        1.63164412       0.31191025       1.95969325       2.67927765      -0.14737483       1.25276573
C        1.10790645       2.05440862       0.35824539       0.70144198      -0.08392802      -0.89865906
C        0.53148926      -0.63520925       1.57706326       1.24781994      -0.33222774      -0.36878482
C        0.08198546       1.06189502      -0.28132218       2.29166699       0.76432115      -0.94446835
C        0.18626844      -0.45221429       0.09006417      -0.27409593      -1.03289342       2.54411004
H        0.38487183       1.86540587       2.31975359      -1.06540947       0.88920472       0.93460947
H        2.15126812       2.36137039       2.21679908      -1.16149888      -0.22507732      -0.12350958
H        1.88536393       0.23474450       3.01205033      -0.25205828      -0.52140312       0.39278261
H        2.67944943       0.09809188       1.52235973      -1.81801374       0.03808553      -0.07735796
H        0.76797011       3.05407292       0.17449725      -0.80946657       0.51613360      -0.00136049
H        2.09045624       2.12369031      -0.17215853      -0.70847395      -0.94221727       0.37616997
H       -0.34683646      -0.55905502       2.17863363      -0.68245815       0.84631601       0.44239586
H        0.83215147      -1.65856426       1.81998342       0.15684286      -0.01550591      -0.59987352
H       -0.86910272       1.42945207       0.03582984      -0.80026649       0.05426485      -0.45047818
H        0.95016294      -1.01885526      -0.48256975      -0.84037539       0.65591558      -0.08990942
