22
Properties=species:S:1:pos:R:3:forces:R:3 id=19522 bond=C-N smiles="[H:13][C:7]1([C:8]([C:10]([C:12]([C:11]([C:9]1([H:17])[H:18])([H:21])[N:5]([F:1])[F:2])([H:22])[N:6]([F:3])[F:4])([H:19])[H:20])([H:15])[H:16])[H:14]" dataset=PubChem energy=-20233.8699182311 pbc="F F F"
F        1.74305966       1.18505230      -2.20083355      -0.61568244       1.43137609      -0.17854034
F       -0.52787427       1.98673679      -2.43144583       2.42147252      -0.03364583       0.70904556
F       -1.31004194      -2.60539434      -0.30803671       0.21048362      -0.49104987       1.45170929
F       -2.48570434      -0.86171672       0.39305439       0.18963180      -0.33254950       1.74775501
N        0.47945350       1.29799440      -1.68661951      -3.18347169      -2.38274558      -0.36775111
N       -1.31963710      -1.24588106      -0.19609716       2.63325288       2.96738645      -4.33207771
C        1.51784744       1.88815572       1.84181667       1.93707295      -0.29747111      -0.21537375
C        1.85510107       0.42968016       2.00215590       2.77174950       0.04308865       1.00251155
C        1.33136340       2.17217853       0.40070804       0.86440944      -0.05649659      -0.75524367
C        0.75494621      -0.51743934       1.61952591       0.17755156      -0.90788689      -0.82601967
C        0.30544241       1.17966493      -0.23885953       1.53586053       0.05721865      -1.15576027
C        0.40972539      -0.33444438       0.13252682      -0.34582790      -0.86668069       2.34373515
H        0.60832878       1.98317578       2.36221624      -1.05916263       0.89202120       0.93144493
H        2.37472507       2.47914030       2.25926173      -1.15866363      -0.23046270      -0.13193952
H        2.10882088       0.35251441       3.05451298      -0.31233481      -0.58995675       0.37716021
H        2.90290638       0.21586179       1.56482238      -1.82054945       0.04366481      -0.06762837
H        0.99142706       3.17184283       0.21695990      -0.84433580       0.48484066      -0.02600655
H        2.31391319       2.24146022      -0.12969588      -0.72073231      -0.95664180       0.36719769
H       -0.12337951      -0.44128511       2.22109628      -0.64987650       0.84627634       0.48016404
H        1.05560842      -1.54079435       1.86244607       0.13934817       0.00949845      -0.59576151
H       -0.64564577       1.54722198       0.07829249      -0.83005410       0.10461329      -0.43568159
H        1.17361989      -0.90108535      -0.44010710      -1.32716408       0.26586454      -0.31705285
