50
Properties=species:S:1:pos:R:3:forces:R:3 id=42787 bond=C-O smiles="[H:46][C:14]1([C:16]([C:15]([C:18]([N:3]([C:17]1([C:7]([H:28])([H:29])[H:30])[C:8]([H:31])([H:32])[H:33])[C:6]([H:25])([H:26])[H:27])([C:9]([H:34])([H:35])[H:36])[C:10]([H:37])([H:38])[H:39])([H:48])[H:49])([H:50])[O:1][C:11]([H:40])([H:41])[C:13]([H:44])([H:45])[C:12]([H:42])([H:43])[N:2]([C:4]([H:19])([H:20])[H:21])[C:5]([H:22])([H:23])[H:24])[H:47]" dataset=PubChem energy=-21114.21858833004 pbc="F F F"
O        1.96165657       0.55692771      -0.02798654      -0.93885494       0.10851458      -2.40361735
N        1.06442771      -3.12688615      -3.00023579      -0.91240185      -0.00035663       0.80228348
N        0.15800244       2.45401138       3.32279400       0.82215903       0.77152824       0.20102346
C        0.54822663      -3.20951893      -4.38095045       1.41542208       0.92383211       0.48832879
C        1.60495810      -4.39466931      -2.48956489       0.13585104       0.96477600      -0.91032370
C       -0.65615666       3.04760987       4.40441899      -0.13916315      -0.77803866      -0.18521091
C        1.10540277       0.59681403       4.74243216       0.49721900      -0.42904949      -1.08104915
C       -0.80597567       0.14858503       3.29190020      -1.20838032       1.64979948       0.88737430
C        0.53813378       4.66187650       2.21753435      -0.85385325       0.17026961      -0.32077202
C       -1.34138619       3.18731028       1.40683265      -0.10487387       1.12275587      -0.00304824
C        1.34526030       0.61181712      -2.17828607      -1.80804324      -0.54260664       0.90288847
C        1.73285524      -1.86129071      -2.50804758      -1.13654229      -1.89341312      -0.88064427
C        0.73663155      -0.72981586      -2.58809662       0.52661033       0.10213621       2.04678771
C        1.47345704       0.55971366       2.32230477      -0.21535194      -0.43094911      -0.70215665
C        1.11018688       2.62507874       1.04636721       0.22620076      -0.54187135      -0.39847367
C        1.06351573       1.08320397       0.96260347       0.60097463       1.05852462      -1.50829763
C        0.46322236       0.98248890       3.39189725      -0.03641219       0.16682360       0.40340767
C        0.07385969       3.19698793       2.02238326       0.63053416      -0.42947296       0.54409375
H        1.36786751      -2.99663856      -5.12577629      -0.73167974      -0.05008147       0.34044415
H        0.19432387      -4.21218898      -4.58206606      -0.08237430      -0.13352095       0.14664766
H       -0.29074915      -2.51529004      -4.52590799       0.33927750      -0.15563946      -0.09372309
H        1.78583340      -4.28564240      -1.43130016       0.39788092      -0.00438444       0.20722297
H        0.92785869      -5.25314547      -2.59636020      -0.05318551       0.49429741      -0.23958104
H        2.51697163      -4.59201028      -3.06623649       0.27362554      -0.55157729       0.49032400
H       -0.22951269       2.87700779       5.40317683       0.11513203      -0.04619297      -0.41259418
H       -1.64588856       2.55040199       4.41327457       0.06359844       0.63277916       0.15106845
H       -0.76510679       4.15230209       4.32421164       0.06801879      -1.00282307      -0.29444709
H        2.05081141       1.08968830       4.88235168       0.37340062       0.35021807       0.01355862
H        0.46191654       0.86859083       5.52914338      -0.72347634       0.10896469       1.11630672
H        1.30818224      -0.49322063       4.77527074      -0.32646978       0.61660105      -0.06921734
H       -0.61127579      -0.87545710       3.21540360       0.45522927      -1.61645212       0.22520076
H       -1.43093228       0.35368542       4.21403460       0.48936848      -0.40188641      -1.17914740
H       -1.36998367       0.39346300       2.40520791      -0.32632176       0.27851146      -0.11828602
H        0.73863156       5.09194833       1.22639488       0.16041976      -0.18594446       0.25961339
H       -0.26279032       5.29878074       2.61296634       0.27891394      -0.16396788       0.23936842
H        1.43343753       4.71105558       2.83693282      -0.16823454      -0.00316527      -0.06075448
H       -1.70618057       2.22354394       1.10674049       0.05491575      -0.60528266       0.06961070
H       -2.07156205       3.61156899       2.12978284       0.44718209      -0.19419804      -0.53181972
H       -1.34786212       3.80174333       0.48089029      -0.04145849      -0.15361737       0.64643215
H        0.58761034       1.39620546      -2.37095880       0.66014629      -0.07967209       1.13962286
H        2.21832112       0.80949760      -2.76758623       0.98865437       0.22750514       0.74253387
H        2.60846833      -1.64192464      -3.10917663       0.50375710       0.10579025      -0.04334167
H        1.99570552      -1.98736026      -1.45034683       0.12427160      -0.11662205      -0.45528148
H        0.36929436      -0.59513058      -3.59027028      -0.11606813       0.23987772      -0.59913357
H       -0.11509474      -1.06558015      -1.97249532       0.18059770       0.61807085      -0.21887112
H        1.55111999      -0.54259365       2.23957102      -0.10764419       0.56717009       0.40693055
H        2.45553899       0.95600599       2.56676630       0.08809862       0.00678765      -0.02129984
H        2.14311910       2.92637211       1.33695094      -0.73887085      -0.21209361      -0.08679336
H        0.91084645       3.08323270       0.06390177       0.11114554      -0.30873699       0.23453054
H        0.04808724       0.79217538       0.71379538      -0.26125547      -0.25747417       0.11018117
