50
Properties=species:S:1:pos:R:3:forces:R:3 id=42787 bond=C-O smiles="[H:46][C:14]1([C:16]([C:15]([C:18]([N:3]([C:17]1([C:7]([H:28])([H:29])[H:30])[C:8]([H:31])([H:32])[H:33])[C:6]([H:25])([H:26])[H:27])([C:9]([H:34])([H:35])[H:36])[C:10]([H:37])([H:38])[H:39])([H:48])[H:49])([H:50])[O:1][C:11]([H:40])([H:41])[C:13]([H:44])([H:45])[C:12]([H:42])([H:43])[N:2]([C:4]([H:19])([H:20])[H:21])[C:5]([H:22])([H:23])[H:24])[H:47]" dataset=PubChem energy=-21113.449884906753 pbc="F F F"
O        1.99129101       0.55428880       0.07539324      -1.01053641       0.18430774      -1.69812819
N        1.03479327      -3.12424724      -3.10361557      -0.91297033       0.01367312       0.80257745
N        0.18763688       2.45137247       3.42617378       0.81892161       0.77151399       0.20650707
C        0.51859219      -3.20688002      -4.48433023       1.42197978       0.92524963       0.48539784
C        1.57532366      -4.39203040      -2.59294467       0.14178053       0.95751972      -0.90301682
C       -0.62652222       3.04497096       4.50779877      -0.13723505      -0.77979155      -0.18670369
C        1.13503721       0.59417512       4.84581194       0.50190691      -0.43145227      -1.08230309
C       -0.77634123       0.14594612       3.39527998      -1.20729962       1.65000853       0.88703214
C        0.56776822       4.65923759       2.32091413      -0.85618400       0.17024975      -0.31887883
C       -1.31175175       3.18467137       1.51021243      -0.10616540       1.12335524      -0.00072257
C        1.31562586       0.61445603      -2.28166585      -2.02068425      -0.61434850      -0.01704540
C        1.70322080      -1.85865180      -2.61142736      -1.12592363      -1.91961273      -0.89769057
C        0.70699711      -0.72717695      -2.69147640       0.60088588       0.09960865       2.23247936
C        1.50309148       0.55707475       2.42568455      -0.20008872      -0.45632695      -0.63751686
C        1.13982132       2.62243983       1.14974699       0.21965781      -0.53490948      -0.37901154
C        1.09315017       1.08056506       1.06598325       0.76721744       1.02324080      -1.64272541
C        0.49285680       0.97984999       3.49527703      -0.04769586       0.17492515       0.40361644
C        0.10349413       3.19434902       2.12576304       0.63946802      -0.42757647       0.53795758
H        1.33823307      -2.99399965      -5.22915607      -0.73322116      -0.05069718       0.34126897
H        0.16468943      -4.20955007      -4.68544584      -0.08323850      -0.13106752       0.14723739
H       -0.32038359      -2.51265113      -4.62928777       0.33446949      -0.15345966      -0.09450001
H        1.75619896      -4.28300349      -1.53467994       0.39748692      -0.00473884       0.20626012
H        0.89822425      -5.25050656      -2.69973998      -0.05357506       0.49703887      -0.23972778
H        2.48733719      -4.58937137      -3.16961627       0.27042304      -0.54978295       0.49105344
H       -0.19987825       2.87436888       5.50655661       0.11495698      -0.04630663      -0.41137498
H       -1.61625412       2.54776308       4.51665435       0.06232285       0.63246659       0.15150164
H       -0.73547235       4.14966318       4.42759142       0.06800484      -1.00255127      -0.29473782
H        2.08044585       1.08704939       4.98573146       0.37349919       0.35026297       0.01341752
H        0.49155098       0.86595192       5.63252316      -0.72462305       0.10979713       1.11643903
H        1.33781668      -0.49585954       4.87865052      -0.32620140       0.61631033      -0.06925595
H       -0.58164135      -0.87809601       3.31878338       0.45568584      -1.61659067       0.22490803
H       -1.40129784       0.35104651       4.31741438       0.48881951      -0.40127942      -1.17789461
H       -1.34034923       0.39082409       2.50858769      -0.32513556       0.27899121      -0.11863311
H        0.76826600       5.08930942       1.32977466       0.16073988      -0.18708548       0.25949643
H       -0.23315588       5.29614183       2.71634612       0.27775257      -0.16182070       0.24062402
H        1.46307197       4.70841667       2.94031260      -0.16800296      -0.00336352      -0.06088673
H       -1.67654613       2.22090503       1.21012027       0.05580386      -0.60550274       0.06903871
H       -2.04192761       3.60893008       2.23316262       0.44533917      -0.19343405      -0.53080249
H       -1.31822768       3.79910442       0.58427007      -0.04047659      -0.15395112       0.64637255
H        0.55797590       1.39884437      -2.47433858       0.65570004      -0.05420647       1.21829761
H        2.18868668       0.81213651      -2.87096601       1.04956513       0.23206160       0.78893908
H        2.57883389      -1.63928573      -3.21255641       0.50235811       0.10794910      -0.04193080
H        1.96607108      -1.98472135      -1.55372661       0.12229133      -0.11507124      -0.44965055
H        0.33965992      -0.59249167      -3.69365006      -0.12334904       0.28686996      -0.62554174
H       -0.14472918      -1.06294124      -2.07587510       0.16569580       0.61191866      -0.23506595
H        1.58075443      -0.54523256       2.34295080      -0.10848615       0.56979179       0.40656331
H        2.48517343       0.95336708       2.67014608       0.08541877       0.00734176      -0.02331387
H        2.17275354       2.92373320       1.44033072      -0.73881532      -0.21062723      -0.08653790
H        0.94048089       3.08059379       0.16728155       0.11251309      -0.31827293       0.23117915
H        0.07772168       0.78953647       0.81717516      -0.26190540      -0.27499401       0.11406741
