50
Properties=species:S:1:pos:R:3:forces:R:3 id=42787 bond=C-O smiles="[H:46][C:14]1([C:16]([C:15]([C:18]([N:3]([C:17]1([C:7]([H:28])([H:29])[H:30])[C:8]([H:31])([H:32])[H:33])[C:6]([H:25])([H:26])[H:27])([C:9]([H:34])([H:35])[H:36])[C:10]([H:37])([H:38])[H:39])([H:48])[H:49])([H:50])[O:1][C:11]([H:40])([H:41])[C:13]([H:44])([H:45])[C:12]([H:42])([H:43])[N:2]([C:4]([H:19])([H:20])[H:21])[C:5]([H:22])([H:23])[H:24])[H:47]" dataset=PubChem energy=-21117.452802633907 pbc="F F F"
O        1.85200916       0.56669169      -0.41049175       0.13724865       0.32258296      -0.08574446
N        1.17407512      -3.13665013      -2.61773058      -0.89366144      -0.07677484       0.83184795
N        0.04835503       2.46377536       2.94028879       0.84650704       0.76803779       0.17824935
C        0.65787404      -3.21928291      -3.99844524       1.38077372       0.92112884       0.49697461
C        1.71460551      -4.40443329      -2.10705968       0.10752936       0.99425541      -0.94731000
C       -0.76580407       3.05737385       4.02191378      -0.15272567      -0.76887017      -0.17355440
C        0.99575536       0.60657801       4.35992695       0.48789656      -0.42443124      -1.07969909
C       -0.91562308       0.15834901       2.90939499      -1.20418724       1.64674583       0.88627065
C        0.42848637       4.67164048       1.83502914      -0.82982508       0.16645833      -0.33875198
C       -1.45103360       3.19707426       1.02432744      -0.09859048       1.12345793      -0.01840899
C        1.45490771       0.60205314      -1.79578086      -1.56285889      -0.33542521       1.32705942
C        1.84250265      -1.87105469      -2.12554237      -1.22228852      -1.73596907      -0.85113615
C        0.84627896      -0.73957984      -2.20559141       0.02880890       0.10580920       0.45674630
C        1.36380963       0.56947764       1.93979956      -0.36740846      -0.30527259      -0.80953522
C        1.00053947       2.63484272       0.66386200       0.32171323      -0.52546279      -0.53965939
C        0.95386832       1.09296795       0.58009826       0.49321164       0.97663244      -0.58833861
C        0.35357495       0.99225288       3.00939204       0.00560297       0.13175806       0.41317562
C       -0.03578772       3.20675191       1.63987805       0.56987250      -0.46885002       0.56631214
H        1.47751492      -3.00640254      -4.74327108      -0.72727781      -0.04655600       0.33992198
H        0.30397128      -4.22195296      -4.19956085      -0.07536114      -0.14914395       0.14801055
H       -0.18110174      -2.52505402      -4.14340278       0.36757166      -0.16049313      -0.08568051
H        1.89548081      -4.29540638      -1.04879495       0.40012502      -0.00448434       0.21374642
H        1.03750610      -5.26290945      -2.21385499      -0.05080133       0.48079468      -0.23863118
H        2.62661904      -4.60177426      -2.68373128       0.28925467      -0.56037401       0.48671804
H       -0.33916010       2.88677177       5.02067162       0.11637596      -0.04539649      -0.41934516
H       -1.75553597       2.56016597       4.03076936       0.07105278       0.63512071       0.14768629
H       -0.87475420       4.16206607       3.94170643       0.06868767      -1.00522511      -0.29297226
H        1.94116400       1.09945228       4.49984647       0.37353149       0.35039131       0.01560299
H        0.35226913       0.87835481       5.14663817      -0.71789526       0.10542460       1.11300059
H        1.19853483      -0.48345665       4.39276553      -0.32760300       0.61723310      -0.06821195
H       -0.72092320      -0.86569312       2.83289839       0.45130223      -1.61570723       0.22607260
H       -1.54057969       0.36344940       3.83152939       0.49237341      -0.40286341      -1.18853546
H       -1.47963108       0.40322698       2.02270270      -0.33671404       0.27589046      -0.11943543
H        0.62898415       5.10171231       0.84388967       0.15825862      -0.18035192       0.26120542
H       -0.37243773       5.30854472       2.23046113       0.28457974      -0.18094461       0.23113628
H        1.32379012       4.72081956       2.45442761      -0.16906100      -0.00154484      -0.05927865
H       -1.81582798       2.23330792       0.72423528       0.04742052      -0.60311748       0.06813420
H       -2.18120946       3.62133297       1.74727763       0.45899438      -0.20015041      -0.53433296
H       -1.45750953       3.81150731       0.09838508      -0.04494509      -0.15877809       0.64805818
H        0.69725775       1.38644148      -1.98845359       0.48842063      -0.12069059       0.22133929
H        2.32796853       0.79973362      -2.38508102       0.50621511       0.19241259      -0.21269385
H        2.71811574      -1.65168862      -2.72667142       0.51031950       0.09773385      -0.04511745
H        2.10535293      -1.99712424      -1.06784162       0.15163460      -0.18247342      -0.46094933
H        0.47894177      -0.60489456      -3.20776507      -0.15249612      -0.10784277      -0.54547732
H       -0.00544733      -1.07534413      -1.58999011       0.20143155       0.63614706      -0.11443801
H        1.44147258      -0.53282967       1.85706581      -0.10778890       0.56478948       0.40051806
H        2.34589158       0.96576997       2.18426109       0.08931030       0.00607748      -0.03071619
H        2.03347169       2.93613609       0.95444573      -0.74459502      -0.22330006      -0.07894031
H        0.80119904       3.09299668      -0.31860344       0.10458358      -0.25338159       0.26921448
H       -0.06156017       0.80193936       0.33129017      -0.22405589      -0.27237510      -0.01913622
