50
Properties=species:S:1:pos:R:3:forces:R:3 id=42787 bond=C-O smiles="[H:46][C:14]1([C:16]([C:15]([C:18]([N:3]([C:17]1([C:7]([H:28])([H:29])[H:30])[C:8]([H:31])([H:32])[H:33])[C:6]([H:25])([H:26])[H:27])([C:9]([H:34])([H:35])[H:36])[C:10]([H:37])([H:38])[H:39])([H:48])[H:49])([H:50])[O:1][C:11]([H:40])([H:41])[C:13]([H:44])([H:45])[C:12]([H:42])([H:43])[N:2]([C:4]([H:19])([H:20])[H:21])[C:5]([H:22])([H:23])[H:24])[H:47]" dataset=PubChem energy=-21112.490933619636 pbc="F F F"
O        2.03870611       0.55006653       0.24080090      -1.13271489       0.31669872      -0.76161235
N        0.98737817      -3.12002497      -3.26902323      -0.91170631       0.03146069       0.80575074
N        0.23505198       2.44715020       3.59158144       0.81572130       0.77132688       0.21425376
C        0.47117709      -3.20265775      -4.64973789       1.43002067       0.92767149       0.48087855
C        1.52790856      -4.38780813      -2.75835233       0.14954363       0.94734102      -0.89337646
C       -0.57910712       3.04074869       4.67320643      -0.13541913      -0.78159242      -0.18810542
C        1.18245231       0.58995285       5.01121960       0.50933794      -0.43523042      -1.08389025
C       -0.72892613       0.14172385       3.56068764      -1.20508007       1.65001921       0.88660589
C        0.61518332       4.65501532       2.48632179      -0.85753321       0.17011114      -0.31738609
C       -1.26433665       3.18044910       1.67562009      -0.10816747       1.12451622       0.00203775
C        1.26821076       0.61867830      -2.44707351      -2.27051893      -0.70618284      -1.12278868
C        1.65580570      -1.85442953      -2.77683502      -1.11556696      -1.95268162      -0.92580002
C        0.65958201      -0.72295468      -2.85688406       0.69001730       0.10959658       2.42466071
C        1.55050658       0.55285248       2.59109221      -0.19169100      -0.48803378      -0.53236204
C        1.18723642       2.61821756       1.31515465       0.21762408      -0.51847667      -0.35760886
C        1.14056527       1.07634279       1.23139091       1.03622801       0.96301586      -1.81356503
C        0.54027190       0.97562772       3.66068469      -0.06257777       0.18476534       0.40373292
C        0.15090923       3.19012675       2.29117070       0.64871013      -0.42817647       0.53013182
H        1.29081797      -2.98977738      -5.39456373      -0.73552481      -0.05141637       0.34287811
H        0.11727433      -4.20532780      -4.85085350      -0.08403706      -0.12813838       0.14850431
H       -0.36779869      -2.50842886      -4.79469543       0.32878620      -0.15006529      -0.09509144
H        1.70878386      -4.27878122      -1.70008760       0.39700757      -0.00552602       0.20518510
H        0.85080915      -5.24628429      -2.86514764      -0.05396095       0.50072237      -0.23988462
H        2.43992209      -4.58514910      -3.33502393       0.26607863      -0.54735865       0.49209620
H       -0.15246315       2.87014661       5.67196427       0.11467497      -0.04631671      -0.41001255
H       -1.56883902       2.54354081       4.68206201       0.06094430       0.63227190       0.15195650
H       -0.68805725       4.14544091       4.59299908       0.06806659      -1.00233569      -0.29511972
H        2.12786095       1.08282712       5.15113912       0.37355426       0.35028204       0.01345887
H        0.53896608       0.86172965       5.79793082      -0.72598733       0.11078902       1.11633435
H        1.38523178      -0.50008181       5.04405818      -0.32588526       0.61610398      -0.06907959
H       -0.53422625      -0.88231828       3.48419104       0.45601493      -1.61661218       0.22449187
H       -1.35388274       0.34682424       4.48282204       0.48811073      -0.40038431      -1.17665672
H       -1.29293413       0.38660182       2.67399535      -0.32408042       0.27952492      -0.11926099
H        0.81568110       5.08508715       1.49518232       0.16109514      -0.18852951       0.25954332
H       -0.18574078       5.29191956       2.88175378       0.27627979      -0.15980857       0.24194583
H        1.51048707       4.70419440       3.10572026      -0.16779725      -0.00351468      -0.06104322
H       -1.62913103       2.21668276       1.37552793       0.05665003      -0.60550568       0.06796149
H       -1.99451251       3.60470781       2.39857028       0.44333867      -0.19265079      -0.52936452
H       -1.27081258       3.79488215       0.74967773      -0.03909933      -0.15517569       0.64647637
H        0.51056080       1.40306664      -2.63974624       0.64309725      -0.02192766       1.29045102
H        2.14127158       0.81635878      -3.03637367       1.10939386       0.23563950       0.81520538
H        2.53141879      -1.63506346      -3.37796407       0.50058808       0.11108304      -0.03950257
H        1.91865598      -1.98049908      -1.71913427       0.12168593      -0.12097768      -0.44379795
H        0.29224482      -0.58826940      -3.85905772      -0.13711841       0.33205333      -0.66135004
H       -0.19214428      -1.05871897      -2.24128276       0.14242356       0.60287781      -0.25340970
H        1.62816953      -0.54945483       2.50835846      -0.10991200       0.57465306       0.40417349
H        2.53258853       0.94914481       2.83555374       0.08072972       0.00876585      -0.02927580
H        2.22016864       2.91951093       1.60573838      -0.73932803      -0.20942798      -0.08591050
H        0.98789599       3.07637152       0.33268921       0.11458738      -0.32950415       0.22948676
H        0.12513678       0.78531420       0.98258282      -0.26609909      -0.30940607       0.10838811
