30
Properties=species:S:1:pos:R:3:forces:R:3 id=49414 bond=C-C smiles="[H:19][c:6]1[c:7]([c:9]([c:11]([c:10]([c:8]1[H:21])[H:23])[C:4]2=[C:2]([C:3](=[C:5]([N:12]2[C:15]([H:29])([H:30])[C:14]([H:27])([H:28])[S:1][H:16])[C:13]([H:24])([H:25])[H:26])[H:18])[H:17])[H:22])[H:20]" dataset=PubChem energy=-26041.040327488594 pbc="F F F"
S        1.77690124       4.24793061       1.99163742      -0.05651305       3.05259567       2.51006684
C        0.64826654      -0.58148031      -1.17928484       1.50823023       0.12291448      -0.82000983
C        1.82615535      -0.01787893      -1.80441239      -0.65842769      -0.44018841       0.06541057
C        0.47810484       0.04022237       0.04035106       0.79705891      -0.15532883      -2.29099428
C        2.28620283       0.97840084      -0.96315029       0.49916135      -0.23934389      -1.28802224
C       -3.05633075      -1.25925354       2.14366170       0.76781884       1.33691641      -2.08700832
C       -1.84724672      -0.97469536       2.82555434      -1.26865934      -0.27265468      -2.13090208
C       -3.13744505      -1.04309145       0.73096797       3.39297908      -1.26183907       0.38442162
C       -0.66911562      -0.64328877       2.17378995       0.20866448      -0.05766608       0.35947398
C       -1.89340456      -0.71128134       0.05542418      -1.02252325      -0.04760845       0.33470160
C       -0.67681571      -0.46375362       0.76994217      -1.18274697       1.02538263       1.69450593
N        1.46912042       1.09139280       0.12962845      -1.24460886      -3.37233397       1.27731375
C        3.55285827       1.77112033      -1.18522992      -0.92490575       0.84004099       0.41623901
C        1.15307039       2.89727982       1.07120811     -50.21966666      93.46365829     -26.05397117
C        1.55104332       2.11821385       1.27468869      48.88160533     -95.66411861      24.31947862
H        2.08630359       5.12030109       1.06636055      -0.08363522       0.46216599      -0.76724527
H        0.00961934      -1.40771607      -1.55850246       0.88201549       0.83632580       0.40292921
H        2.30380098      -0.35271505      -2.75007179      -0.43203495       0.46018512       0.98921886
H       -3.97087057      -1.57737926       2.58831617      -0.19542426      -0.09661851       0.83368500
H       -1.84725006      -0.96328942       3.85587093       0.01991829      -0.43508711       2.09597944
H       -3.96380098      -1.44842581       0.14223221       0.08503202       0.64581778       0.28840358
H        0.24511377      -0.61510531       2.84888312      -1.06591626       0.39720684      -1.42197692
H       -1.84309442      -0.67582420      -1.07033780      -0.32199267       0.26814000       1.56387769
H        3.35995619       2.73367067      -1.73705747       0.14351329      -0.70083409       0.82378112
H        3.94891206       1.95852788      -0.16396579       0.40795190       0.13680896      -0.97706279
H        4.22054593       1.21050318      -1.84270647       0.04285952      -0.02621424       0.52122833
H        0.08662093       2.80658921       1.26545276      -1.48161544       1.80370964      -1.21514066
H        1.30038684       3.13221678       0.00289120      -0.42181186       1.42273341       0.16492898
H        1.14564906       1.55601134       2.13147280       0.88502965      -0.85389036       0.45728569
H        2.55318372       2.38800045       1.60088298       2.05705880      -2.65312827      -0.45173529
