10
Properties=species:S:1:pos:R:3:forces:R:3 id=713 bond=C-S smiles="[H:6][C:3]([H:7])([H:8])[C:4]([H:9])([H:10])[S:2][S:1][H:5]" dataset="DES370K Monomers" energy=-23800.487863205166 pbc="F F F"
S        1.20422614      -1.63257593      -0.13956033      -0.13951880      -2.94863689       1.73426412
S        0.38819599      -0.06352312      -1.18124368    -184.69835202    -120.87491274      41.11264987
C        1.58372396       1.18608576      -0.09551960       4.64497708       4.39163602       0.84288400
C        1.15353650       0.43565834      -1.36694978     176.00618426     116.60680974     -42.71557294
H        1.58027082      -2.40930194      -1.19712116      -0.39571897       0.43031451       0.05739447
H        0.93105858       2.04957766       0.06721925      -0.02982891      -0.34118442      -0.31848536
H        1.57776469       0.54572618       0.76349100      -0.38418999      -0.49747640      -0.02073590
H        2.61719841       1.52070851      -0.21270896       0.36011056       0.51814721       0.43521394
H        0.95244140       1.12713129      -2.18717227       1.38483501       1.02450670       0.12393859
H        1.94714898      -0.23299487      -1.70515416       3.24136968       1.68222602      -1.25065415
