10
Properties=species:S:1:pos:R:3:forces:R:3 id=713 bond=C-S smiles="[H:6][C:3]([H:7])([H:8])[C:4]([H:9])([H:10])[S:2][S:1][H:5]" dataset="DES370K Monomers" energy=-23839.083020818005 pbc="F F F"
S        1.06916605      -1.72066677      -0.10678866      -0.23086351      -1.30930802       0.44396285
S        0.25313590      -0.15161396      -1.14847201     -39.69890965     -26.17544985       7.82617699
C        1.71878405       1.27417660      -0.12829127       2.37126797       2.16002055      -0.49891585
C        1.28859659       0.52374918      -1.39972145      36.30799753      23.76316314      -7.77756024
H        1.44521073      -2.49739278      -1.16434949      -0.24385702       0.36837978       0.26913737
H        1.06611867       2.13766850       0.03444758       0.08541164      -0.26971733      -0.03928715
H        1.71282478       0.63381702       0.73071933      -0.24874244      -0.38721680       0.20666389
H        2.75225850       1.60879935      -0.24548063       0.05104309       0.40812570       0.22890499
H        1.08750149       1.21522213      -2.21994394       0.45355435       0.44893835      -0.04261284
H        2.08220907      -0.14490403      -1.73792583       1.14457229       0.98512078      -0.61728648
