31
Properties=species:S:1:pos:R:3:forces:R:3 id=40733 bond=C-N smiles="[H:17][C:3]1([C:9]2([C:4]([C:11]3([C:5]([C:10]1([C:7]([C:12]([C:6]2([H:23])[H:24])([C:8]3([H:27])[H:28])[N:1]([H:13])[C:2]([H:14])([H:15])[H:16])([H:25])[H:26])[H:30])([H:21])[H:22])[H:31])([H:19])[H:20])[H:29])[H:18]" dataset=PubChem energy=-13216.524307780863 pbc="F F F"
N       -0.15497101      -1.48955031       1.50760678       0.06490981      -2.37951800       1.70669007
C        0.90692746      -2.23080683       2.41514267      -1.04409725       0.88556681      -1.38565884
C        0.39855904       1.31967680      -1.64421293       0.27571474      -0.47506228      -0.33422085
C        1.99177205       1.96012871       0.16907624       0.42921700       0.67268943       0.73472309
C       -0.38794691       2.60339861       0.29409072      -0.41315322       0.74860085       0.53825812
C        1.38943481      -0.41985895      -0.02991113      -0.91262729       1.06628574       0.64814616
C       -1.05820120       0.18002228       0.02497542      -0.73122110       0.41796431      -0.40633537
C        0.46989974       0.88734155       1.88357619       0.65324040       0.70139716      -0.40266037
C        1.63090216       0.87197338      -0.78912076       0.35122578      -0.30646014      -1.92053720
C       -0.79420532       1.51013975      -0.71766659       0.52525804       0.07186068       0.15604760
C        0.84437608       2.20435171       1.14409855      -1.08754392      -0.71727700      -0.57951455
C        0.12862389      -0.22891267       0.86698714       1.50514170      -0.20347865       0.69331150
H       -1.09057487      -1.49220653       1.95733002       1.22693418       0.03637970      -0.27686437
H        1.20767611      -1.63083672       3.27992178      -0.08649893      -0.04741768      -0.08808257
H        0.47765369      -3.19215417       2.78304292       0.13699541       0.88707714      -0.48159895
H        1.83416074      -2.46748089       1.83262087      -1.04151909       0.26131964       0.33692632
H        0.59654528       2.27450470      -2.18741366       0.08584925      -0.75126669       0.37012086
H        0.15545430       0.53652390      -2.39115235       0.24374056       0.42282317       0.27969722
H        2.21187269       2.88652758      -0.36421826      -0.00208250       0.02119543      -0.02110528
H        2.88601767       1.70553402       0.73632361       0.16486187      -0.11463758      -0.03104284
H       -1.22985149       2.79633813       0.96906916       0.05496082      -0.00168112      -0.04431578
H       -0.16915113       3.57196407      -0.19647333      -0.17958904      -0.53748619      -0.05751967
H        2.26316069      -0.63765712       0.57303809       0.09675763       0.05454043       0.27851778
H        1.27065092      -1.25075073      -0.67713925      -0.41561625      -0.77193058      -0.70748300
H       -1.93299664       0.32807903       0.66069472       0.00713686      -0.04965725       0.24774105
H       -1.34547008      -0.62553425      -0.66421983       0.31731817       0.20008797       0.02631300
H       -0.31315280       1.05635457       2.62143376      -0.34175903      -0.01866588      -0.23575006
H        1.33380895       0.58775848       2.46213928       0.28484916      -0.29053290       0.13371561
H        2.46545540       0.66672600      -1.49455830      -0.33966849       0.36667592       0.38439450
H       -1.67586316       1.81601338      -1.30915758       0.30680308      -0.11617563       0.43874165
H        1.10921144       2.99426393       1.84699753      -0.13661972      -0.03260576      -0.00066060
