21
Properties=species:S:1:pos:R:3:forces:R:3 id=28544 bond=C-C smiles="[H:15][C:8]([H:16])([H:17])[C:13]([H:21])([C:10]([H:18])([H:19])[O:7][H:14])[C:12]([C:11]([H:20])([C:9]([F:1])([F:2])[F:3])[F:4])([F:5])[F:6]" dataset=PubChem energy=-24700.54915306497 pbc="F F F"
F       -2.15551837       0.27267942       2.48754214       0.35742562      -0.61628772      -0.27368643
F       -1.55165036      -1.84106358       2.54770731       0.32764421       0.82314153      -0.21749934
F       -2.46736653      -1.04657920       0.76348569       0.83913562       0.39642966       0.60329182
F        0.66782399      -0.28309103       2.27262591       0.26489897       0.14417279       0.70991066
F       -0.34839685       2.10396687       1.23113005       0.42066714       0.02874313       0.62694419
F       -1.26971013       0.98677314      -0.32410509      -1.31259878      -0.07550103      -0.96233072
O        2.82228653      -0.00721612       0.46565561      -0.43989081       0.64620761      -0.03180514
C        0.86983871       1.94279064      -1.06584806     -14.47965430      68.21795635     -51.24052031
C       -1.59813268      -0.72900733       1.77200912      -0.92100329      -0.35569537      -0.14195675
C        2.32098644       1.32883302       0.22703454       1.62951490      -2.48501472       2.15671881
C       -0.19103379      -0.34188124       1.23532020      -0.65413683      -0.26305519      -0.76933673
C       -0.18984397       1.02287157       0.45292839       0.18903381      -3.11142475       1.23436183
C        1.01885544       1.19401813      -0.51021553      13.37781063     -66.83244032      49.66656872
H        3.66148846       0.07292971       0.89918112       0.49563584      -0.10169957       0.36575299
H        0.57213913       2.84301437      -0.48349614       0.12409682       0.94703021      -1.08524685
H        1.79536676       2.20200790      -1.53389591      -0.08118211       1.40142241      -2.08274066
H        0.12763753       1.67622030      -1.84249563      -0.31172254       2.15611642      -0.43932191
H        2.16405575       1.88934687       1.14733361       0.11466328       0.00504588       0.24551207
H        3.06601899       1.85726646      -0.37891234      -0.40691929       0.01878075      -0.06820610
H        0.13014131      -1.17576512       0.55733985      -0.29708802       0.91901699       0.39234043
H        1.03688853       0.31445334      -1.15981377       0.75250844      -1.86655085       1.30794681
