21
Properties=species:S:1:pos:R:3:forces:R:3 id=28544 bond=C-C smiles="[H:15][C:8]([H:16])([H:17])[C:13]([H:21])([C:10]([H:18])([H:19])[O:7][H:14])[C:12]([C:11]([H:20])([C:9]([F:1])([F:2])[F:3])[F:4])([F:5])[F:6]" dataset=PubChem energy=-24716.45256933935 pbc="F F F"
F       -2.10463462       0.01700101       2.67727032       0.37777517      -0.63563909      -0.28329980
F       -1.50076661      -2.09674199       2.73743549       0.34819830       0.84691009      -0.23235216
F       -2.41648278      -1.30225761       0.95321387       0.85908213       0.39231144       0.61568238
F        0.71870774      -0.53876944       2.46235409       0.25007330       0.12062759       0.72608048
F       -0.29751310       1.84828846       1.42085823       0.33804953       0.09815552       0.87119352
F       -1.21882638       0.73109473      -0.13437691      -1.50671397      -0.14513058      -0.99804335
O        2.87317028      -0.26289453       0.65538379      -0.67191129       0.56320796      -0.18032714
C        0.81895496       2.19846905      -1.25557624      -0.71282369      -0.64894780       0.98942222
C       -1.54724893      -0.98468574       1.96173730      -1.00212791      -0.30293288      -0.16910193
C        2.37187019       1.07315461       0.41676272       0.80527418      -0.75373689      -0.13492218
C       -0.14015004      -0.59755965       1.42504838      -0.48103246      -0.32308105      -0.79874980
C       -0.13896022       0.76719316       0.64265657       1.22812458      -1.02345407      -0.92700856
C        1.06973919       0.93833972      -0.32048735      -0.76976293       1.25517873      -0.41039208
H        3.71237221      -0.18274870       1.08890930       0.47347427      -0.04814411       0.32890175
H        0.52125538       3.09869278      -0.67322432      -0.08821049      -0.77151674      -0.41137878
H        1.74448301       2.45768631      -1.72362409       0.53537786      -0.01510104      -0.44684842
H        0.07675378       1.93189871      -2.03222381       0.35780816       0.44722447       0.59089370
H        2.21493950       1.63366846       1.33706179       0.12503025      -0.06967270       0.16971617
H        3.11690274       1.60158805      -0.18918416      -0.28814804       0.05725260       0.03915431
H        0.18102506      -1.43144353       0.74706803      -0.30836371       0.89805125       0.41044380
H        1.08777228       0.05877493      -0.97008559       0.12305015       0.06665293       0.24595578
