21
Properties=species:S:1:pos:R:3:forces:R:3 id=28544 bond=C-C smiles="[H:15][C:8]([H:16])([H:17])[C:13]([H:21])([C:10]([H:18])([H:19])[O:7][H:14])[C:12]([C:11]([H:20])([C:9]([F:1])([F:2])[F:3])[F:4])([F:5])[F:6]" dataset=PubChem energy=-24711.574599003354 pbc="F F F"
F       -1.99923254      -0.51261857       3.07027870       0.39620595      -0.66732564      -0.28443858
F       -1.39536453      -2.62636157       3.13044387       0.38384503       0.84935636      -0.24440657
F       -2.31108070      -1.83187719       1.34622225       0.88714536       0.38827372       0.65225506
F        0.82410982      -1.06838902       2.85536247       0.22120915       0.11235943       0.68696209
F       -0.19211102       1.31866888       1.81386661       0.34157623      -0.00626740       0.94975470
F       -1.11342430       0.20147515       0.25863147      -1.49757128      -0.24300080      -0.91821989
O        2.97857236      -0.79251411       1.04839217      -0.84416970       0.36342996      -0.30708842
C        0.71355288       2.72808863      -1.64858462      -0.81091300       0.27664714       0.36232462
C       -1.44184685      -1.51430532       2.35474568      -1.11512710      -0.25442526      -0.18536141
C        2.47727227       0.54353503       0.80977110       0.66076682       0.17933624      -0.63293868
C       -0.03474796      -1.12717923       1.81805676      -0.28147454      -0.44740840      -0.81457307
C       -0.03355814       0.23757358       1.03566495       1.03985416       0.14826646      -1.65667080
C        1.17514127       0.40872014       0.07252103      -0.54151610       0.21597946       0.62443280
H        3.81777429      -0.71236828       1.48191768       0.51083340       0.01004125       0.30877279
H        0.41585330       3.62831236      -1.06623270      -0.08565308      -1.28710908       0.22400422
H        1.63908093       2.98730589      -2.11663247       0.93330316      -0.68271832       0.04540159
H       -0.02864830       2.46151829      -2.42523219       0.33371228      -0.43574135       0.98239991
H        2.32034158       1.10404888       1.73007017       0.09244292      -0.10128729       0.12502075
H        3.22230482       1.07196847       0.20382422      -0.26322025       0.06392954       0.06915093
H        0.28642714      -1.96106311       1.14007641      -0.31944869       0.87726179       0.42194063
H        1.19317436      -0.47084465      -0.57707721      -0.03325846       0.63291841      -0.40266063
