29
Properties=species:S:1:pos:R:3:forces:R:3 id=27571 bond=C-S smiles="[H:22][C:5]1([C:8]2([C:7]([C:11]([C:9]1([C:6]([C:10]2([C:2]([H:13])([H:14])[H:15])[S:1][H:12])([H:24])[H:25])[H:29])([C:3]([H:16])([H:17])[H:18])[C:4]([H:19])([H:20])[H:21])([H:26])[H:27])[H:28])[H:23]" dataset=PubChem energy=-21504.56852441991 pbc="F F F"
S        0.43919113      -2.10276491       3.00414009       0.02965120       1.45752933      -0.63031037
C       -2.40695496       0.37243425       1.46917614       0.86100336      -1.61104124       0.87325223
C        2.09260897       2.52880286      -1.29715052       0.21509952       0.85710229       0.69798074
C        2.19672839       0.13712155      -0.95019450      -0.11860592      -0.37870108       0.74818640
C       -0.73369963       2.37995278      -0.19713094      -1.40874651      -1.08447478      -0.68526767
C       -0.84261818       0.01315259      -0.49292257       1.65710815      -0.90710058       0.01242231
C        1.20016890       1.63931023       0.91976139       0.58385738      -0.82294178      -0.65010478
C       -0.30807651       1.68107467       1.08900080       0.36736187       0.08948851       2.32269007
C       -0.11563380       1.28478432      -1.05445125       0.25681302      -0.20787630      -0.36151168
C       -0.95672901       0.30526315       1.00309047      -1.86212717       2.23502215      -1.72558791
C        1.38180356       1.39172425      -0.60413047      -0.20305920      -1.12666849      -0.69052222
H        1.52577060      -1.44935900       3.53679390      -0.71435429      -0.27644088      -0.41099885
H       -2.93256350      -0.56607688       1.35825917       0.06048183      -0.35791698      -0.09039869
H       -2.45650811       0.63638201       2.50350198      -0.05654765       0.25116999       0.64732356
H       -2.99393220       1.08536336       0.90676120       0.32988711       0.44350099      -0.40617823
H        3.17181043       2.47764527      -1.10983815      -0.24256100      -0.00406560      -0.01566206
H        1.75512151       3.48266874      -0.89594665       0.04540649       0.16600385      -0.19399046
H        1.93791382       2.53046070      -2.35712590      -0.08435827      -0.08808098      -0.62446657
H        3.23126583       0.27182018      -0.60034653      -0.35905428      -0.17513845      -0.02401848
H        1.77492814      -0.76216448      -0.47484031       0.31577778       0.29001481      -0.13178398
H        2.24507003      -0.03409959      -2.02353206      -0.11296313       0.08331402      -0.08404352
H       -1.83193250       2.44370424      -0.36277058       0.72910321       0.09582088       0.32896477
H       -0.28306623       3.34444701      -0.35408419       0.11289999       0.27132974       0.22835784
H       -1.83010311      -0.09937275      -0.91132619      -0.41086700       0.08693429      -0.06669278
H       -0.33966614      -0.94345153      -0.71546146      -0.03212957       0.50143185       0.07619469
H        1.68754797       0.83758557       1.46295366      -0.19781823      -0.04509739       0.34856784
H        1.64528255       2.57088100       1.21326933       0.15970242       0.45114077       0.16653889
H       -0.61372085       2.21244131       1.97283992      -0.04461956       0.04008909       0.51931646
H       -0.26510043       1.42716016      -2.11890735       0.12408540      -0.23339199      -0.17817925
