29
Properties=species:S:1:pos:R:3:forces:R:3 id=27571 bond=C-S smiles="[H:22][C:5]1([C:8]2([C:7]([C:11]([C:9]1([C:6]([C:10]2([C:2]([H:13])([H:14])[H:15])[S:1][H:12])([H:24])[H:25])[H:29])([C:3]([H:16])([H:17])[H:18])[C:4]([H:19])([H:20])[H:21])([H:26])[H:27])[H:28])[H:23]" dataset=PubChem energy=-21504.868808221618 pbc="F F F"
S        0.40568905      -2.04497224       2.95611490      -0.05694247       1.58704332      -0.75212475
C       -2.37345288       0.31464158       1.51720133       0.82668554      -1.55172188       0.82315634
C        2.12611105       2.47101019      -1.24912533       0.21609776       0.85619262       0.69857424
C        2.23023047       0.07932888      -0.90216931      -0.11850733      -0.38003015       0.74866129
C       -0.70019755       2.32216011      -0.14910575      -1.39850710      -1.07671305      -0.66510566
C       -0.80911610      -0.04464008      -0.44489738       1.64132812      -0.90408395      -0.01733255
C        1.23367098       1.58151756       0.96778658       0.56308260      -0.81805104      -0.64439527
C       -0.27457443       1.62328200       1.13702599       0.36082554       0.12011397       2.27419899
C       -0.08213172       1.22699165      -1.00642606       0.24348599      -0.20977940      -0.36389792
C       -0.92322693       0.24747048       1.05111566      -1.69283971       1.96947341      -1.48378559
C        1.41530564       1.33393158      -0.55610528      -0.20684826      -1.12692385      -0.68890039
H        1.49226852      -1.39156633       3.48876871      -0.72011330      -0.26112017      -0.42149300
H       -2.89906142      -0.62386955       1.40628436       0.06556844      -0.35965675      -0.08819667
H       -2.42300603       0.57858934       2.55152717      -0.05121209       0.24600157       0.64642394
H       -2.96043012       1.02757069       0.95478639       0.32175878       0.43677844      -0.39739344
H        3.20531251       2.41985260      -1.06181296      -0.24060655      -0.00376723      -0.01556579
H        1.78862359       3.42487607      -0.84792146       0.04451745       0.16538159      -0.19371766
H        1.97141590       2.47266803      -2.30910071      -0.08481005      -0.08791779      -0.62504497
H        3.26476791       0.21402751      -0.55232134      -0.35598836      -0.17363982      -0.02431874
H        1.80843022      -0.81995715      -0.42681512       0.31166666       0.29176035      -0.13072258
H        2.27857211      -0.09189226      -1.97550687      -0.11254126       0.08322340      -0.08497051
H       -1.79843042       2.38591157      -0.31474539       0.73049851       0.09647138       0.32567218
H       -0.24956415       3.28665434      -0.30605900       0.11135663       0.27253512       0.22248850
H       -1.79660103      -0.15716542      -0.86330100      -0.40678352       0.09920474      -0.07630956
H       -0.30616406      -1.00124420      -0.66743627      -0.03449423       0.51193866       0.08439503
H        1.72105005       0.77979290       1.51097885      -0.19989054      -0.04729053       0.34515255
H        1.67878463       2.51308833       1.26129452       0.16343958       0.45387207       0.16435185
H       -0.58021877       2.15464864       2.02086511      -0.04449153       0.04196359       0.52063970
H       -0.23159835       1.36936749      -2.07088216       0.12585117      -0.22939417      -0.17997732
