29
Properties=species:S:1:pos:R:3:forces:R:3 id=27571 bond=C-S smiles="[H:22][C:5]1([C:8]2([C:7]([C:11]([C:9]1([C:6]([C:10]2([C:2]([H:13])([H:14])[H:15])[S:1][H:12])([H:24])[H:25])[H:29])([C:3]([H:16])([H:17])[H:18])[C:4]([H:19])([H:20])[H:21])([H:26])[H:27])[H:28])[H:23]" dataset=PubChem energy=-21507.654682357486 pbc="F F F"
S        0.07066821      -1.46704550       2.47586299       3.73456694      -4.54549950       4.41382960
C       -2.03843204      -0.26328516       1.99745324      -0.82744022       0.47265019      -0.68715888
C        2.46113189       1.89308345      -0.76887342       0.25008270       0.84131921       0.72879783
C        2.56525131      -0.49859786      -0.42191740      -0.07662187      -0.36654785       0.76219280
C       -0.36517671       1.74423337       0.33114616      -1.17068041      -0.82177175      -0.37216214
C       -0.47409526      -0.62256682       0.03535453       0.81568664      -0.02706005      -1.15233698
C        1.56869182       1.00359082       1.44803849       0.33494581      -0.63113286      -0.69110904
C        0.06044641       1.04535526       1.61727790      -0.18669309       1.39317504       0.84723832
C        0.25288912       0.64906491      -0.52617415       0.03395883      -0.21398069      -0.47041839
C       -0.58820609      -0.33045626       1.53136757      -2.30520646       3.45814156      -2.56223317
C        1.75032648       0.75600484      -0.07585337      -0.27701420      -1.13563301      -0.70135916
H        1.15724768      -0.81363959       3.00851680      -0.88135746      -0.60080717      -0.30666039
H       -2.56404058      -1.20179629       1.88653627       0.13445676      -0.43723579      -0.07096304
H       -2.08798519       0.00066260       3.03177908       0.05244031       0.20447461       0.63743676
H       -2.62540928       0.44964395       1.43503830      -0.05511304       0.33206699      -0.22010119
H        3.54033335       1.84192586      -0.58156105      -0.21699305       0.00109443      -0.01829278
H        2.12364443       2.84694933      -0.36766955       0.03264250       0.15432030      -0.19480588
H        2.30643674       1.89474129      -1.82884880      -0.09653648      -0.09111216      -0.61973934
H        3.59978875      -0.36389923      -0.07206943      -0.32151405      -0.16038675      -0.03221467
H        2.14345106      -1.39788389       0.05343679       0.28291414       0.30029172      -0.16062216
H        2.61359295      -0.66981900      -1.49525496      -0.11704631       0.07218325      -0.07662061
H       -1.46340958       1.80798483       0.16550652       0.74431414       0.07965188       0.32441662
H        0.08545669       2.70872760       0.17419291       0.06825621       0.30640286       0.08552088
H       -1.46158019      -0.73509216      -0.38304909      -0.33799561       0.26672192      -0.34369847
H        0.02885678      -1.57917094      -0.18718436      -0.03092296       0.59651073       0.19432530
H        2.05607089       0.20186616       1.99123076       0.11990724       0.22620438       0.12026209
H        2.01380547       1.93516159       1.74154643       0.19267074       0.42734060       0.19306499
H       -0.24519793       1.57672190       2.50111702      -0.07138696       0.05003087       0.58292791
H        0.10342249       0.79144075      -1.59063025       0.17831098      -0.14966692      -0.20902464
