29
Properties=species:S:1:pos:R:3:forces:R:3 id=27571 bond=C-S smiles="[H:22][C:5]1([C:8]2([C:7]([C:11]([C:9]1([C:6]([C:10]2([C:2]([H:13])([H:14])[H:15])[S:1][H:12])([H:24])[H:25])[H:29])([C:3]([H:16])([H:17])[H:18])[C:4]([H:19])([H:20])[H:21])([H:26])[H:27])[H:28])[H:23]" dataset=PubChem energy=-21504.261174647752 pbc="F F F"
S        0.47827690      -2.17018969       3.06016948       0.11828252       1.32320438      -0.50438402
C       -2.44604073       0.43985903       1.41314675       0.89413869      -1.66631663       0.91929077
C        2.05352320       2.59622764      -1.35317991       0.21387074       0.85787609       0.69792085
C        2.15764262       0.20454633      -1.00622389      -0.11781825      -0.37705812       0.74779709
C       -0.77278540       2.44737756      -0.25316033      -1.41798476      -1.09093186      -0.70477679
C       -0.88170395       0.08057737      -0.54895196       1.66957790      -0.90726882       0.04229263
C        1.16108313       1.70673501       0.86373200       0.60451133      -0.82774521      -0.65536090
C       -0.34716228       1.74849945       1.03297141       0.36933782       0.06161007       2.36678995
C       -0.15471957       1.35220910      -1.11048064       0.27038640      -0.20580712      -0.36005164
C       -0.99581478       0.37268793       0.94706108      -2.02510905       2.49400928      -1.96078060
C        1.34271779       1.45914903      -0.66015986      -0.19946841      -1.12600352      -0.69211912
H        1.56485637      -1.51678378       3.59282329      -0.70907227      -0.29314469      -0.40030736
H       -2.97164927      -0.49865210       1.30222978       0.05440317      -0.35657225      -0.09279627
H       -2.49559388       0.70380679       2.44747259      -0.06260875       0.25696592       0.64862016
H       -3.03301797       1.15278814       0.85073181       0.33621475       0.44996617      -0.41396801
H        3.13272466       2.54507005      -1.16586754      -0.24448360      -0.00440947      -0.01563696
H        1.71603574       3.55009352      -0.95197604       0.04606974       0.16651120      -0.19416247
H        1.89882805       2.59788548      -2.41315529      -0.08398825      -0.08830023      -0.62370687
H        3.19218006       0.33924496      -0.65637592      -0.36216014      -0.17675719      -0.02377728
H        1.73584237      -0.69473970      -0.53086970       0.32015097       0.28796166      -0.13363984
H        2.20598426       0.03332519      -2.07956145      -0.11350759       0.08304079      -0.08269814
H       -1.87101827       2.51112902      -0.41879997       0.72803279       0.09539873       0.33231189
H       -0.32215200       3.41187179      -0.41011358       0.11484127       0.27034848       0.23365720
H       -1.86918888      -0.03194797      -0.96735558      -0.41478225       0.07449069      -0.05806485
H       -0.37875191      -0.87602675      -0.77149085      -0.02958323       0.49011564       0.06675251
H        1.64846220       0.90501035       1.40692427      -0.19313537      -0.04047293       0.35059435
H        1.60619678       2.63830578       1.15723994       0.15632605       0.44781901       0.16916866
H       -0.65280662       2.27986609       1.91681053      -0.04484392       0.03891573       0.51816453
H       -0.30418620       1.49458494      -2.17493674       0.12251528      -0.23724295      -0.17633758
