29
Properties=species:S:1:pos:R:3:forces:R:3 id=27571 bond=C-S smiles="[H:22][C:5]1([C:8]2([C:7]([C:11]([C:9]1([C:6]([C:10]2([C:2]([H:13])([H:14])[H:15])[S:1][H:12])([H:24])[H:25])[H:29])([C:3]([H:16])([H:17])[H:18])[C:4]([H:19])([H:20])[H:21])([H:26])[H:27])[H:28])[H:23]" dataset=PubChem energy=-21505.08975135753 pbc="F F F"
S        0.38335433      -2.00644379       2.92409810      -0.12019669       1.68043563      -0.84026871
C       -2.35111816       0.27611313       1.54921813       0.80009457      -1.50465371       0.78313766
C        2.14844577       2.43248174      -1.21710853       0.21695314       0.85535926       0.69918795
C        2.25256519       0.04080043      -0.87015251      -0.11783054      -0.38043233       0.74901747
C       -0.67786283       2.28363166      -0.11708895      -1.39060061      -1.07024666      -0.64972623
C       -0.78678138      -0.08316853      -0.41288058       1.62788294      -0.90006928      -0.03971143
C        1.25600570       1.54298911       0.99980338       0.54764573      -0.81451564      -0.64000429
C       -0.25223971       1.58475355       1.16904279       0.35321202       0.14469345       2.23535328
C       -0.05979700       1.18846320      -0.97440926       0.23338290      -0.21110103      -0.36617647
C       -0.90089221       0.20894203       1.08313246      -1.56340518       1.76746714      -1.29923773
C        1.43764036       1.29540313      -0.52408848      -0.20982352      -1.12672672      -0.68782259
H        1.46993380      -1.35303788       3.45675191      -0.72486961      -0.25054819      -0.42922419
H       -2.87672670      -0.66239800       1.43830116       0.06883466      -0.36122096      -0.08665473
H       -2.40067131       0.54006089       2.58354397      -0.04763100       0.24251212       0.64599050
H       -2.93809540       0.98904224       0.98680319       0.31476390       0.43174704      -0.39049497
H        3.22764723       2.38132415      -1.02979616      -0.23915126      -0.00351915      -0.01550502
H        1.81095831       3.38634762      -0.81590466       0.04388337       0.16485178      -0.19356655
H        1.99375062       2.43413958      -2.27708391      -0.08513158      -0.08782177      -0.62534747
H        3.28710263       0.17549906      -0.52030454      -0.35373886      -0.17261703      -0.02455546
H        1.83076494      -0.85848560      -0.39479832       0.30851887       0.29278266      -0.12999251
H        2.30090683      -0.13042071      -1.94349007      -0.11230597       0.08293447      -0.08543773
H       -1.77609570       2.34738312      -0.28272859       0.73139117       0.09671910       0.32349446
H       -0.22722943       3.24812589      -0.27404220       0.10996326       0.27354830       0.21776588
H       -1.77426631      -0.19569387      -0.83128420      -0.40365512       0.10826369      -0.08400656
H       -0.28382934      -1.03977265      -0.63541947      -0.03608583       0.51931241       0.08979821
H        1.74338477       0.74126445       1.54299565      -0.19985069      -0.04779425       0.34182666
H        1.70111935       2.47455988       1.29331132       0.16646254       0.45544709       0.16305134
H       -0.55788405       2.11612019       2.05288191      -0.04444434       0.04373455       0.52176137
H       -0.20926363       1.33083904      -2.03886536       0.12722878      -0.22636547      -0.18125345
