37
Properties=species:S:1:pos:R:3:forces:R:3 id=35640 bond=C-C smiles="[H:28][c:11]1[c:10]([c:13]([c:12]([c:14]2[c:15]1[N:16]([C:9](=[C:8]2[O:5][C@@:21]3([C@@:20]([C@:22]([C@:19]([C@:18]([O:6]3)([H:33])[C:17]([H:30])([H:31])[H:32])([H:34])[O:3][H:23])([H:37])[O:7][H:25])([H:35])[O:4][H:24])[H:36])[H:26])[H:29])[Cl:1])[Br:2])[H:27]" dataset=PubChem energy=-109075.3535529945 pbc="F F F"
Cl      -1.81925548       1.95039417       2.19299507       0.00480073       0.20923581      -0.90068073
Br      -4.91682614       2.34842827       1.67429102       0.19934228       0.09768728      -1.11102477
O        2.61643730      -1.34183214       3.45818615       0.25169025       0.12009987       0.68969743
O       -0.56586648      -0.71405421       0.74844146       0.76964450       0.90321346       0.38240933
O        0.79843603       1.79078747       0.56619175       0.79963157      -0.38561724      -0.13647747
O        2.78652440       0.86413755       1.30609262      -1.22521482      -1.58504266      -0.56881088
O        0.80793716      -2.77202437       2.13893306      -0.05759846       0.30735716      -0.57920720
C        0.06456726       1.99723913      -0.56368959       0.13032535      -0.08606721      -0.44163106
C        0.49567626       2.04619398      -1.86367678      -0.97717853       0.30653765       1.12512747
C       -4.05080737       2.49550654      -1.12073600       0.08261817      -0.03996365      -1.45663184
C       -3.10345067       2.45234241      -2.16696643      -1.33367391       0.19999248       0.14918656
C       -2.30386056       2.18028285       0.50975204      -0.59634917       0.11515654      -0.08151351
C       -3.66467560       2.35160722       0.18762130       1.26379257      -0.24454476       2.00314446
C       -1.36584712       2.17403652      -0.54496550       0.59757011      -0.12534775       1.85382567
C       -1.76696886       2.32841517      -1.85925746       0.36240096      -0.14709044      -1.09802427
N       -0.63559128       2.25803484      -2.67133283       0.69120204      -0.08152492      -0.73139286
C        4.83140605       0.14522460       2.27511577      -0.03127824      -0.43116785      -1.29780055
C        3.60442482      -0.34459684       1.43420088       1.62719066       1.11974784       0.74940713
C        2.94608651      -1.56568549       2.10882366      -1.52164547       0.30108405       0.12376435
C        0.74406354      -0.50333760       1.34058416       0.79894220       0.62640525      -0.54130656
C        1.55757557       0.58536095       0.58670505       0.51188176      -0.25738470       0.87347854
C        1.60092054      -1.78954075       1.41913259      -1.53914394      -0.87376456      -1.24612533
H        1.90095864      -1.97393272       3.64785242       0.33962395       0.36073356       0.03018165
H       -1.06340779       0.15208636       0.79900068       0.98308848      -1.65727197       0.14619492
H       -0.10464663      -2.72794888       1.77191794       1.04712416       0.08568200       0.41697489
H        1.53823851       2.00728871      -2.14649439      -0.40625424      -0.01862460      -0.58048628
H       -5.11074627       2.61582734      -1.31479120       0.23234013      -0.03570795      -0.22881884
H       -3.41861046       2.49391319      -3.20235228      -0.12702443       0.13434567       0.14738733
H       -0.57812680       2.28681352      -3.70092105      -0.41101781       0.01595034       1.34228083
H        5.28759092       1.04808255       1.86426715      -0.29839351      -0.13126722      -0.27925506
H        4.52412646       0.39011541       3.26129107      -0.33942130      -0.03598112       0.85618217
H        5.62314218      -0.61098919       2.29827503      -0.30564061      -0.02176159       0.10146530
H        3.97664104      -0.65682934       0.43320708      -0.45222857       0.14255066       0.41493062
H        3.58379541      -2.47170088       2.06269122      -0.14829827       0.56809857      -0.51081110
H        0.67569061      -0.14980797       2.36117482      -0.36589324       0.17563717       0.21647608
H        1.82685850       0.25559550      -0.42635929      -0.26954744       0.16023926       0.06666231
H        1.81991159      -2.19042442       0.41469722      -0.28385272       0.21094595       0.09730915
