37
Properties=species:S:1:pos:R:3:forces:R:3 id=35640 bond=C-C smiles="[H:28][c:11]1[c:10]([c:13]([c:12]([c:14]2[c:15]1[N:16]([C:9](=[C:8]2[O:5][C@@:21]3([C@@:20]([C@:22]([C@:19]([C@:18]([O:6]3)([H:33])[C:17]([H:30])([H:31])[H:32])([H:34])[O:3][H:23])([H:37])[O:7][H:25])([H:35])[O:4][H:24])[H:36])[H:26])[H:29])[Cl:1])[Br:2])[H:27]" dataset=PubChem energy=-109074.83401835269 pbc="F F F"
Cl      -1.89143084       1.92158115       2.14352949       0.00497013       0.20916386      -0.90111419
Br      -4.98900150       2.31961525       1.62482544       0.19970549       0.09767514      -1.11133011
O        2.54426194      -1.37064516       3.40872057       0.23240852       0.10667742       0.68814377
O       -0.63804184      -0.74286723       0.69897588       0.77109725       0.90307973       0.38127634
O        0.72626067       1.76197445       0.51672617       0.81563978      -0.39188816      -0.12456438
O        2.71434904       0.83532453       1.25662704      -0.87945988      -1.63157449      -0.39612093
O        0.73576180      -2.80083739       2.08946748      -0.04455673       0.30794402      -0.57642883
C       -0.00760810       1.96842611      -0.61315517       0.13048387      -0.08625801      -0.44955773
C        0.42350090       2.01738096      -1.91314236      -0.97762323       0.30679604       1.12439238
C       -4.12298273       2.46669352      -1.17020158       0.08311837      -0.03987673      -1.45670066
C       -3.17562603       2.42352939      -2.21643201      -1.33414907       0.19993787       0.14890406
C       -2.37603592       2.15146983       0.46028646      -0.59641698       0.11556123      -0.08055420
C       -3.73685096       2.32279420       0.13815572       1.26344804      -0.24460686       2.00364049
C       -1.43802248       2.14522350      -0.59443108       0.59666827      -0.12593049       1.85512824
C       -1.83914422       2.29960215      -1.90872304       0.36284746      -0.14706718      -1.09759158
N       -0.70776664       2.22922182      -2.72079841       0.69263582      -0.08203982      -0.73009291
C        4.90358141       0.17403762       2.32458135      -1.58147718      -1.05407591      -2.37006464
C        3.53224946      -0.37340986       1.38473530       2.89808724       1.74299633       1.75589724
C        2.87391115      -1.59449851       2.05935808      -1.24993965       0.45718425       0.27421008
C        0.67188818      -0.53215062       1.29111858       0.79190993       0.62763621      -0.53824561
C        1.48540021       0.55654793       0.53723947       0.49255799      -0.29561071       0.85219831
C        1.52874518      -1.81835377       1.36966701      -1.55820820      -0.84610911      -1.28076348
H        1.82878328      -2.00274574       3.59838684       0.34058650       0.35760245       0.03809115
H       -1.13558315       0.12327334       0.74953510       0.98246334      -1.65722799       0.14681277
H       -0.17682199      -2.75676190       1.72245236       1.04713818       0.08826661       0.41379316
H        1.46606315       1.97847569      -2.19595997      -0.40609641      -0.01841840      -0.58050952
H       -5.18292163       2.58701432      -1.36425678       0.23254331      -0.03571386      -0.22881708
H       -3.49078582       2.46510017      -3.25181786      -0.12686939       0.13434809       0.14759652
H       -0.65030216       2.25800050      -3.75038663      -0.41079487       0.01601091       1.34228993
H        5.35976628       1.07689557       1.91373273      -0.44598880      -0.14752680      -0.40789408
H        4.59630182       0.41892843       3.31075665      -0.55079501      -0.11361758       0.75827923
H        5.69531754      -0.58217617       2.34774061      -0.44029953      -0.09315651      -0.01134513
H        3.90446568      -0.68564236       0.38374150      -0.25932349       0.22905339       0.54496582
H        3.51162005      -2.50051390       2.01322564      -0.15028543       0.57060222      -0.51506022
H        0.60351525      -0.17862099       2.31170924      -0.36419202       0.17492534       0.21576174
H        1.75468314       0.22678248      -0.47582487      -0.26948075       0.15909889       0.06328494
H        1.74773623      -2.21923744       0.36523164      -0.28788951       0.20835496       0.09811967
