26
Properties=species:S:1:pos:R:3:forces:R:3 id=32015 bond=C-C smiles="[H:18][C:8]1([C:9]([C:11]([C:14]2([C:13]([C:10]1([H:22])[H:23])([S:5][C:7]([C:12]2([F:3])[F:4])([F:1])[F:2])[H:26])[C:6]([H:15])([H:16])[H:17])([H:24])[H:25])([H:20])[H:21])[H:19]" dataset=PubChem energy=-31244.517461812073 pbc="F F F"
F       -1.54532138       3.74364616       1.77615941       0.80209699       0.05882091       0.15109800
F        0.62108858       4.00959088       1.39147062      -0.54609260      -0.39970512       0.45273177
F       -1.32297877       1.36588921       2.63149584       0.20455483       0.53120114      -0.28554086
F        0.68783132       2.09149744       3.15551389      -0.65103774      -0.31287779      -1.15040630
S       -0.67168645       2.67396809      -0.42850088       0.15217691       0.30424697      -0.33554221
C        0.10770120      -1.33031687       1.93930832       1.64683740       1.71242318      -1.28697799
C       -0.41501818       3.12533190       1.31538565      -0.83811483       0.73588212      -1.20243354
C        1.41951474       0.38160967      -1.70222961       1.09857551       0.45989673      -0.37529969
C        2.34361990       0.22715374      -0.48947262       0.33415457       0.39589121      -0.10357588
C       -0.00022284       0.05501999      -1.34922885      -0.47755232       1.24042173      -0.93992719
C        1.86875840       1.03732479       0.72482035      -0.36360316      -1.77755448       0.50196679
C       -0.16401796       1.83567490       2.08189142       1.06209035      -2.38494256       1.19075537
C       -0.50271849       0.88481357      -0.15648203       0.01764784      -1.17551015       0.37012338
C        0.37482427       0.73845237       1.07747812       0.62260213      -0.93477676       1.40237320
H       -0.91038517      -1.64260123       1.87243143      -0.75723678       0.47077923      -0.11583398
H        0.72255934      -2.08624122       1.39660440      -0.25515729       1.13112266      -0.02052230
H        0.46559816      -1.31376550       2.96299950      -0.11274201       0.55098835      -0.01789741
H        1.81199081      -0.23478876      -2.53687607      -0.42210344       0.23976578       0.45946511
H        1.48586448       1.44010122      -2.05745923      -0.07486651      -0.75530190       0.29893982
H        2.50863333      -0.81290291      -0.19216542      -0.24684330       0.04767612      -0.22380243
H        3.31377490       0.62867818      -0.79699885       0.03937577      -0.19341006       0.23190020
H       -0.09727124      -0.99007795      -1.14263129      -0.16032945      -0.59990431       0.47550612
H       -0.62791280       0.24656864      -2.23672282       0.01646867      -0.03362300       0.44464862
H        1.99941524       2.07474949       0.48783543      -0.11590108       0.63191077       0.10496719
H        2.51280960       0.78278788       1.58209861      -0.37533803       0.31526991      -0.25768858
H       -1.48952691       0.54443266       0.06982035      -0.59551607      -0.27299200       0.24237825
