26
Properties=species:S:1:pos:R:3:forces:R:3 id=32015 bond=C-C smiles="[H:18][C:8]1([C:9]([C:11]([C:14]2([C:13]([C:10]1([H:22])[H:23])([S:5][C:7]([C:12]2([F:3])[F:4])([F:1])[F:2])[H:26])[C:6]([H:15])([H:16])[H:17])([H:24])[H:25])([H:20])[H:21])[H:19]" dataset=PubChem energy=-31245.504051337426 pbc="F F F"
F       -1.55895011       3.63809671       1.82013034       0.79339075       0.07174487       0.15600121
F        0.60745985       3.90404143       1.43544155      -0.54532945      -0.39217286       0.46025825
F       -1.33660750       1.26033976       2.67546677       0.20052060       0.51782978      -0.27889412
F        0.67420259       1.98594799       3.19948482      -0.64756234      -0.32725030      -1.12783352
S       -0.68531518       2.56841864      -0.38452995       0.13857535       0.28483951      -0.34798222
C        0.12132993      -1.22476742       1.89533739       1.71922947       2.29972601      -1.47005685
C       -0.42864691       3.01978245       1.35935658      -0.83636306       0.71928974      -1.20640103
C        1.40588601       0.27606022      -1.65825868       1.10022290       0.45923382      -0.37688485
C        2.32999117       0.12160429      -0.44550169       0.32958145       0.39469230      -0.10026654
C       -0.01385157      -0.05052946      -1.30525792      -0.47682403       1.24330843      -0.92913125
C        1.85512967       0.93177534       0.76879128      -0.35748149      -1.58707364       0.44547569
C       -0.17764669       1.73012545       2.12586235       1.08884480      -2.24210232       1.06084117
C       -0.51634722       0.77926412      -0.11251110       0.03282957      -0.94255731       0.28699879
C        0.36119554       0.63290292       1.12144905       0.51285681      -1.59630298       1.65569241
H       -0.89675644      -1.53705178       1.82846050      -0.72645988       0.34387167      -0.04437533
H        0.73618807      -1.98069177       1.35263347      -0.28749582       1.05353278       0.05054481
H        0.47922689      -1.20821605       2.91902857      -0.14153494       0.38388200       0.01782141
H        1.79836208      -0.34033821      -2.49290514      -0.42221424       0.23954864       0.45888929
H        1.47223575       1.33455177      -2.01348830      -0.07641350      -0.75553297       0.30162040
H        2.49500460      -0.91845236      -0.14819449      -0.23352293       0.04736409      -0.23954524
H        3.30014617       0.52312873      -0.75302792       0.03846492      -0.19875434       0.23410653
H       -0.11089997      -1.09562740      -1.09866036      -0.16051661      -0.60553310       0.46009409
H       -0.64154153       0.14101919      -2.19275189       0.01564007      -0.03954059       0.44729352
H        1.98578651       1.96920004       0.53180636      -0.08683027       0.60730412       0.10104317
H        2.49918087       0.67723843       1.62606954      -0.37493452       0.30356892      -0.25100676
H       -1.50315564       0.43888321       0.11379128      -0.59852732      -0.28280456       0.24850173
