26
Properties=species:S:1:pos:R:3:forces:R:3 id=32015 bond=C-C smiles="[H:18][C:8]1([C:9]([C:11]([C:14]2([C:13]([C:10]1([H:22])[H:23])([S:5][C:7]([C:12]2([F:3])[F:4])([F:1])[F:2])[H:26])[C:6]([H:15])([H:16])[H:17])([H:24])[H:25])([H:20])[H:21])[H:19]" dataset=PubChem energy=-31245.40370629255 pbc="F F F"
F       -1.55758723       3.64865166       1.81573325       0.79415338       0.07054734       0.15587063
F        0.60882273       3.91459638       1.43104446      -0.54537855      -0.39292929       0.45961457
F       -1.33524462       1.27089471       2.67106968       0.19987942       0.51947143      -0.27882726
F        0.67556547       1.99650294       3.19508773      -0.64776103      -0.32533705      -1.12989458
S       -0.68395230       2.57897359      -0.38892704       0.13864184       0.28941878      -0.34867337
C        0.11996705      -1.23532237       1.89973448       1.71243854       2.24586336      -1.45437248
C       -0.42728403       3.03033740       1.35495949      -0.83681445       0.72192793      -1.20617480
C        1.40724889       0.28661517      -1.66265577       1.10013002       0.45924813      -0.37679838
C        2.33135405       0.13215924      -0.44989878       0.33060968       0.39457531      -0.10093918
C       -0.01248869      -0.03997451      -1.30965501      -0.47711404       1.24281976      -0.93090038
C        1.85649255       0.94233029       0.76439419      -0.35759468      -1.60791785       0.45189120
C       -0.17628381       1.74068040       2.12146526       1.08585273      -2.25901028       1.07559016
C       -0.51498434       0.78981907      -0.11690819       0.03054402      -0.96869640       0.29672510
C        0.36255842       0.64345787       1.11705196       0.52570859      -1.53795018       1.63495369
H       -0.89811932      -1.54760673       1.83285759      -0.72970881       0.35898815      -0.05273043
H        0.73482519      -1.99124672       1.35703056      -0.28362859       1.06295777       0.04224949
H        0.47786401      -1.21877100       2.92342566      -0.13868872       0.40305490       0.01312703
H        1.79972496      -0.32978326      -2.49730223      -0.42220641       0.23958816       0.45895045
H        1.47359863       1.34510672      -2.01788539      -0.07626500      -0.75552891       0.30136189
H        2.49636748      -0.90789741      -0.15259158      -0.23512045       0.04735545      -0.23778312
H        3.30150905       0.53368368      -0.75742501       0.03854109      -0.19823252       0.23383244
H       -0.10953709      -1.08507245      -1.10305745      -0.16044247      -0.60493145       0.46182029
H       -0.64017865       0.15157414      -2.19714898       0.01576142      -0.03893337       0.44699728
H        1.98714939       1.97975499       0.52740927      -0.08997728       0.60974077       0.10144603
H        2.50054375       0.68779338       1.62167245      -0.37493770       0.30485188      -0.25190327
H       -1.50179276       0.44943816       0.10939419      -0.59821448      -0.28182080       0.24766464
