42
Properties=species:S:1:pos:R:3:forces:R:3 id=30277 bond=C-C smiles="[H:20][C:5](=[C:4]([C:8]([H:21])([H:22])[H:23])[C:9]([H:24])([H:25])[H:26])[C@@:18]([H:42])([C:15]([H:39])([H:40])/[C:7](=[C:6]1/[C:12]([C@:16]([C@@:17]([C:14]([C:11]1([H:30])[H:31])([H:37])[H:38])([C:13]([H:34])([H:35])[H:36])[Br:2])([H:41])[Cl:1])([H:32])[H:33])/[C:10]([H:27])([H:28])[H:29])[O:3][H:19]" dataset=PubChem energy=-100575.54893553884 pbc="F F F"
Cl       3.14857937       3.29308989       1.12611894       0.20876901       0.24697959      -0.38994272
Br       3.03952003       0.92719295      -2.72920884      -0.02448063       0.21423499       0.21084976
O       -2.36367915      -0.06247190       3.64018355      -1.23927278      -0.02849804       0.61101221
C       -1.90896033      -1.80626318       0.49525186      -0.28198856       2.04719426       2.84973644
C       -2.13511275      -0.76531789       1.40877120       0.99464560      -2.45694879      -2.37290607
C        1.48761602       0.67035845       0.88525219      -0.30302957      -0.50290887       3.42918655
C        0.99592752       0.48950870       2.18601535       0.54065514       1.12203721      -3.15398543
C       -0.84265600      -2.85404942       0.72653015      -0.40228241       0.08940271      -0.32908948
C       -2.75869368      -1.95076272      -0.72378363      -0.36473570       0.21679333      -0.13914051
C        1.88507081       0.17889447       3.36427055       0.10811586       0.16130968      -0.51513763
C        0.65933548       0.84388682      -0.34425654      -0.63771869       0.60154147      -0.39624193
C        2.98947931       0.67943743       0.58486253      -0.43279352       0.66302760      -0.02199182
C        2.86515024       3.89152338      -2.19918782       0.19994301      -2.89459242       0.45385824
C        1.02216507       2.18871072      -1.06567384       0.37888544      -0.94624955      -0.37451581
C       -0.45854984       0.78822920       2.54404376       0.20828688       0.40252524      -1.57649964
C        3.41665340       2.01531782      -0.11694516      -0.41100010      -0.93408757      -0.24307154
C        2.54473831       2.25394776      -1.36515965      -0.33676869       3.98376030      -1.31749326
C       -1.36316131      -0.42377076       2.67965875      -1.29919588      -0.73585780       0.12653967
H       -3.18511079      -0.60151199       3.55388818       1.34762162       0.52583049      -0.13772451
H       -2.97472929      -0.09489474       1.17604677       0.54233195      -0.05891619       0.19339430
H       -0.08723681      -2.76337287      -0.05039837       0.13986817      -0.13910050      -0.06131557
H       -1.22971677      -3.88410279       0.71063794      -0.09689751       0.37994502      -0.23295627
H       -0.36935603      -2.72658917       1.68020020       0.30627188       0.15383666       0.35269221
H       -2.15181325      -2.00865766      -1.63394250      -0.03447634      -0.17259129       0.17278752
H       -3.41880701      -1.08433399      -0.84507229       0.08042227      -0.23849709       0.08116674
H       -3.38302873      -2.85254666      -0.65200641       0.22438120       0.16279259      -0.15766476
H        1.28617806      -0.31035683       4.11815582      -0.08244116       0.02990277       0.41236367
H        2.37210680       1.08095434       3.78754650      -0.31218577      -0.52574429      -0.19768506
H        2.63314844      -0.54143182       3.05248819       0.31427236       0.07298858       0.17693420
H        0.86048992      -0.03818870      -0.96399154       0.06579123       0.36583266      -0.27617803
H       -0.42772679       0.80688295      -0.17009689       0.53311328       0.09147448       0.19551731
H        3.19091107      -0.15562269      -0.05824758       0.35057836      -0.32237086      -0.51953902
H        3.62565638       0.58821866       1.45507125      -0.17232778      -0.09290482       0.22391510
H        2.33714655       3.95566894      -3.15901500       0.10498365      -0.71361267       0.27518238
H        3.94110349       3.99862053      -2.39100534      -0.32855399      -0.35920583       0.14905222
H        2.54549530       4.75710250      -1.66819125      -0.34338598       0.20163822       1.12428038
H        0.45378785       2.35413041      -1.99677338       0.35121987      -0.40705850       0.30523198
H        0.72221985       3.01137212      -0.42009522       0.36974797       0.04172157       0.17435886
H       -0.92742895       1.51586309       1.81832634       0.53943655      -0.80857960       0.74844101
H       -0.41990016       1.29051140       3.48925720      -0.17349570       0.22350962       0.64430113
H        4.48829032       2.00700190      -0.38639237      -0.66736820       0.09294031       0.25087254
H       -0.82574676      -1.27203819       3.14496170       0.03672574       0.24591982      -0.75084397
