42
Properties=species:S:1:pos:R:3:forces:R:3 id=30277 bond=C-C smiles="[H:20][C:5](=[C:4]([C:8]([H:21])([H:22])[H:23])[C:9]([H:24])([H:25])[H:26])[C@@:18]([H:42])([C:15]([H:39])([H:40])/[C:7](=[C:6]1/[C:12]([C@:16]([C@@:17]([C:14]([C:11]1([H:30])[H:31])([H:37])[H:38])([C:13]([H:34])([H:35])[H:36])[Br:2])([H:41])[Cl:1])([H:32])[H:33])/[C:10]([H:27])([H:28])[H:29])[O:3][H:19]" dataset=PubChem energy=-100576.51204059667 pbc="F F F"
Cl       3.17824714       3.44471727       1.04889411       0.21518540       0.25166078      -0.35871829
Br       3.06918780       1.07882033      -2.80643367       0.00922451      -0.30774855       0.15456437
O       -2.33401138       0.08915548       3.56295872      -1.24031988      -0.02791567       0.61186370
C       -1.87929256      -1.65463580       0.41802703      -0.28262393       2.04759317       2.85128498
C       -2.10544498      -0.61369051       1.33154637       0.99384348      -2.45892271      -2.37281966
C        1.51728379       0.82198583       0.80802736      -0.29600616      -0.49169045       3.41423010
C        1.02559529       0.64113608       2.10879052       0.54181005       1.12327409      -3.15426372
C       -0.81298823      -2.70242204       0.64930532      -0.40229539       0.08958742      -0.32957339
C       -2.72902591      -1.79913534      -0.80100846      -0.36448412       0.21667710      -0.13905933
C        1.91473858       0.33052185       3.28704572       0.10768026       0.15957715      -0.51335952
C        0.68900325       0.99551420      -0.42148137      -0.74156426       0.66338213      -0.40748586
C        3.01914708       0.83106481       0.50763770      -0.35202658       0.71940518       0.02214460
C        2.83548247       3.73989600      -2.12196299       0.93642025      -0.12225354      -1.07085519
C        1.05183284       2.34033810      -1.14289867       0.17838058      -1.49575197      -0.07126805
C       -0.42888207       0.93985658       2.46681893       0.20830720       0.40213008      -1.57595930
C        3.44632117       2.16694520      -0.19416999      -0.54959943      -1.38317477       0.00937121
C        2.57440608       2.40557514      -1.44238448      -1.03644846       1.58542553       0.14362549
C       -1.33349354      -0.27214338       2.60243392      -1.29835334      -0.73517049       0.12509279
H       -3.15544302      -0.44988461       3.47666335       1.34780225       0.52571004      -0.13796280
H       -2.94506152       0.05673264       1.09882194       0.54251423      -0.05875026       0.19322508
H       -0.05756904      -2.61174549      -0.12762320       0.13994217      -0.13870603      -0.06117049
H       -1.20004900      -3.73247541       0.63341311      -0.09705707       0.37971685      -0.23289923
H       -0.33968826      -2.57496179       1.60297537       0.30630981       0.15392607       0.35261816
H       -2.12214548      -1.85703028      -1.71116733      -0.03429918      -0.17249933       0.17282532
H       -3.38913924      -0.93270661      -0.92229712       0.08033761      -0.23833649       0.08124549
H       -3.35336096      -2.70091928      -0.72923124       0.22423460       0.16268947      -0.15776564
H        1.31584583      -0.15872945       4.04093099      -0.08289864       0.03024055       0.41305474
H        2.40177457       1.23258172       3.71032167      -0.31185880      -0.52672521      -0.19681702
H        2.66281621      -0.38980444       2.97526336       0.31390261       0.07425640       0.17646104
H        0.89015769       0.11343868      -1.04121637       0.07056292       0.36924120      -0.28290088
H       -0.39805902       0.95851033      -0.24732172       0.53264861       0.06611731       0.21219526
H        3.22057884      -0.00399531      -0.13547241       0.35047432      -0.31926513      -0.52509862
H        3.65532415       0.73984604       1.37784642      -0.18430250      -0.11608451       0.23456531
H        2.30747878       3.80404156      -3.08179017       0.23207116      -0.28929239       0.20054539
H        3.91143572       3.84699315      -2.31378051      -0.28436379       0.06515599      -0.07010651
H        2.51582753       4.60547512      -1.59096642      -0.26486526       0.37653783       0.96010139
H        0.48345562       2.50575779      -2.07399821       0.36361698      -0.40233660       0.28001347
H        0.75188762       3.16299950      -0.49732005       0.38014651       0.04853683       0.18234457
H       -0.89776118       1.66749047       1.74110151       0.53942491      -0.80935316       0.74799108
H       -0.39023239       1.44213878       3.41203237      -0.17374874       0.22316064       0.64501924
H        4.51795809       2.15862928      -0.46361720      -0.65237562       0.11230827       0.22104861
H       -0.79607899      -1.12041081       3.06773687       0.03678130       0.24605120      -0.75087271
