28
Properties=species:S:1:pos:R:3:forces:R:3 id=4068 bond=C-N smiles="[H:11]/[C:2](=[N:1][N:3]([H:12])[C:8]([H:25])([H:26])[C:10]([H:28])([C:6]([H:19])([H:20])[H:21])[C:7]([H:22])([H:23])[H:24])/[C:9]([H:27])([C:4]([H:13])([H:14])[H:15])[C:5]([H:16])([H:17])[H:18]" dataset=PubChem energy=-11571.346715053556 pbc="F F F"
N        0.08782751       2.47361777       1.66484562       0.03012072      -1.67016421       0.10426124
C       -0.02976605       1.38631293       2.42449626       0.47454702       2.30263387      -1.43316629
N       -0.72164312       2.50784036       0.57422361      -1.32693415      -1.39713215       0.98890823
C        0.07591405       0.76568589       4.84925303      -1.00723587       1.07907816      -1.62454957
C        1.71702966      -0.14532330       3.19148550      -0.00172733      -0.57522832       0.72952260
C        0.94870566      -1.08667056      -2.78703122      -1.64792552      -0.97667154       1.16875990
C        0.93772931       1.34067102      -2.97384553      -0.01812902      -0.52391313      -0.11713421
C       -0.62539248       0.24270556      -1.19073360       1.60795993      -0.32663389      -2.80369365
C        0.89032975       1.08865276       3.55635223      -0.88507321      -0.64864170       0.36444106
C        0.73806380       0.19763964      -1.96250467       0.52210402       0.79593732       0.81389747
H       -0.78288856       0.66070494       2.17643103      -0.19285870      -0.52148952      -0.37441323
H       -0.67936125       3.41981694       0.11948583       1.03547444      -0.48398978      -0.37433147
H        0.71980996       0.38171539       5.57619700       0.95264501      -0.68022817       1.19429495
H       -0.71577397       0.01885376       4.62571916       0.48870451       0.48892129       0.15887988
H       -0.38431194       1.68576357       5.24171385       0.01968798      -0.43420310      -0.14642186
H        1.09886977      -1.05655673       3.15977082       0.12657416       0.34677834      -0.06084303
H        2.48208269      -0.30503311       3.96530804      -0.18608086       0.01019374      -0.24925053
H        2.20680901      -0.02792719       2.24635896       0.29158111       0.05253019      -0.52102198
H        0.91712607      -1.97324281      -2.12520366       0.28817124       0.30740580      -0.41691692
H        1.87017007      -1.03958445      -3.33583598       0.42369193      -0.00672018      -0.08140600
H        0.12222041      -1.22524195      -3.49573641       0.21203893       0.13529314       0.00494456
H        1.93953915       1.25214560      -3.46343570      -0.95035705       0.11675801       0.32766174
H        0.12882061       1.34082301      -3.73136072       0.53492304      -0.15260878       0.25612007
H        0.87388851       2.26635225      -2.45780496       0.08821335       0.98370385       0.33061289
H       -0.80670087      -0.69144349      -0.68773131       0.02276394       0.22517490       1.35967458
H       -1.38710741       0.28807024      -1.98501234      -0.31671444       1.02241956       0.75721054
H        1.58281514       1.90169427       3.69738469      -0.01209585       0.46222439       0.14955116
H        1.56615491       0.23150113      -1.21229796      -0.57443275       0.06843100      -0.50524645
