28
Properties=species:S:1:pos:R:3:forces:R:3 id=4068 bond=C-N smiles="[H:11]/[C:2](=[N:1][N:3]([H:12])[C:8]([H:25])([H:26])[C:10]([H:28])([C:6]([H:19])([H:20])[H:21])[C:7]([H:22])([H:23])[H:24])/[C:9]([H:27])([C:4]([H:13])([H:14])[H:15])[C:5]([H:16])([H:17])[H:18]" dataset=PubChem energy=-11567.694266019591 pbc="F F F"
N        0.11916493       1.73613202       1.09020839       0.88791623      -1.72539308       5.02849600
C        0.00157137       0.64882718       1.84985903       0.65282539       3.51209908      -1.90211938
N       -0.69030570       1.77035461      -0.00041362      -3.32682948      43.93046673      33.19330279
C        0.10725147       0.02820014       4.27461580      -0.98733000       1.12407565      -1.65803580
C        1.74836708      -0.88280905       2.61684827      -0.01389293      -0.51862992       0.78554561
C        0.91736824      -0.34918481      -2.21239399      -1.04247720      -0.40182649       1.06589573
C        0.90639189       2.07815677      -2.39920830      -0.21848162      -0.70305111       0.05217455
C       -0.65672990       0.98019131      -0.61609637       1.32358159     -41.60659437     -34.72441840
C        0.92166717       0.35116701       2.98171500      -0.74655714      -0.83958155       0.36668635
C        0.70672638       0.93512539      -1.38786744       2.27983668      -2.33824683      -2.28698627
H       -0.75155114      -0.07678081       1.60179380      -0.15183148      -0.52102124       0.13758282
H       -0.64802383       2.68233119      -0.45515140       0.20480453       0.39262452       0.97667885
H        0.75114738      -0.35577036       5.00155977       0.94609261      -0.67766555       1.19012419
H       -0.68443655      -0.71863199       4.05108193       0.49039449       0.48233468       0.15889076
H       -0.35297452       0.94827782       4.66707662       0.01431350      -0.42977377      -0.13861970
H        1.13020719      -1.79404248       2.58513359       0.13130167       0.33836635      -0.06235037
H        2.51342011      -1.04251886       3.39067081      -0.18524463      -0.00673739      -0.26125174
H        2.23814643      -0.76541294       1.67172173       0.29060655       0.04995380      -0.53148351
H        0.88578865      -1.23575706      -1.55056643       0.26769795       0.28985656      -0.36735557
H        1.83883265      -0.30209870      -2.76119875       0.43482118      -0.23823208      -0.22192409
H        0.09088299      -0.48775620      -2.92109918       0.15315356       0.13201656      -0.00194921
H        1.90820173       1.98963135      -2.88879847      -0.96161385       0.20216903       0.37718097
H        0.09748319       2.07830876      -3.15672349       0.50573963      -0.15617946       0.20038653
H        0.84255109       3.00383800      -1.88316773       0.20273851       1.19175135       0.25284587
H       -0.83803829       0.04604226      -0.11309408      -0.07018088      -1.43288527      -0.69786821
H       -1.41844483       1.02555599      -1.41037511      -0.33678573      -0.68574906      -0.61106286
H        1.61415256       1.16420852       3.12274746      -0.02276345       0.46747030       0.14825479
H        1.53481749       0.96898688      -0.63766073      -0.72299809       0.16514879      -0.46865427
