28
Properties=species:S:1:pos:R:3:forces:R:3 id=4068 bond=C-N smiles="[H:11]/[C:2](=[N:1][N:3]([H:12])[C:8]([H:25])([H:26])[C:10]([H:28])([C:6]([H:19])([H:20])[H:21])[C:7]([H:22])([H:23])[H:24])/[C:9]([H:27])([C:4]([H:13])([H:14])[H:15])[C:5]([H:16])([H:17])[H:18]" dataset=PubChem energy=-11571.26075573539 pbc="F F F"
N        0.08708138       2.49117695       1.67852746       0.04152720      -1.57239340       0.05007399
C       -0.03051218       1.40387211       2.43817810       0.45703645       2.24903131      -1.41677399
N       -0.72238925       2.52539954       0.58790545      -1.31837489      -1.39088908       1.06548022
C        0.07516792       0.78324507       4.86293487      -1.01227906       1.07805614      -1.62376565
C        1.71628353      -0.12776412       3.20516734      -0.00366844      -0.58039789       0.72293984
C        0.94945179      -1.10422974      -2.80071306      -1.64591306      -0.98207008       1.16495202
C        0.93847544       1.32311184      -2.98752737      -0.01614079      -0.52453811      -0.11860376
C       -0.62464635       0.22514638      -1.20441544       1.60780150      -0.40562968      -2.85673267
C        0.88958362       1.10621194       3.57003407      -0.88597164      -0.63881360       0.36074760
C        0.73880993       0.18008046      -1.97618651       0.51243364       0.80364567       0.82044619
H       -0.78363469       0.67826412       2.19011287      -0.19667659      -0.52089839      -0.37086815
H       -0.68010738       3.43737612       0.13316767       1.04813465      -0.45529347      -0.34718500
H        0.71906383       0.39927457       5.58987884       0.95352152      -0.67966257       1.19276868
H       -0.71652010       0.03641294       4.63940100       0.48904442       0.48907875       0.15927362
H       -0.38505807       1.70332275       5.25539569       0.02004816      -0.43444520      -0.14627349
H        1.09812364      -1.03899755       3.17345266       0.12716539       0.34725543      -0.06090556
H        2.48133656      -0.28747393       3.97898988      -0.18738053       0.01264643      -0.24900352
H        2.20606288      -0.01036801       2.26004080       0.29177811       0.05186222      -0.52046827
H        0.91787220      -1.99080199      -2.13888550       0.28779807       0.30809866      -0.41694131
H        1.87091620      -1.05714363      -3.34951782       0.42532616      -0.00631454      -0.08203287
H        0.12296654      -1.24280113      -3.50941825       0.21205846       0.13593536       0.00596637
H        1.94028528       1.23458642      -3.47711754      -0.94989678       0.11679242       0.32698210
H        0.12956674       1.32326383      -3.74504256       0.53486224      -0.15256602       0.25657168
H        0.87463464       2.24879307      -2.47148680       0.08767958       0.98388985       0.33063307
H       -0.80595474      -0.70900267      -0.70141315       0.02253559       0.21770378       1.35761823
H       -1.38636128       0.27051106      -1.99869418      -0.31875613       1.02035101       0.75291567
H        1.58206901       1.91925345       3.71106653      -0.01287560       0.46222052       0.14880192
H        1.56690104       0.21394195      -1.22597980      -0.57127920       0.06700504      -0.50594464
