41
Properties=species:S:1:pos:R:3:forces:R:3 id=37147 bond=C-O smiles="[H:41][C@:15]12[C:13]([C@@:19]3([C@:18]45[C@@:16]([O:3]1)([C:7]([C@:14]([C:6]([C:11]4([H:34])[H:35])([H:24])[H:25])([O:2][C:10]5([H:32])[H:33])[C:5]([H:21])([H:22])[H:23])([H:26])[H:27])[O:4][C@@:17]3([C:9]2([H:30])[H:31])[C:8]([H:28])([H:29])[O:1][H:20])[C:12]([H:36])([H:37])[H:38])([H:39])[H:40]" dataset=PubChem energy=-24108.765495351647 pbc="F F F"
O        0.83579379      -2.56480672       1.60379701     -53.14092247     -15.26643313       6.83962852
O       -1.37394025       2.63673312      -0.24545974      -1.42787106      -0.25520522       0.92355381
O        1.63059471       1.92653782       1.34747224      -0.13733322       0.49003215       0.83023879
O        0.65971819      -0.16580080       1.94029307       0.68061171      -1.62955690       0.70901091
C       -3.05157175       2.67919952       1.66836333      -0.69620951      -2.71290382      -0.34469672
C       -2.35505809       0.53597643       0.47460475       0.34337391       1.53360470      -1.22626187
C       -0.74165752       1.80121357       1.90910041      -1.01398641      -0.58920265       1.89869011
C        1.77220998      -2.27636092       1.46442758      46.12953378      16.00223044      -5.55806811
C        2.96651635       0.03213391       1.58563673       0.63923680      -0.19480656      -0.57070635
C       -0.22460593       1.99183268      -0.82125855      -0.41365877      -0.89567177       0.76657135
C       -1.17987563      -0.18483882      -0.24325353       0.07331132       3.70882131       0.70806037
C        1.47430704      -1.17489474      -1.49926782       0.27898917       1.72608959       0.89792304
C        2.57340512       0.94372422      -0.58679546       1.24486735      -1.98760034       0.95505583
C       -1.89142908       1.97313387       0.97021272      -0.19011445      -2.53038274      -1.75299571
C        2.89666758       1.33752072       0.84952774      -2.45491563      -1.29648033      -0.67408713
C        0.41811307       1.04664750       1.36238801       0.66993999       1.47764247      -0.95985211
C        1.73105059      -0.70770233       1.08541917       2.27613328       1.39772248       0.13477196
C        0.11757005       0.70012453      -0.04145969      -1.07663407      -1.15239012      -3.07680201
C        1.39139423      -0.11030864      -0.36605258       2.07949175       0.45678114      -0.66432795
H        0.20007318      -1.80925062       1.81073277       0.02063553      -1.35479944       0.35978520
H       -4.07049789       2.51555211       1.24264848       1.08068809       0.58180914      -0.32793808
H       -2.74922504       3.64704997       1.79884075       0.06053716       2.76399802       0.29396695
H       -3.17246403       2.21857793       2.65977572       0.36462827       0.15659728      -0.18608797
H       -2.79670753      -0.12954496       1.18019902      -0.12754343      -0.05141579       1.10441424
H       -3.16453614       0.79496295      -0.20167131      -0.01761496      -0.25470527      -0.35959495
H       -1.19243040       1.34789724       2.80201172       0.59201628      -0.37870499      -0.13467850
H       -0.47035750       2.74713785       2.24259197       0.95127989       1.76108186       0.46332086
H        2.33053003      -2.30706542       2.43151247       2.22251888       0.69073050       0.61088893
H        2.30540381      -2.94845288       0.83348819       2.11953278      -0.14330014      -1.72561602
H        3.04836951       0.15574882       2.66858887      -0.29716145      -0.23785885      -0.28683928
H        3.80878506      -0.52213269       1.22248696       0.79680939      -0.37656002      -0.01298861
H        0.53138209       2.69832308      -0.68909479       1.43674033       0.91218376      -0.17880961
H       -0.38734581       1.79248649      -1.87748289      -0.18423293      -0.03857943      -0.03859798
H       -1.11531605      -1.10440820       0.17688852       0.62482305      -2.86648123       1.02184815
H       -1.35059525      -0.27775114      -1.29071546      -0.05436586      -0.10021507      -0.71890398
H        0.87160597      -1.98771804      -1.22266233      -1.29561439      -1.07162791      -0.22397546
H        2.48413263      -1.59880942      -1.52222205      -0.10551839       0.47727620      -0.21295605
H        1.20313970      -0.67093568      -2.43607855       0.07816273      -0.65749388       0.10623398
H        2.47146712       1.80264873      -1.17398763      -1.25954142       1.25570775      -0.85730288
H        3.48462496       0.52054763      -1.08018685      -0.67960742      -0.41222580       0.62832866
H        3.79042349       1.93121165       0.85157441      -0.18555719       1.06571151       0.84091864
