41
Properties=species:S:1:pos:R:3:forces:R:3 id=37147 bond=C-O smiles="[H:41][C@:15]12[C:13]([C@@:19]3([C@:18]45[C@@:16]([O:3]1)([C:7]([C@:14]([C:6]([C:11]4([H:34])[H:35])([H:24])[H:25])([O:2][C:10]5([H:32])[H:33])[C:5]([H:21])([H:22])[H:23])([H:26])[H:27])[O:4][C@@:17]3([C:9]2([H:30])[H:31])[C:8]([H:28])([H:29])[O:1][H:20])[C:12]([H:36])([H:37])[H:38])([H:39])[H:40]" dataset=PubChem energy=-24114.13381113184 pbc="F F F"
O        0.38794257      -2.70275906       1.67045195       2.74664519       1.21616823      -0.47637494
O       -0.92608903       2.77468546      -0.31211468      -1.38282549      -0.26786457       0.89986964
O        2.07844593       2.06449016       1.28081730       0.20720196       0.63848333       0.75159572
O        1.10756941      -0.02784846       1.87363813       0.82168199      -0.74116978       0.49150553
C       -2.60372053       2.81715186       1.60170839      -0.69398594      -2.70375406      -0.34657779
C       -1.90720687       0.67392877       0.40794981       0.37395075       1.56384987      -1.24828519
C       -0.29380630       1.93916591       1.84244547      -1.00377923      -0.59332653       1.88004347
C        2.22006120      -2.13840858       1.39777264      -2.74687452       2.72528536       1.56584877
C        3.41436757       0.17008625       1.51898179       0.96104336      -0.61011449      -0.39671186
C        0.22324529       2.12978502      -0.88791349      -0.39614663      -0.88546588       0.73207301
C       -0.73202441      -0.04688648      -0.30990847       0.05319616       3.60561886       0.72538888
C        1.92215826      -1.03694240      -1.56592276       0.23464832       1.68451973       0.92301187
C        3.02125634       1.08167656      -0.65345040       1.24931405      -2.04526915       0.95140570
C       -1.44357786       2.11108621       0.90355778      -0.21314429      -2.55695662      -1.72447752
C        3.34451880       1.47547306       0.78287280      -2.74108663      -1.20561226      -0.69773525
C        0.86596429       1.18459984       1.29573307       0.68386113       1.08709765      -0.70788708
C        2.17890181      -0.56974999       1.01876423      -1.37250456      -1.07996465       1.32359127
C        0.56542127       0.83807687      -0.10811463      -1.12570419      -1.17311795      -2.98759307
C        1.83924545       0.02764370      -0.43270752       2.13176813       0.32964960      -0.82836729
H       -0.24777804      -1.94720296       1.87738771       2.25252451      -0.85365224      -0.35644021
H       -3.62264667       2.65350445       1.17599354       1.08092445       0.58053739      -0.32753172
H       -2.30137382       3.78500231       1.73218581       0.05899807       2.76740951       0.29655482
H       -2.72461281       2.35653027       2.59312078       0.36597428       0.15523398      -0.18838888
H       -2.34885631       0.00840738       1.11354408      -0.12915494      -0.05520585       1.10724200
H       -2.71668492       0.93291529      -0.26832625      -0.02574523      -0.25248401      -0.35392686
H       -0.74457918       1.48584958       2.73535678       0.60252765      -0.38714938      -0.14022650
H       -0.02250628       2.88509019       2.17593703       0.94739553       1.76990106       0.46450162
H        2.77838125      -2.16911308       2.36485753      -1.36407330      -0.21314597      -0.33677510
H        2.75325503      -2.81050054       0.76683325      -0.65388500      -0.59201853      -1.02539553
H        3.49622073       0.29370116       2.60193393      -0.33872328      -0.25672902      -0.25859079
H        4.25663628      -0.38418035       1.15583202       0.90538823      -0.29472185      -0.04220725
H        0.97923331       2.83627542      -0.75574973       1.43712558       0.93286073      -0.18136397
H        0.06050541       1.93043883      -1.94413783      -0.18851283      -0.03359805      -0.04342009
H       -0.66746483      -0.96645586       0.11023358       0.69599090      -2.78600490       0.96038500
H       -0.90274403      -0.13979880      -1.35737040      -0.07042251      -0.06889886      -0.73666976
H        1.31945719      -1.84976570      -1.28931727      -1.31646221      -1.03710045      -0.19314245
H        2.93198385      -1.46085708      -1.58887699      -0.05719013       0.47314174      -0.24876817
H        1.65099092      -0.53298334      -2.50273349       0.10358846      -0.65077984       0.12172468
H        2.91931834       1.94060107      -1.24064257      -1.26335776       1.24087890      -0.82848333
H        3.93247618       0.65849997      -1.14684179      -0.66717943      -0.41361195       0.61306104
H        4.23827471       2.06916399       0.78491947      -0.16097692       0.98924532       0.86691282
