41
Properties=species:S:1:pos:R:3:forces:R:3 id=37147 bond=C-O smiles="[H:41][C@:15]12[C:13]([C@@:19]3([C@:18]45[C@@:16]([O:3]1)([C:7]([C@:14]([C:6]([C:11]4([H:34])[H:35])([H:24])[H:25])([O:2][C:10]5([H:32])[H:33])[C:5]([H:21])([H:22])[H:23])([H:26])[H:27])[O:4][C@@:17]3([C:9]2([H:30])[H:31])[C:8]([H:28])([H:29])[O:1][H:20])[C:12]([H:36])([H:37])[H:38])([H:39])[H:40]" dataset=PubChem energy=-24116.2839014758 pbc="F F F"
O        0.63222506      -2.62751233       1.63409471      -0.99093072       0.04615674      -0.13582442
O       -1.17037152       2.69943873      -0.27575744      -1.40367818      -0.26211679       0.91002966
O        1.83416344       1.98924343       1.31717454       0.06727302       0.58794731       0.77660437
O        0.86328692      -0.10309519       1.90999537       0.72679110      -0.82120388       0.56219692
C       -2.84800302       2.74190513       1.63806563      -0.69594876      -2.70853148      -0.34717770
C       -2.15148936       0.59868204       0.44430705       0.35712490       1.55290106      -1.23731123
C       -0.53808879       1.86391918       1.87880271      -1.00608953      -0.58837509       1.87927153
C        1.97577871      -2.21365531       1.43412988      -1.35084497       2.92934863       1.56385479
C        3.17008508       0.09483952       1.55533903       0.78835058      -0.39059733      -0.52435324
C       -0.02103720       2.05453829      -0.85155625      -0.40416589      -0.89375983       0.74365410
C       -0.97630690      -0.12213321      -0.27355123       0.05900159       3.65566559       0.72615397
C        1.67787577      -1.11218913      -1.52956552       0.24235053       1.69882165       0.91118786
C        2.77697385       1.00642983      -0.61709316       1.24306688      -2.02161160       0.95706179
C       -1.68786035       2.03583948       0.93991502      -0.20210393      -2.54256400      -1.73341303
C        3.10023631       1.40022633       0.81923004      -2.59449898      -1.24226036      -0.66558204
C        0.62168180       1.10935311       1.33209031       0.69363589       1.22950386      -0.76162833
C        1.93461932      -0.64499672       1.05512147      -0.06639889      -0.71502658       1.11465863
C        0.32113878       0.76283014      -0.07175739      -1.09622594      -1.16339978      -3.02025525
C        1.59496296      -0.04760303      -0.39635028       2.11961444       0.35620651      -0.76503666
H       -0.00349555      -1.87195623       1.84103047       2.06937749      -1.19844809      -0.32540266
H       -3.86692916       2.57825772       1.21235078       1.07998600       0.58134179      -0.32770392
H       -2.54565631       3.70975558       1.76854305       0.06006297       2.76595551       0.29530439
H       -2.96889530       2.28128354       2.62947802       0.36559820       0.15568985      -0.18730525
H       -2.59313880      -0.06683935       1.14990132      -0.12772730      -0.05276965       1.10492746
H       -2.96096741       0.85766856      -0.23196901      -0.02236650      -0.25296790      -0.35712726
H       -0.98886167       1.41060285       2.77171402       0.59729877      -0.38395154      -0.13654077
H       -0.26678877       2.80984346       2.21229427       0.94741720       1.76741780       0.46424784
H        2.53409876      -2.24435981       2.40121477      -0.43578466       0.08489902      -0.46755791
H        2.50897254      -2.88574727       0.80319049      -0.00138061      -0.20921101      -1.04979806
H        3.25193824       0.21845443       2.63829117      -0.32290278      -0.24955275      -0.26370986
H        4.01235379      -0.45942708       1.19218926       0.85331066      -0.33208316      -0.03407159
H        0.73495082       2.76102869      -0.71939249       1.43746076       0.92291473      -0.17964867
H       -0.18377708       1.85519210      -1.90778059      -0.18746285      -0.03453042      -0.04294435
H       -0.91174732      -1.04170259       0.14659082       0.65291219      -2.81876288       0.97328219
H       -1.14702652      -0.21504553      -1.32101316      -0.06316719      -0.08829779      -0.72712510
H        1.07517470      -1.92501243      -1.25296003      -1.30165670      -1.04700525      -0.19760562
H        2.68770136      -1.53610381      -1.55251975      -0.07554672       0.47558036      -0.23519725
H        1.40670843      -0.60823007      -2.46637625       0.09742468      -0.65025454       0.11289187
H        2.67503585       1.86535434      -1.20428533      -1.26130420       1.24729120      -0.83963658
H        3.68819369       0.58325324      -1.11048455      -0.67193738      -0.41345937       0.61825932
H        3.99399222       1.99391726       0.82127671      -0.17336044       1.02569728       0.85045850
