37
Properties=species:S:1:pos:R:3:forces:R:3 id=8496 bond=C-C smiles="[H:24][c:8]1[c:7]([c:9]([c:11]([c:12]([c:10]1[H:26])[O:3][C:17]([H:33])([H:34])[C:19]([H:37])([C:18]([H:35])([H:36])[N:14]([H:27])[H:28])[O:4][H:20])[O:2][C:16]([H:31])([H:32])[N:13]2[C:5](=[C:6]([C:15]([O:1]2)([H:29])[H:30])[H:22])[H:21])[H:25])[H:23]" dataset=PubChem energy=-24949.15917459769 pbc="F F F"
O        2.54036758      -0.44495670      -3.39020899      -1.42568932      -0.40148592       0.16258076
O        2.49747894       0.84716046      -0.14691710       0.62864586       0.15791014      -1.42927603
O       -0.25700118       1.51075520       0.26725486      -0.82252942      -2.93731493      -0.72989674
O       -3.33274787      -1.82203332       1.54062434       0.98239046       1.79031929      -0.06730422
C        4.31785391      -0.71497767      -1.94854119      -0.95396017      -2.06829115      -0.60986387
C        4.15704630      -1.90895156      -2.60266617       2.23432999       0.92764468       1.34683058
C        2.71241925       3.83464546       2.05273696      -1.58377465       0.01419213       0.37200218
C        1.31308500       4.17403789       2.15967485       0.20158655      -1.34538052      -0.58950447
C        3.06577704       2.64257140       1.34660372      -2.85441625       2.31235591       0.13004491
C        0.35926954       3.28514810       1.52204439       2.07064429       2.60301504       1.99175623
C        2.11047045       1.90625461       0.64167058       0.53224702       0.08943403       0.23384166
C        0.76068906       2.21078427       0.76076477      -0.17650444       0.98727169       1.49753570
N        3.30540798       0.14763989      -2.40056899       2.53184407       3.09524776       3.33794142
N       -2.85119003      -0.99396769       3.92869957      -1.61881329       0.34305011      -0.24007622
C        3.02455542      -1.78582291      -3.60683921       2.84695779       0.94394262      -0.11978104
C        2.81312738       1.28638895      -1.54097608      -0.46911501      -1.58200438      -1.31467948
C       -0.31521441       0.11228175       0.59293803      -1.83385690       0.68016075      -1.32767359
C       -3.16207570       0.08601406       2.95611508       0.22397672      -0.12839493       0.53354017
C       -3.05265826      -0.44696829       1.45802720      -1.30588872      -1.26117696       1.16871250
H       -3.23075288      -1.92316404       2.51338632      -0.25480124      -1.02841656      -0.13744980
H        5.03862379      -0.54776136      -1.08087185      -1.45468707       0.28812088      -1.55021160
H        4.87269042      -2.74884753      -2.35742834      -1.37252920       0.88204889      -0.80253181
H        3.45423530       4.48599668       2.57807990      -0.59788073      -0.90093794      -0.71348377
H        0.90066354       5.04041119       2.76784488       0.91293526      -1.23546801      -0.91538123
H        4.04542969       2.42661782       1.16061947       2.48669289      -0.69182615      -0.14806297
H       -0.66812350       3.48388906       1.77432796      -0.27760621      -0.27130548      -0.51554551
H       -1.95906919      -1.36661199       3.80587489       1.85850597      -0.30099349       0.29764042
H       -3.07877320      -0.76390651       4.90374167       0.33278666      -0.18597610      -1.00379603
H        2.39890132      -2.59674911      -3.43222192      -2.10056821      -0.96518747       0.15311057
H        3.35003684      -1.78350858      -4.66394642      -0.05543764      -0.24347277       0.41904115
H        1.87306211       1.56724633      -2.04527119       0.39363207       0.24550986       0.41733506
H        3.54820893       2.15813751      -1.53278842      -0.80957973      -1.43344431       0.16588586
H       -0.12158789      -0.51004343      -0.26727739      -0.95643647       0.07181731      -0.66437097
H        0.37583087      -0.27843831       1.27852794       0.71954760       0.40506623       1.83068701
H       -2.54369658       0.93764093       3.20735986       0.05671104       0.39556007      -0.69177729
H       -4.19376891       0.31275160       3.26324470       0.05014242       0.32018308      -0.87154101
H       -3.85770744      -0.06816909       0.75620412       1.86068173       0.42986271       0.38530161
