16
Properties=species:S:1:pos:R:3:forces:R:3 id=6475 bond=C-C smiles="[H:16][c:7]1[c:6]([c:8]([c:10]([c:11]([c:9]1[Br:2])[C:5](=[C:4]([H:12])[H:13])[H:14])[Br:3])[Br:1])[H:15]" dataset=PubChem energy=-218521.12769742764 pbc="F F F"
Br       3.48129989       0.07299057       3.20742705      -0.81534333       0.64001243      -0.28960232
Br      -1.44641612       2.31439387      -0.66908190       0.30952900      -0.18399555       0.32196553
Br       2.34247316      -1.88270796       0.84740632      -0.76985082       0.77077230      -0.03636952
C       -1.10374256      -0.86958606      -1.48927627       2.40874587       1.59441131       2.63359873
C        0.16604626      -0.62775381      -0.97314725      -2.97791571       0.48841199      -0.03447518
C        1.44224705       1.96400738       2.29994872      -0.04308786      -0.67967502       0.29277467
C        0.34922091       2.38637101       1.51600459       0.94650285       0.31279043       0.68015017
C        1.98158372       0.65848438       2.12955930       0.05956882       1.06938591       0.49233254
C       -0.11857055       1.57458627       0.49226581       0.58670506      -0.07007211       0.04876599
C        1.46818090      -0.16464800       1.12791487       1.45535047       0.01197330       0.65048386
C        0.50147450       0.32873903       0.28046518      -1.67278413      -2.23420535      -3.28757101
H       -1.30301925      -1.49230296      -2.32171056       0.26525161      -0.58369944      -0.61282251
H       -1.98319837      -0.42641939      -1.01734243       0.35663387      -0.10333188      -0.21856540
H        0.96214601      -1.19655926      -1.45379196       0.14030321       0.59783438       0.45790935
H        1.83221496       2.65380179       3.07899287      -0.24370392      -0.80765519      -0.72002020
H       -0.02391063       3.40496909       1.71465256      -0.00849842      -0.81841288      -0.37441463
