16
Properties=species:S:1:pos:R:3:forces:R:3 id=6475 bond=C-C smiles="[H:16][c:7]1[c:6]([c:8]([c:10]([c:11]([c:9]1[Br:2])[C:5](=[C:4]([H:12])[H:13])[H:14])[Br:3])[Br:1])[H:15]" dataset=PubChem energy=-218518.93589646785 pbc="F F F"
Br       3.53161412       0.21646450       3.39546892      -0.81751274       0.63198391      -0.29875638
Br      -1.39610189       2.45786780      -0.48104003       0.29856745      -0.42244509       0.25616322
Br       2.39278739      -1.73923403       1.03544819      -0.83026143       0.78766092      -0.13780913
C       -1.15405679      -1.01305999      -1.67731814       2.59082120       2.07835887       3.23262696
C        0.11573203      -0.77122774      -1.16118912      -2.96228067       0.84768293       0.60637610
C        1.49256128       2.10748131       2.48799059      -0.05304916      -0.68212815       0.28683256
C        0.39953514       2.52984494       1.70404646       1.05094481       0.26985160       0.75325600
C        2.03189795       0.80195831       2.31760117       0.01168479       1.18366537       0.48998206
C       -0.06825632       1.71806020       0.68030768       0.50491072      -0.47554166      -0.42988836
C        1.51849513      -0.02117407       1.31595674       1.05390508      -0.42040576      -0.08816330
C        0.55178873       0.47221296       0.46850705      -1.75025659      -2.26220482      -3.41526611
H       -1.35333348      -1.63577689      -2.50975243       0.34033491      -0.62264930      -0.66037565
H       -2.03351260      -0.56989332      -1.20538430       0.31304927      -0.01444799      -0.22441666
H        0.91183178      -1.34003319      -1.64183383       0.51689249       0.73467723       0.74121210
H        1.88252919       2.79727572       3.26703474      -0.24495802      -0.80787841      -0.71997674
H        0.02640360       3.54844302       1.90269443      -0.02373105      -0.81715664      -0.38740169
