14
Properties=species:S:1:pos:R:3:forces:R:3 id=8643 bond=C-P smiles="[H:9][C:4]([H:10])([H:11])[P:2]([C:5]([H:12])([H:13])[H:14])[S:1][C:3]([H:6])([H:7])[H:8]" dataset=PubChem energy=-23381.60834323339 pbc="F F F"
S       -1.14468016       0.94093122       1.30160131       0.20546244       0.07147054       1.07368700
P        0.29076527       0.86154245      -0.17686186       9.42492790      -6.51600932      24.54357411
C       -0.26037158      -0.01533101       2.58656516      -0.12509021       0.14655245       0.83928594
C       -0.16980463       1.08970137      -1.46442662      -7.61204553       5.25789849     -23.24170133
C        2.08432816       0.52357765       0.17401060      -0.19465307       0.99928228      -0.08919380
H        0.23710620      -0.86131422       2.15379014      -0.06698463      -0.55951415      -0.35469785
H        0.53745854       0.58336198       3.05305328      -0.49217703       0.01209304      -0.17870268
H       -0.94816866      -0.36287991       3.39031663       0.32933674       0.40470289      -0.74855686
H       -1.22875327       0.82722523      -1.50420104      -0.16241629       0.21597183      -0.45528318
H       -0.04943848       2.16981896      -1.69785390      -0.73482109      -0.25196617      -1.60361981
H        0.33125070       0.49089486      -2.24859915      -0.31280156       0.34640790      -0.09474834
H        2.21622787      -0.20902387       0.97700807      -0.07511893       0.33621591      -0.16370739
H        2.53463338       0.08136203      -0.74979625      -0.45361690       0.53389891       0.68433088
H        2.55666731       1.49729975       0.43620358       0.27619867      -0.99905345      -0.20074199
