14
Properties=species:S:1:pos:R:3:forces:R:3 id=8643 bond=C-P smiles="[H:9][C:4]([H:10])([H:11])[P:2]([C:5]([H:12])([H:13])[H:14])[S:1][C:3]([H:6])([H:7])[H:8]" dataset=PubChem energy=-23385.54921394168 pbc="F F F"
S       -1.04335478       0.89073625       1.58486555      -0.10399021       0.10413023       0.98606220
P        0.39209065       0.81134748       0.10640238      -0.03769128      -0.37035469      -2.82750950
C       -0.15904620      -0.06552598       2.86982940      -0.02542742       0.12563732       0.73111184
C       -0.27113001       1.13989634      -1.74769086       0.71827111       0.26753011       1.07018742
C        2.18565354       0.47338268       0.45727484       0.13737136       0.88216829      -0.36160378
H        0.33843158      -0.91150919       2.43705438      -0.06292035      -0.58264887      -0.31892429
H        0.63878392       0.53316701       3.33631752      -0.48959330       0.01070374      -0.18349809
H       -0.84684328      -0.41307488       3.67358087       0.30446900       0.40091703      -0.78100698
H       -1.33007865       0.87742020      -1.78746528       0.15479661       0.03521503       0.32081106
H       -0.15076386       2.22001393      -1.98111814      -0.10337290      -0.86212529       0.19835236
H        0.22992532       0.54108983      -2.53186339       0.01897271       0.18491582       0.79720529
H        2.31755325      -0.25921884       1.26027231      -0.16471868       0.27030667      -0.19296246
H        2.63595876       0.03116706      -0.46653201      -0.45506316       0.54222020       0.75023380
H        2.65799269       1.44710478       0.71946782       0.11178558      -1.01238725      -0.18779797
