14
Properties=species:S:1:pos:R:3:forces:R:3 id=8643 bond=C-P smiles="[H:9][C:4]([H:10])([H:11])[P:2]([C:5]([H:12])([H:13])[H:14])[S:1][C:3]([H:6])([H:7])[H:8]" dataset=PubChem energy=-23365.745180797076 pbc="F F F"
S       -1.19073715       0.96374711       1.17284483       0.55198230       0.12080913       1.29227521
P        0.24470828       0.88435834      -0.30561834      33.03174901     -20.30955593      92.04907014
C       -0.30642857       0.00748488       2.45780868      -0.21761466       0.14535294       1.00629817
C       -0.12374764       1.06688548      -1.33567014     -30.88264301      17.09832339     -88.73099490
C        2.03827117       0.54639354       0.04525412      -0.33756374       1.05632798       0.34616859
H        0.19104921      -0.83849833       2.02503366      -0.07418651      -0.53742658      -0.39416751
H        0.49140155       0.60617787       2.92429680      -0.50643161       0.01797749      -0.17249446
H       -0.99422565      -0.34006402       3.26156015       0.35250917       0.39684839      -0.70489319
H       -1.18269628       0.80440934      -1.37544456      -0.36306313       0.49671126      -0.92115459
H       -0.00338149       2.14700307      -1.56909742      -1.10215712       0.85878702      -3.16739056
H        0.37730769       0.46807897      -2.11984267      -0.38208553       0.61181290      -0.86631780
H        2.17017088      -0.18620798       0.84825159       0.01260308       0.40288986      -0.11010890
H        2.48857639       0.10417792      -0.87855273      -0.49211371       0.55063509       0.61201808
H        2.51061032       1.52011564       0.30744710       0.41790322      -0.91287905      -0.23056963
