25
Properties=species:S:1:pos:R:3:forces:R:3 id=49848 bond=C-N smiles="[H:12][C:5]1([C:9]([N+:11]([C:10]([C:6]([N:4]1[C:3](=[S:1])[S-:2])([H:14])[H:15])([H:24])[H:25])([C:7]([H:16])([H:17])[H:18])[C:8]([H:19])([H:20])[H:21])([H:22])[H:23])[H:13]" dataset=PubChem energy=-32142.190472044214 pbc="F F F"
S       -1.03064475       0.78101375      -3.53312145       3.12508104       0.21810543       2.28129023
S       -0.75020656       3.42075223      -2.23275099       2.89109583      -2.96967773       0.79684273
C       -0.15523827       1.78684825      -2.48567806      -5.38960303       2.31067617      -2.17241818
N        1.85162749       0.72211123      -0.69055078       0.80820019       0.12498006      -0.83946207
C        2.22749867       1.54209588       0.47095808      -0.38141661      -1.69945388      -1.16261949
C        1.78916736      -0.71443691      -0.36060164      -0.38084715       2.56972828       0.35713800
C       -0.57919167       0.02409718       2.51435700      -0.40590792       0.15960819       0.14410419
C        1.81891019      -0.59767964       2.80172076      -1.08663947      -0.95210141       0.39642354
C        1.11750429       1.40802727       1.49898335      -0.05090365       1.20967135      -0.82620781
C        0.64228423      -0.84352352       0.66664615       0.60438292      -1.35375293      -1.73487528
N        0.76601039       0.00519375       1.88082477       0.82689855      -0.37954849       0.47378414
H        2.37091722       2.60798154       0.20580270      -0.42093749      -0.57695186       0.06134253
H        3.20479097       1.21918295       0.88612171      -0.13965214      -0.01200408       0.08331054
H        2.76032211      -1.05342545       0.02660444      -0.01359027      -0.17885148       0.32533496
H        1.59652038      -1.33995166      -1.25390277      -0.26735988       0.47527843       0.51699601
H       -1.31456767       0.04827744       1.71177521       0.09279860       0.23197995       0.22953788
H       -0.77504836      -0.84398701       3.11977782       0.30399664      -0.52134349       0.00879580
H       -0.69003723       0.88821808       3.15542593       0.17113333       0.22809018      -0.02353553
H        2.80640258      -0.43239554       2.44873967       0.57292800       0.62215839      -0.49724998
H        1.71262480      -1.70416071       2.80189850      -0.32249709       0.82554994       0.06269214
H        1.70696063      -0.22532832       3.82690730      -0.08671309       0.09413600      -0.47901308
H        0.23510690       1.81748233       1.00386966      -0.01876618      -0.09208180       0.19619622
H        1.33953451       1.98696384       2.36822286      -0.11412077       0.06738516       1.04825536
H        0.59930356      -1.86691751       0.98755265      -0.48051017      -0.53521236       0.56494272
H       -0.26949404      -0.58070799       0.13260987       0.16610749       0.12903424       0.18932905
