25
Properties=species:S:1:pos:R:3:forces:R:3 id=49848 bond=C-N smiles="[H:12][C:5]1([C:9]([N+:11]([C:10]([C:6]([N:4]1[C:3](=[S:1])[S-:2])([H:14])[H:15])([H:24])[H:25])([C:7]([H:16])([H:17])[H:18])[C:8]([H:19])([H:20])[H:21])([H:22])[H:23])[H:13]" dataset=PubChem energy=-32146.519175843638 pbc="F F F"
S       -0.52892831       0.51482950      -3.08433963       0.96027778      -0.21465319       0.33401558
S       -0.24849012       3.15456798      -1.78396917       1.13916394      -1.03168884      -0.09671264
C        0.34647817       1.52066400      -2.03689624      -1.20991442       0.53169266       1.11827490
N        1.34991105       0.98829548      -1.13933260      -0.13285766       0.48494998      -1.12928103
C        1.72578223       1.80828013       0.02217626       0.46686963      -0.64008618      -0.13168959
C        1.28745092      -0.44825266      -0.80938346      -0.00852342       0.93463974       0.23868583
C       -1.08090811       0.29028143       2.06557518      -0.48157261       0.17735694       0.13322086
C        1.31719375      -0.33149539       2.35293894      -1.11422571      -0.99663913       0.40627617
C        0.61578785       1.67421152       1.05020153      -0.14513338       0.86271919      -0.89840691
C        0.14056779      -0.57733927       0.21786433       0.63500298      -0.96528425      -1.65645326
N        0.26429395       0.27137800       1.43204295       0.99066760      -0.47606438       0.62313759
H        1.86920078       2.87416579      -0.24297912      -0.54135473      -0.76809178       0.01028883
H        2.70307453       1.48536720       0.43733989      -0.46582177      -0.16200471      -0.35325499
H        2.25860567      -0.78724120      -0.42217738      -0.22347674       0.26705406       0.13221169
H        1.09480394      -1.07376741      -1.70268459      -0.29952989       0.68176634       0.56818916
H       -1.81628411       0.31446169       1.26299339       0.08430624       0.25167709       0.21727379
H       -1.27676480      -0.57780276       2.67099600       0.31472194      -0.51762649       0.01095099
H       -1.19175367       1.15440233       2.70664411       0.16658466       0.22027087      -0.04083704
H        2.30468614      -0.16621129       1.99995785       0.59305421       0.61559046      -0.47613260
H        1.21090836      -1.43797646       2.35311668      -0.30840977       0.82300970       0.09688228
H        1.20524419       0.04085593       3.37812548      -0.07330606       0.08201603      -0.48471341
H       -0.26660954       2.08366658       0.55508784      -0.02263898       0.06965251       0.11426853
H        0.83781807       2.25314809       1.91944104      -0.03234300       0.09162727       0.83752753
H        0.09758712      -1.60073326       0.53877083      -0.38583128      -0.43174498       0.35116933
H       -0.77121048      -0.31452374      -0.31617195       0.09969668       0.10588617       0.07721606
