38
Properties=species:S:1:pos:R:3:forces:R:3 id=8034 bond=C-O smiles="[H:28][c:15]1[c:14]([c:12]([n:3][c:10]([c:13]1[H:26])[N:19]([H:30])[c:11]2[c:17]([c:16]([c:18]([c:9]([n:2]2)[H:25])[C:6]3=[N:1][S:5][C:7](=[C:8]3[H:24])[H:23])[H:29])[O:4][C:22]([H:37])([H:38])[C:21]([H:34])([H:35])[H:36])[C:20]([H:31])([H:32])[H:33])[H:27]" dataset=PubChem energy=-35709.95416697443 pbc="F F F"
N        4.81314282       2.61530059      -0.95446779       1.25101291      -0.71362574      -0.42589856
N        1.09902387      -0.46114678      -1.04038348      -0.09216022       0.90695047       0.78938780
N       -2.87441725      -0.97626883       0.50015424      -1.49296229      -0.89887489       0.24318041
O        0.20933692       2.21000652       1.30524371       2.19432118      -0.49290605       0.81909081
S        6.33234124       2.85600846      -1.66261305      -1.04052022      -0.61475563      -0.09589941
C        4.38896660       1.39276581      -1.25089874      -0.05455361       0.78154769      -0.51028259
C        6.35564665       1.33967369      -2.49390235      -0.63203889       0.04735358       1.02765422
C        5.23304610       0.63236671      -2.12841358       0.37880019       0.07390905      -0.43678029
C        2.34449010      -0.08852232      -1.34754886       0.15753446       0.08347130       0.31177682
C       -1.69548053      -1.11973543      -0.09030434      -0.22259812      -0.32681322       0.35061099
C        0.43285255       0.28124687      -0.12481900      -0.68931147      -1.50917175      -0.43763918
C       -3.78353018      -1.96972806       0.40204001       1.46381919      -0.15946728      -0.69257227
C       -1.36990781      -2.24765307      -0.83557686       0.85884359      -0.21762303      -0.67531950
C       -3.48156351      -3.13859899      -0.35261943      -1.15596249       0.57185287       0.77600868
C       -2.27480335      -3.28714568      -0.99378159       0.17633249       1.68985910       0.73855096
C        2.30992012       1.78286295       0.11125490      -0.57182465      -0.45831465      -0.00186607
C        0.99759577       1.41237753       0.49293412       0.34702779       2.32454754       0.87801910
C        3.03286152       1.00646656      -0.81955423      -1.09880331       0.17085874       0.73102370
N       -0.87423773      -0.06347705       0.24040227       1.62200971       0.94054088      -0.39237552
C       -5.08037228      -1.74824960       1.12749002       0.05602925      -0.15877599       0.17427699
C        0.38442534       4.37884365       3.54594607      -0.85750591      -1.55142995      -0.33568921
C        1.19310334       3.10759746       3.36495370       0.15852850       2.11251276       0.53631688
H        7.18230586       1.01665841      -3.11607184      -0.23042670       0.12255519       0.11821167
H        4.99011617      -0.36007208      -2.50891294       0.15609917       0.39425947       0.21528140
H        2.86702161      -0.71706826      -2.04181924      -0.04597691      -0.30122804      -0.33828378
H       -0.40733619      -2.30620010      -1.30211463       0.22446613       0.09196067      -0.03374447
H       -4.21436638      -3.91152150      -0.42803492      -0.44187151      -0.30376852       0.05977776
H       -2.01787491      -4.13236672      -1.59254887      -0.00568468      -0.41431746      -0.15213262
H        2.76098757       2.67419594       0.54310951      -0.16617298      -0.26897755      -0.06762711
H       -1.30740053       0.60334661       0.86685536       0.07444915      -0.16035428      -0.12142688
H       -5.68107170      -1.00054771       0.61906193      -0.08389282       0.01523215      -0.12153995
H       -4.92020840      -1.38451440       2.14142332       0.27055990       0.10683366      -0.10752038
H       -5.64919371      -2.66262109       1.23407350      -0.14344114      -0.19006777      -0.25453796
H        0.41372177       4.94264041       2.62702996      -0.11467742       0.40343858      -0.05758615
H        0.73292524       4.98954498       4.40546603       0.30745396      -0.47842324      -0.49689389
H       -0.64334429       4.07880890       3.79911393       0.20766682       0.40323328      -0.29978617
H        2.25047754       3.37543284       3.26044745      -0.21866382      -0.78697082      -1.24883587
H        1.09652847       2.45976960       4.21508617      -0.55122855      -1.24221260      -0.46398689
