38
Properties=species:S:1:pos:R:3:forces:R:3 id=8034 bond=C-O smiles="[H:28][c:15]1[c:14]([c:12]([n:3][c:10]([c:13]1[H:26])[N:19]([H:30])[c:11]2[c:17]([c:16]([c:18]([c:9]([n:2]2)[H:25])[C:6]3=[N:1][S:5][C:7](=[C:8]3[H:24])[H:23])[H:29])[O:4][C:22]([H:37])([H:38])[C:21]([H:34])([H:35])[H:36])[C:20]([H:31])([H:32])[H:33])[H:27]" dataset=PubChem energy=-35711.89105080106 pbc="F F F"
N        5.06771396       2.84757193      -0.42147266       1.23852801      -0.73164087      -0.43559341
N        1.35359501      -0.22887544      -0.50738835      -0.05611151       0.93227949       0.87713040
N       -2.61984611      -0.74399749       1.03314937      -1.41432231      -0.86741834       0.23150333
O        0.46390806       2.44227786       1.83823884      -4.92731953      -7.81911720     -13.74022118
S        6.58691238       3.08827980      -1.12961792      -1.07153033      -0.62565801      -0.08566917
C        4.64353774       1.62503715      -0.71790361       0.02467676       0.82613060      -0.52616601
C        6.61021779       1.57194503      -1.96090722      -0.63612040       0.07302340       1.04100678
C        5.48761724       0.86463805      -1.59541845       0.33058688       0.05657445      -0.41956482
C        2.59906124       0.14374902      -0.81455373       0.21129824       0.17048524       0.38932191
C       -1.44090939      -0.88746409       0.44269079      -0.36671633      -0.47890413       0.31046904
C        0.68742369       0.51351821       0.40817613      -0.67629943      -0.96747750      -0.38431545
C       -3.52895904      -1.73745672       0.93503514       1.42614935      -0.16190739      -0.67775427
C       -1.11533667      -2.01538173      -0.30258173       0.88753685      -0.14664294      -0.64779082
C       -3.22699237      -2.90632765       0.18037570      -1.12318251       0.57626908       0.76152173
C       -2.02023221      -3.05487434      -0.46078646       0.13923563       1.67271630       0.74377759
C        2.56449126       2.01513429       0.64425003      -1.03703246      -0.32731888       0.40270439
C        1.25216691       1.64464887       1.02592925       1.57499962       0.19736087      -1.43094384
C        3.28743266       1.23873790      -0.28655910      -1.13936698      -0.03578136       0.62803749
N       -0.61966659       0.16879429       0.77339740       1.65487766       1.08003088      -0.27391383
C       -4.82580114      -1.51597826       1.66048515       0.06004557      -0.16054658       0.17454703
C        0.12985420       4.14657231       3.01295094      -0.06569566       0.81328680       2.64382924
C        0.93853220       2.87532612       2.83195857       4.98933527       7.04255643      10.98890982
H        7.43687700       1.24892975      -2.58307671      -0.23088813       0.12266963       0.12026072
H        5.24468731      -0.12780074      -1.97591781       0.16243300       0.39175465       0.21366137
H        3.12159275      -0.48479692      -1.50882411      -0.06090330      -0.27618757      -0.35177547
H       -0.15276505      -2.07392876      -0.76911950       0.22132801       0.08202847      -0.03387367
H       -3.95979524      -3.67925016       0.10496021      -0.43777047      -0.29924010       0.06119653
H       -1.76330377      -3.90009538      -1.05955374      -0.00520170      -0.41121372      -0.15038630
H        3.01555871       2.90646728       1.07610464      -0.04712049      -0.28818682      -0.22800042
H       -1.05282939       0.83561795       1.39985049      -0.03386565      -0.27248901      -0.19074899
H       -5.42650056      -0.76827637       1.15205706      -0.08220544       0.01359218      -0.12227774
H       -4.66563726      -1.15224306       2.67441845       0.26984129       0.10533672      -0.10889441
H       -5.39462257      -2.43034975       1.76706863      -0.13984364      -0.18604632      -0.25496808
H        0.15915063       4.71036907       2.09403483      -0.04586488       0.21266552      -0.12199945
H        0.47835410       4.75727364       3.87247090      -0.13212437      -0.17122512      -0.59333870
H       -0.89791543       3.84653756       3.26611880       0.20317721       0.24770325      -0.37149978
H        1.99590640       3.14316150       2.72745232       0.19720472       0.11309424       0.45925906
H        0.84195733       2.22749826       3.68209104       0.13391720      -0.50809742       1.10049513
