38
Properties=species:S:1:pos:R:3:forces:R:3 id=8034 bond=C-O smiles="[H:28][c:15]1[c:14]([c:12]([n:3][c:10]([c:13]1[H:26])[N:19]([H:30])[c:11]2[c:17]([c:16]([c:18]([c:9]([n:2]2)[H:25])[C:6]3=[N:1][S:5][C:7](=[C:8]3[H:24])[H:23])[H:29])[O:4][C:22]([H:37])([H:38])[C:21]([H:34])([H:35])[H:36])[C:20]([H:31])([H:32])[H:33])[H:27]" dataset=PubChem energy=-35712.94385487724 pbc="F F F"
N        5.05045490       2.83182472      -0.45760792       1.23947874      -0.72938315      -0.43336605
N        1.33633595      -0.24462265      -0.54352361      -0.06236380       0.93866918       0.87803697
N       -2.63710517      -0.75974470       0.99701411      -1.42556516      -0.87171707       0.23392902
O        0.44664900       2.42653065       1.80210358      -2.03344187      -4.59857648      -6.87627152
S        6.56965332       3.07253259      -1.16575318      -1.06621887      -0.62317746      -0.08709425
C        4.62627868       1.60928994      -0.75403887       0.01248218       0.81939687      -0.52479378
C        6.59295873       1.55619782      -1.99704248      -0.63653054       0.06944266       1.03970815
C        5.47035818       0.84889084      -1.63155371       0.33747343       0.05882165      -0.42183111
C        2.58180218       0.12800181      -0.85068899       0.22205813       0.17324807       0.38323144
C       -1.45816845      -0.90321130       0.40655553      -0.34604693      -0.45467187       0.31652777
C        0.67016463       0.49777100       0.37204087      -0.66308127      -0.98429116      -0.39114494
C       -3.54621810      -1.75320393       0.89889988       1.43096114      -0.16244348      -0.68016489
C       -1.13259573      -2.03112894      -0.33871699       0.88394525      -0.15599127      -0.65170815
C       -3.24425143      -2.92207486       0.14424044      -1.12805248       0.57558252       0.76366864
C       -2.03749127      -3.07062155      -0.49692172       0.14392161       1.67522932       0.74335134
C        2.54723220       1.99938708       0.60811477      -1.02499659      -0.36250879       0.38074443
C        1.23490785       1.62890166       0.98979399       1.61487357       0.47935102      -1.09456076
C        3.27017360       1.22299069      -0.32269436      -1.12417198      -0.03945764       0.62650713
N       -0.63692565       0.15304708       0.73726214       1.63226040       1.06155637      -0.27622236
C       -4.84306020      -1.53172547       1.62434989       0.05969387      -0.16042851       0.17425659
C        0.14711326       4.16231952       3.04908620      -0.10234733       0.43971071       2.23183012
C        0.95579126       2.89107333       2.86809383       2.35441509       4.19892148       4.90962938
H        7.41961794       1.23318254      -2.61921197      -0.23080210       0.12277039       0.11999304
H        5.22742825      -0.14354795      -2.01205307       0.16140997       0.39223943       0.21402622
H        3.10433369      -0.50054413      -1.54495937      -0.06006939      -0.27649949      -0.35252742
H       -0.17002411      -2.08967597      -0.80525476       0.22174857       0.08340400      -0.03373207
H       -3.97705430      -3.69499737       0.06882495      -0.43832983      -0.29978713       0.06103016
H       -1.78056283      -3.91584259      -1.09568900      -0.00525856      -0.41162614      -0.15065795
H        2.99829965       2.89072007       1.03996938      -0.06269534      -0.28262172      -0.22301014
H       -1.07008845       0.81987074       1.36371523      -0.02117947      -0.26329137      -0.18425807
H       -5.44375962      -0.78402358       1.11592180      -0.08253094       0.01381293      -0.12223210
H       -4.68289632      -1.16799027       2.63828319       0.26979527       0.10549339      -0.10849237
H       -5.41188163      -2.44609696       1.73093337      -0.14033949      -0.18650408      -0.25485478
H        0.17640969       4.72611628       2.13017009      -0.06447654       0.22976334      -0.10481886
H        0.49561316       4.77302085       3.90860616      -0.09098543      -0.23051283      -0.60735927
H       -0.88065637       3.86228477       3.30225406       0.20287461       0.27249629      -0.36916548
H        2.01316546       3.15890871       2.76358758       0.00625977      -0.07151448       0.17913088
H        0.85921639       2.24324547       3.71822630       0.01110783      -0.55151248       0.68893896
