38
Properties=species:S:1:pos:R:3:forces:R:3 id=8034 bond=C-O smiles="[H:28][c:15]1[c:14]([c:12]([n:3][c:10]([c:13]1[H:26])[N:19]([H:30])[c:11]2[c:17]([c:16]([c:18]([c:9]([n:2]2)[H:25])[C:6]3=[N:1][S:5][C:7](=[C:8]3[H:24])[H:23])[H:29])[O:4][C:22]([H:37])([H:38])[C:21]([H:34])([H:35])[H:36])[C:20]([H:31])([H:32])[H:33])[H:27]" dataset=PubChem energy=-35691.11674799355 pbc="F F F"
N        5.13675020       2.91056077      -0.27693161       1.23471733      -0.74381373      -0.44808400
N        1.42263125      -0.16588660      -0.36284730      -0.01085543       0.90248927       0.88151468
N       -2.55080987      -0.68100865       1.17769042      -1.35039243      -0.84202978       0.21365587
O        0.53294430       2.50526670       1.98277989     -51.10903502     -53.61121916    -116.02678116
S        6.65594862       3.15126864      -0.98507687      -1.10194109      -0.64030242      -0.07760480
C        4.71257398       1.68802599      -0.57336256       0.09108400       0.87294919      -0.52957858
C        6.67925403       1.63493387      -1.81636617      -0.63289176       0.09297968       1.04803467
C        5.55665348       0.92762689      -1.45087740       0.29055159       0.04280754      -0.40628129
C        2.66809748       0.20673786      -0.67001268       0.14017057       0.13424089       0.41678750
C       -1.37187315      -0.82447525       0.58723184      -0.49262390      -0.62059985       0.28199184
C        0.75645993       0.57650705       0.55271718      -0.78893471      -0.89144344      -0.35344805
C       -3.45992280      -1.67446788       1.07957619       1.39916045      -0.15716905      -0.66336019
C       -1.04630043      -1.95239289      -0.15804068       0.90934916      -0.09284187      -0.62537553
C       -3.15795613      -2.84333881       0.32491675      -1.09406919       0.58007882       0.74934713
C       -1.95119597      -2.99188550      -0.31624541       0.11244446       1.65884132       0.74622531
C        2.63352750       2.07812313       0.78879108      -1.08875551      -0.07331666       0.55817967
C        1.32120315       1.70763771       1.17047030       1.72285727      -2.26496940      -4.13741446
C        3.35646890       1.30172674      -0.14201805      -1.27817573      -0.01223031       0.64464719
N       -0.55063035       0.23178313       0.91793845       1.80522774       1.19488410      -0.27345116
C       -4.75676490      -1.45298942       1.80502620       0.06284776      -0.16078664       0.17606095
C        0.06081796       4.08358347       2.86840989      -0.59861637       3.71470419       4.96076217
C        0.86949596       2.81233728       2.68741752      49.30598371      51.22241977     108.47055339
H        7.50591324       1.31191859      -2.43853566      -0.23138273       0.12171793       0.12152584
H        5.31372355      -0.06481190      -1.83137676       0.16824339       0.38860127       0.21144243
H        3.19062899      -0.42180808      -1.36428306      -0.06683562      -0.27656521      -0.34798326
H       -0.08372881      -2.01093992      -0.62457845       0.21915819       0.07341513      -0.03436348
H       -3.89075900      -3.61626132       0.24950126      -0.43475765      -0.29648392       0.06223716
H       -1.69426753      -3.83710654      -0.91501269      -0.00458852      -0.40900554      -0.14906168
H        3.08459495       2.96945612       1.22064569       0.00451856      -0.30325547      -0.20083887
H       -0.98379315       0.89860679       1.54439154      -0.12743522      -0.34523364      -0.20924677
H       -5.35746432      -0.70528753       1.29659811      -0.08057833       0.01287289      -0.12288407
H       -4.59660102      -1.08925422       2.81895950       0.27078040       0.10468667      -0.11098344
H       -5.32558633      -2.36736091       1.91160968      -0.13722764      -0.18420700      -0.25573678
H        0.09011439       4.64738023       1.94949378       0.08074211       0.08688049      -0.25770915
H        0.40931786       4.69428480       3.72792985      -0.31119389       0.14515898      -0.50095725
H       -0.96695167       3.78354872       3.12157775       0.22028633       0.06893291      -0.38526563
H        1.92687016       3.08017266       2.58291127       2.17863523       1.54509673       2.12250927
H        0.77292109       2.16450942       3.53754999       0.71967542      -1.03932420       4.45117955
