28
Properties=species:S:1:pos:R:3:forces:R:3 id=37013 bond=C-C smiles="[H:12][C:3]([H:13])([H:14])[C:9]([H:28])([C:10]([C:4]([H:15])([H:16])[H:17])([C:5]([H:18])([H:19])[H:20])[C:6]([H:21])([H:22])[H:23])[O:1][C:7]([H:24])([H:25])[C:8]([H:26])([H:27])[S:2][H:11]" dataset=PubChem energy=-21480.587853397945 pbc="F F F"
O       -0.00779903       1.07694727      -0.17764197       0.54034011      -0.05753336      -0.07005517
S       -0.57045490       4.22216665      -1.10849772       0.41880347      -0.78300708      -0.01066983
C        1.21127044       1.84959220       1.71330298       1.24155241      -0.91469876       0.07750854
C       -0.65386695      -0.76392854       1.98129798      -0.27410027      -0.55480370       0.56214098
C        1.70978604      -0.97563393       2.39218071       3.00024795      -0.92792402       1.54360104
C        0.94475400      -1.77113259       0.31817420      -0.53874480       0.32833792      -0.98839080
C        0.36975696       1.57236563      -1.44980227      -1.27577559      -0.57337619      -1.11128322
C       -0.72189052       2.57402908      -1.98964559       0.53061398      -0.58210040       2.17633196
C        1.06550046       0.70830633       0.72402707      -0.95446183      -0.06601084       0.23251268
C        0.74671405      -0.67718721       1.38111211      -1.60295386       0.40310712      -2.38536730
H        0.35752896       3.83557093      -0.17451613      -0.71942439       0.18378191      -0.70315938
H        0.46081206       1.74851143       2.46000780      -0.67498755       0.37796515       0.57106904
H        2.19726067       1.81503665       2.20261587      -0.36785928       0.02605097      -0.10571706
H        1.14244049       2.77024447       1.17576309      -0.12853139       0.57597754      -0.03736546
H       -1.39378912      -0.48247868       1.25130464      -0.33126751      -0.04682922      -0.24393513
H       -0.79256922      -0.09419877       2.85600604       0.20744726      -0.48248185      -0.44731622
H       -0.83679706      -1.83506191       2.30457605       0.12313882       1.29780005      -0.26606270
H        1.56445431      -2.02795107       2.73565831       0.35002271       0.85654625      -0.02347506
H        1.63251172      -0.29129440       3.21447912       0.08755469       0.12229447       0.69623508
H        2.74077534      -0.86116643       1.94850293      -0.76555957      -0.32325318       0.70491568
H        0.36271265      -1.53059113      -0.59614073       0.39378043      -0.19792113       0.44167256
H        0.58921477      -2.74759734       0.67964469       0.28835946       0.32399330      -0.05237374
H        2.02130836      -1.82106841       0.06310274      -0.62655078      -0.15279886       0.00802862
H        0.45420017       0.69691473      -2.16056905      -0.11681224       0.84901066       0.52218363
H        1.32168305       2.08961820      -1.47263943       0.28701699       0.07720192       0.32825098
H       -0.59130663       2.70650803      -3.03240286       0.24839755       0.33265233      -0.89964180
H       -1.73626179       2.18993007      -1.81082474       0.48573583       0.03172511       0.03437001
H        2.00758808       0.59923787       0.20526399       0.17578544      -0.12557582      -0.55370372
