28
Properties=species:S:1:pos:R:3:forces:R:3 id=37013 bond=C-C smiles="[H:12][C:3]([H:13])([H:14])[C:9]([H:28])([C:10]([C:4]([H:15])([H:16])[H:17])([C:5]([H:18])([H:19])[H:20])[C:6]([H:21])([H:22])[H:23])[O:1][C:7]([H:24])([H:25])[C:8]([H:26])([H:27])[S:2][H:11]" dataset=PubChem energy=-21477.270160711138 pbc="F F F"
O       -0.38060110       1.19247503      -0.56902337       0.35122640      -0.22176585       0.05657812
S       -0.94325697       4.33769441      -1.49987912       0.41825585      -0.78356323      -0.01182746
C        0.83846837       1.96511996       1.32192158       1.22843697      -0.92085981       0.07749167
C       -1.02666902      -0.64840078       1.58991658       0.85081410      -0.87804651       1.64090540
C        2.08258811      -1.09116169       2.78356211      -0.08795022      -0.38607574      -1.97036623
C        0.57195193      -1.65560483      -0.07320720       0.54224820       0.09061413       0.51072633
C       -0.00304511       1.68789339      -1.84118367      -1.21128831      -0.59932551      -1.19034226
C       -1.09469259       2.68955684      -2.38102699       0.51967501      -0.57966734       2.20681945
C        0.69269839       0.82383409       0.33264567       0.05601171      -0.06814592       1.00012560
C        0.37391198      -0.56165945       0.98973071       0.43135298      -0.27749095      -0.13888557
H       -0.01527311       3.95109869      -0.56589753      -0.71847194       0.18375446      -0.69942719
H        0.08800999       1.86403919       2.06862640      -0.65064262       0.34959994       0.56508007
H        1.82445860       1.93056441       1.81123447      -0.38930645      -0.05953213      -0.11182020
H        0.76963842       2.88577223       0.78438169      -0.14388348       0.60674941      -0.04820683
H       -1.76659119      -0.36695092       0.85992324      -0.18292899       0.04593182      -0.46703870
H       -1.16537129       0.02132899       2.46462464       0.13202051      -0.50004897      -0.50515078
H       -1.20959913      -1.71953415       1.91319465       0.08639468       1.35587757      -0.29008465
H        1.93725638      -2.14347883       3.12703971      -0.26803494       0.91387505      -0.62567457
H        2.00531379      -0.40682216       3.60586052      -0.53964437       0.44515299       0.15089740
H        3.11357741      -0.97669419       2.33988433      -1.35583801      -0.11564324       0.03639713
H       -0.01008942      -1.41506337      -0.98752213       0.29252549       0.05582064       0.51407834
H        0.21641270      -2.63206958       0.28826329       0.30623129       0.34003686      -0.11231667
H        1.64850629      -1.70554065      -0.32827866      -0.66973207      -0.17397486      -0.03404148
H        0.08139810       0.81244249      -2.55195045      -0.11595524       0.85119851       0.52370947
H        0.94888098       2.20514596      -1.86402083       0.27907383       0.06719409       0.33920614
H       -0.96410870       2.82203579      -3.42378426       0.25420989       0.32295938      -0.89771795
H       -2.10906386       2.30545783      -2.20220614       0.48346205       0.03191245       0.03009779
H        1.63478601       0.71476563      -0.18611741       0.10263003      -0.09690285      -0.54556554
