28
Properties=species:S:1:pos:R:3:forces:R:3 id=37013 bond=C-C smiles="[H:12][C:3]([H:13])([H:14])[C:9]([H:28])([C:10]([C:4]([H:15])([H:16])[H:17])([C:5]([H:18])([H:19])[H:20])[C:6]([H:21])([H:22])[H:23])[O:1][C:7]([H:24])([H:25])[C:8]([H:26])([H:27])[S:2][H:11]" dataset=PubChem energy=-21471.737923863868 pbc="F F F"
O        0.12423503       1.03603119      -0.03902773       0.57497467       0.10237751      -0.15332714
S       -0.43842084       4.18125057      -0.96988348       0.42002377      -0.78411737      -0.00877020
C        1.34330450       1.80867612       1.85191722       1.29829802      -0.95535791       0.12622740
C       -0.52183289      -0.80484462       2.11991222      -1.68405062      -0.41456539      -0.19930256
C        1.57775198      -0.93471785       2.25356647      36.14688064     -10.82322084      36.71552190
C        1.07678806      -1.81204867       0.45678844      -1.43316264       0.15182892      -2.71930055
C        0.50179102       1.53144955      -1.31118803      -1.29836929      -0.56111302      -1.10439955
C       -0.58985646       2.53311300      -1.85103135       0.53406582      -0.58190871       2.16418513
C        1.19753452       0.66739025       0.86264131      -1.81388185       0.64833655      -0.74616998
C        0.87874811      -0.71810329       1.51972635     -34.14415787      10.20392197     -36.65685468
H        0.48956302       3.79465485      -0.03590189      -0.72016822       0.18568071      -0.70640775
H        0.59284612       1.70759535       2.59862204      -0.68912040       0.39395550       0.57982909
H        2.32929473       1.77412057       2.34123011      -0.38114941       0.05690041      -0.09610468
H        1.27447455       2.72932839       1.31437733      -0.13261082       0.52669261      -0.06404884
H       -1.26175506      -0.52339476       1.38991888      -0.46556971      -0.05739273      -0.18660735
H       -0.66053516      -0.13511485       2.99462028       0.34996632      -0.46605203      -0.46872751
H       -0.70476300      -1.87597799       2.44319029       0.20012542       1.28671548      -0.29054553
H        1.43242025      -1.98703499       2.59704407       1.05588232       0.50639984       0.97937185
H        1.50047766      -0.25037832       3.07586488       0.79947487       0.05109808       1.54824557
H        2.60874128      -0.82025035       1.80988869       0.27819342      -0.50771409       1.38164034
H        0.49474671      -1.57150721      -0.45752649       0.40078229      -0.32312661       0.30087438
H        0.72124883      -2.78851342       0.81825893       0.25166059       0.39244125       0.04231458
H        2.15334242      -1.86198449       0.20171698      -0.64998897      -0.07516063       0.09514363
H        0.58623423       0.65599865      -2.02195481      -0.11685414       0.84784712       0.52106157
H        1.45371711       2.04870212      -1.33402519       0.28913389       0.08201833       0.32379023
H       -0.45927257       2.66559195      -2.89378862       0.24599581       0.33583077      -0.90057012
H       -1.60422773       2.14901399      -1.67221050       0.48694672       0.03092773       0.03547591
H        2.13962214       0.55832179       0.34387823       0.19997673      -0.25629264      -0.51133873
