32
Properties=species:S:1:pos:R:3:forces:R:3 id=25004 bond=C-N smiles="[H:12][C:2](=[C:1]([C:4]([H:14])([H:15])[H:16])[C:5]([H:17])([H:18])[H:19])[C:9]([H:29])([H:30])[C:11]([H:32])([C:8]([H:26])([H:27])[H:28])[C:10]([H:31])([C:7]([H:23])([H:24])[H:25])[N:3]([H:13])[C:6]([H:20])([H:21])[H:22]" dataset=PubChem energy=-12202.407676433822 pbc="F F F"
C       -0.69092218       1.93059677      -1.08403580       0.02172170      -2.44368281       4.99978263
C       -1.13282184       1.34677291       0.17100655       2.85770494       1.71244961      -2.76585412
N        2.35029836      -0.33173579       0.58640380     -10.78814988       8.69167943      42.21717618
C        0.52311661       2.84515423      -1.13567572      -1.02219459       0.53653805       0.48639764
C       -1.29361860       1.44290627      -2.34839849       0.00238109       0.63070069      -1.20537358
C        2.64185270      -0.53267898      -0.39870849      12.72436156      -7.89305416     -37.79895118
C        0.73706031      -2.21125656       1.28962351       0.27655395       0.35111967      -0.05285046
C        1.39367779       0.51346026       3.03835411      -0.84185556       0.23957182       0.02642079
C       -0.39333508       1.44623947       1.55999572      -0.93097232      -0.32331768      -3.00055513
C        0.90322010      -0.72487777       0.90688552       0.78955751       0.79048142       1.06239297
C        0.28520172       0.14292092       2.00412089       0.26215062       1.11672398       0.72298627
H       -1.85608224       0.55960503       0.13447083      -0.69877123      -0.11549630      -0.23261679
H        2.83699246       0.50906687       0.96557123      -2.00481637      -0.96743152       0.88886835
H        0.28320803       3.48027939      -1.99162655       0.36748310       0.56443275       0.26851828
H        1.46753438       2.32301492      -1.45273333      -0.78805790       0.34869380       0.89488875
H        0.52287291       3.46320862      -0.15315699       0.69401036      -1.04165279      -1.93713222
H       -2.19473247       0.95679749      -2.02638178      -0.26135474      -0.99859783      -0.42646244
H       -1.68187718       2.26792986      -2.99371605       0.59312571      -0.32309380       0.38103044
H       -0.58231179       0.82889641      -3.00469499      -1.08023549       0.62725051       1.14079160
H        3.68476184      -0.13357969      -0.63338902      -0.66602654      -1.00847037      -0.48336635
H        1.99288960       0.02316044      -1.05024519      -0.78592878       0.24883987      -3.59763830
H        2.58515199      -1.62245741      -0.60590401       0.33397819      -0.32388173      -1.60606634
H       -0.32861606      -2.47467094       1.06332517       1.04242054      -0.03775106       0.39536637
H        0.98761862      -2.36479383       2.38109226      -0.41756006       0.10373503      -1.26421304
H        1.42487248      -2.81250744       0.67189006      -0.47331250      -0.01866645       0.33259432
H        1.96511336       1.39308989       2.58417553      -0.08475570      -1.65019250       0.91400082
H        0.90180113       0.90978057       3.93311305       0.10002547       0.10080945      -0.12796125
H        1.91643162      -0.41610366       3.38898868       0.15707217       1.24142815      -0.68424632
H        0.39681976       2.11693841       1.40988166       0.76590295       1.58817900       0.11624576
H       -1.13130991       1.77905578       2.27412922       0.21697056       0.21625070       0.48222595
H        0.45496623      -0.48289746      -0.04979463      -0.61624103      -0.34300647      -0.21657028
H       -0.56747071      -0.24988728       2.53664083       0.25586069      -1.62172858       0.07053973
