32
Properties=species:S:1:pos:R:3:forces:R:3 id=25004 bond=C-N smiles="[H:12][C:2](=[C:1]([C:4]([H:14])([H:15])[H:16])[C:5]([H:17])([H:18])[H:19])[C:9]([H:29])([H:30])[C:11]([H:32])([C:8]([H:26])([H:27])[H:28])[C:10]([H:31])([C:7]([H:23])([H:24])[H:25])[N:3]([H:13])[C:6]([H:20])([H:21])[H:22]" dataset=PubChem energy=-12181.966513332847 pbc="F F F"
C       -0.65990576       1.90921983      -1.18883498       0.05456341      -2.42738199       4.98057244
C       -1.10180542       1.32539597       0.06620737       2.82685255       1.72363925      -2.77520865
N        2.38131478      -0.35311273       0.48160462     -40.94655561      30.23034393     146.52382502
C        0.55413303       2.82377729      -1.24047490      -1.03365600       0.55833545       0.49210265
C       -1.26260218       1.42152933      -2.45319767       0.00287533       0.62407703      -1.20384711
C        2.61083628      -0.51130204      -0.29390931      44.04740461     -29.15222163    -139.45661724
C        0.76807673      -2.23263350       1.18482433       0.38823750       0.41373961       0.02737218
C        1.42469421       0.49208332       2.93355493      -0.84384787       0.23663874       0.03597596
C       -0.36231866       1.42486253       1.45519654      -0.93960364      -0.33445696      -3.01399705
C        0.93423652      -0.74625471       0.80208634      -0.64410134       0.28662760       2.57851210
C        0.31621814       0.12154398       1.89932171       0.22779101       1.11927809       0.78023259
H       -1.82506582       0.53822809       0.02967165      -0.69765866      -0.11881418      -0.22916873
H        2.86800888       0.48768993       0.86077205      -2.47580556      -0.18301385       2.26208572
H        0.31422445       3.45890245      -2.09642573       0.35864264       0.57194985       0.27170215
H        1.49855080       2.30163798      -1.55753251      -0.80183696       0.29488567       0.89796345
H        0.55388933       3.44183168      -0.25795617       0.67940784      -1.02495129      -1.93297427
H       -2.16371605       0.93542055      -2.13118096      -0.26616837      -0.99662799      -0.42540374
H       -1.65086076       2.24655292      -3.09851523       0.59214914      -0.31879684       0.38753150
H       -0.55129537       0.80751947      -3.10949417      -1.06918274       0.63121078       1.16290472
H        3.65374542      -0.11220275      -0.52858984       0.42404981      -1.14610076      -1.79121567
H        1.96187318       0.04453738      -0.94544601      -1.50220848       1.12843775      -6.41078090
H        2.55413557      -1.60108047      -0.50110483       0.29956780      -1.91168344      -2.96278631
H       -0.29759964      -2.49604788       0.95852599       1.08790505      -0.00701360       0.35839475
H        1.01863504      -2.38617077       2.27629308      -0.46914263       0.11611411      -1.24028040
H        1.45588890      -2.83388438       0.56709088      -0.46671596      -0.02931933       0.28807043
H        1.99612978       1.37171295       2.47937635      -0.08066722      -1.63832839       0.92113945
H        0.93281755       0.88840363       3.82831387       0.11094252       0.09316532      -0.13616655
H        1.94744804      -0.43748060       3.28418950       0.15997033       1.22802794      -0.67117815
H        0.42783618       2.09556147       1.30508248       0.76342573       1.59966739       0.11526669
H       -1.10029349       1.75767884       2.16933004       0.22392105       0.21478391       0.48670741
H        0.48598265      -0.50427440      -0.15459381      -0.26905213      -0.17170487      -0.40103980
H       -0.53645429      -0.27126422       2.43184165       0.25757330      -1.61133278       0.08164380
