27
Properties=species:S:1:pos:R:3:forces:R:3 id=22232 bond=C-C smiles="[H:22][C:7]1([C:5]([C:9]2([C:6]([C:8]([C:10]1([C:11]([N:2]2[Cl:1])([C:3]([H:12])([H:13])[H:14])[C:4]([H:15])([H:16])[H:17])[H:27])([H:24])[H:25])([H:20])[H:21])[H:26])([H:18])[H:19])[H:23]" dataset=PubChem energy=-23584.05745080403 pbc="F F F"
Cl       2.68765626      -1.78316502       1.22582285      -1.50309474       2.18490230      -0.67026349
N        1.63363586      -0.36872212       0.69866679      -0.14350798      -3.65511086      -4.07738899
C        2.07205922       1.38568589       1.58782738     122.76037522      95.66826206      22.49517531
C        0.90705672       0.29407113       2.76752065      -4.36981084      -2.88174228       0.91046209
C        1.17073069       0.82680460      -1.45778323       1.78009953      -0.74364548       0.43167919
C       -0.62125959      -0.41594700      -0.29373373      -0.03642489      -2.53717172       0.11639679
C        0.56352445       2.01694008      -0.71228291      -2.41932174      -2.17824594      -0.48127912
C       -0.94391860       0.69101951       0.66410397      -2.30366662       2.11876820      -0.59759755
C        0.90436298      -0.42191486      -0.67396141      -0.55226525      -2.37893621       2.04450905
C        0.21252547       1.59849431       0.75623203      -1.56233485       1.09441900      -1.46446930
C        1.42228792       0.88332150       1.47460627    -121.78022001     -93.68673040     -19.38569819
H        2.72194416       1.00603517       2.43770044       1.85622324       1.45942226      -0.98770475
H        1.68526227       2.42525490       1.86803871       2.09561933      -0.39590059       0.66954020
H        2.63970977       1.51044258       0.69336351       1.65010606       1.50189579      -0.58424108
H        1.71350847      -0.18497525       3.34289836      -0.26279571       0.20173986      -0.56905457
H        0.05628483      -0.45002155       2.54285370       1.55381361       0.82441368       0.87472782
H        0.44951506       1.05683972       3.34376286      -0.23450911       0.97832290       0.89128941
H        2.27373240       0.85728906      -1.49552060      -0.35252870       0.51097379      -0.07575839
H        0.88330188       0.61845981      -2.47282172      -0.62309609       0.51211200      -0.43975266
H       -0.93953230      -1.33906416       0.27188586       0.62774226       0.41793441      -1.22804855
H       -1.21771314      -0.31682031      -1.22042192       0.23303401      -0.23461786       0.48349320
H        1.19851689       2.79690810      -0.79994059       2.03649787       2.62567480       0.12631451
H       -0.37214877       2.33658906      -1.25572289       0.74140098      -0.29878143       0.84923420
H       -1.70604398       1.29890283       0.13587664      -0.08004604      -0.21868595       0.55294797
H       -1.38637020       0.49534597       1.65792512       0.39111218      -0.53584449      -0.76652545
H        1.18882350      -1.37238435      -1.26155389      -0.32305848       1.53057420       1.23312913
H       -0.06654610       2.58680792       1.30634491       0.81773087      -1.88570318      -0.35497782
