27
Properties=species:S:1:pos:R:3:forces:R:3 id=22232 bond=C-C smiles="[H:22][C:7]1([C:5]([C:9]2([C:6]([C:8]([C:10]1([C:11]([N:2]2[Cl:1])([C:3]([H:12])([H:13])[H:14])[C:4]([H:15])([H:16])[H:17])[H:27])([H:24])[H:25])([H:20])[H:21])[H:26])([H:18])[H:19])[H:23]" dataset=PubChem energy=-23611.55687752487 pbc="F F F"
Cl       2.19130319      -2.16691560       1.13933450      -1.56391256       2.42028217      -0.79105556
N        1.13728279      -0.75247270       0.61217844       0.52643511       0.08273967      -2.23947267
C        2.56841229       1.76943647       1.67431573      -2.51395244      -0.55498573       1.55790452
C        0.41070365      -0.08967945       2.68103230      -0.33232738      -0.55472978       0.64151290
C        0.67437762       0.44305402      -1.54427158       1.80575429      -0.70569198       0.50477399
C       -1.11761266      -0.79969758      -0.38022208      -0.06794084      -2.55090379       0.27374774
C        0.06717138       1.63318950      -0.79877126      -2.56318601      -2.16529173      -0.54907585
C       -1.44027167       0.30726893       0.57761562      -2.08754972       1.76975348      -0.35555025
C        0.40800991      -0.80566544      -0.76044976      -0.27978158      -2.17035425       1.67951492
C       -0.28382760       1.21474373       0.66974368       1.97062512       2.98947356       0.01408234
C        0.92593485       0.49957092       1.38811792       1.22767435      -0.95922920      -0.04288679
H        3.21829723       1.38978575       2.52418879      -1.04519156       0.18369346      -1.15732546
H        2.18161534       2.80900548       1.95452706       0.17926161      -1.61705032      -0.26957031
H        3.13606284       1.89419316       0.77985186       0.18650083      -0.41409934      -0.72767661
H        1.21715540      -0.56872583       3.25641001      -0.48871490       0.11684146      -0.22722005
H       -0.44006824      -0.83377213       2.45636535       1.79338091       0.95301201       0.40948502
H       -0.04683801       0.67308914       3.25727451      -0.23884078       0.82893346       0.98356991
H        1.77737933       0.47353848      -1.58200895      -0.34914517       0.52150290      -0.02705416
H        0.38694881       0.23470923      -2.55931007      -0.60198389       0.47636263      -0.43920529
H       -1.43588537      -1.72281474       0.18539751       0.61053160       0.40849450      -1.22650783
H       -1.71406621      -0.70057089      -1.30691027       0.27879181      -0.25592162       0.47301222
H        0.70216382       2.41315752      -0.88642894       2.03919684       2.58287357       0.22208337
H       -0.86850184       1.95283848      -1.34221124       0.71955383      -0.31693880       0.77692892
H       -2.20239705       0.91515225       0.04938829       0.06456001      -0.16994421       0.59922346
H       -1.88272327       0.11159539       1.57143677       0.34934599      -0.55367750      -0.76645780
H        0.69247043      -1.75613493      -1.34804224      -0.32054038       1.53065170       1.24337302
H       -0.56289917       2.20305734       1.21985656       0.69960256      -1.87484282      -0.56355593
