27
Properties=species:S:1:pos:R:3:forces:R:3 id=22232 bond=C-C smiles="[H:22][C:7]1([C:5]([C:9]2([C:6]([C:8]([C:10]1([C:11]([N:2]2[Cl:1])([C:3]([H:12])([H:13])[H:14])[C:4]([H:15])([H:16])[H:17])[H:27])([H:24])[H:25])([H:20])[H:21])[H:26])([H:18])[H:19])[H:23]" dataset=PubChem energy=-23610.833580723564 pbc="F F F"
Cl       2.11910638      -2.22273387       1.12675438      -1.58909308       2.43220702      -0.79464505
N        1.06508598      -0.80829097       0.59959832       0.52158679       0.35032191      -2.04234189
C        2.64060910       1.82525474       1.68689585      -2.17184099      -0.25755009       1.65383851
C        0.33850684      -0.14549772       2.66845218      -0.18794094      -0.51026392       0.71540995
C        0.60218081       0.38723575      -1.55685170       1.81339929      -0.69171423       0.51699272
C       -1.18980947      -0.85551585      -0.39280220      -0.07664163      -2.54592260       0.31214650
C       -0.00502543       1.57737123      -0.81135138      -2.56607734      -2.16470735      -0.55366489
C       -1.51246848       0.25145066       0.56503550      -2.08397468       1.72202367      -0.35197108
C        0.33581310      -0.86148371      -0.77302988      -0.26748046      -2.15954539       1.61997768
C       -0.35602441       1.15892546       0.65716356       2.06921045       3.10387218      -0.00187917
C        0.85373804       0.44375265       1.37553780       0.77246411      -1.53537110      -0.33045186
H        3.29049404       1.44560402       2.53676891      -1.08682837       0.13749503      -1.14928265
H        2.25381215       2.86482375       1.96710718       0.12578475      -1.64560476      -0.27910351
H        3.20825965       1.95001143       0.79243198       0.15143365      -0.45464995      -0.76284404
H        1.14495859      -0.62454410       3.24382989      -0.50016000       0.11987440      -0.22084933
H       -0.51226505      -0.88959040       2.44378523       1.78377234       0.94762086       0.39368316
H       -0.11903482       0.61727087       3.24469439      -0.22582649       0.82596516       0.96678521
H        1.70518252       0.41772021      -1.59458907      -0.35313714       0.52636540      -0.02555272
H        0.31475200       0.17889096      -2.57189019      -0.60189650       0.46865617      -0.43481528
H       -1.50808218      -1.77863301       0.17281739       0.60756636       0.40801486      -1.22692428
H       -1.78626302      -0.75638916      -1.31949039       0.29076013      -0.25713644       0.47316090
H        0.62996701       2.35733925      -0.89900906       2.04204413       2.57516580       0.23464842
H       -0.94069865       1.89702021      -1.35479136       0.71610295      -0.32053316       0.77597321
H       -2.27459386       0.85933398       0.03680817       0.07599731      -0.16347050       0.59883197
H       -1.95492008       0.05577712       1.55885665       0.35045351      -0.55459921      -0.76582216
H        0.62027362      -1.81195320      -1.36062236      -0.31703139       1.53078662       1.24600747
H       -0.63509598       2.14723907       1.20727644       0.70627596      -1.88516123      -0.56777586
