19
Properties=species:S:1:pos:R:3:forces:R:3 id=4301 bond=C-S smiles="[H:8][C:3]([H:9])([H:10])[S:1][C:5]([H:14])([H:15])[C:7]([H:18])([H:19])[C:6]([H:16])([H:17])[S:2][C:4]([H:11])([H:12])[H:13]" dataset="DES370K Monomers" energy=-27040.64361343143 pbc="F F F"
S        2.46877936      -1.15593451      -0.59714452      -0.42750221      -0.56408862       0.67973774
S       -2.84432074       0.51200688       0.23065367      42.41291890      82.57674250       7.75417177
C        3.07745150       0.40282256      -1.27138284      -0.24456717       0.14273594       0.69548661
C       -3.36241225      -0.48321545       0.15733639     -40.02877937     -77.19721892      -7.48139348
C        1.18489662      -0.61022272       0.64381775      -0.46743102      -0.17472385      -0.71036168
C       -1.23763891       0.06450081       0.99880477       0.68696856       0.87593116      -0.06165335
C       -0.21410731      -0.47680437      -0.01568731       0.21328470      -0.76203622       0.80108436
H        2.26461056       0.99217498      -1.66050592      -0.22600082       0.20682621      -0.25109919
H        3.79861596       0.21135849      -2.05788866      -0.03520869      -0.23038888      -0.00399735
H        3.55914334       0.95018411      -0.47024725       0.16875885       0.20054173      -0.02477499
H       -2.83260348      -1.05652118      -0.66385778      -1.46199647      -2.70908371       0.12682443
H       -3.34790233      -1.00110078       1.11110369      -1.14335020      -2.34267047       0.22331965
H       -4.41473511      -0.33172912      -0.14966762       0.11659532      -1.13544967      -0.07100609
H        1.49250189       0.34874463       1.03917893       0.12668685       0.26399772       0.01840496
H        1.09419897      -1.28011048       1.51571377       0.52987671      -0.04951239      -0.61581412
H       -1.40980848      -0.67854607       1.81621476      -0.21798145       0.36472253      -0.59419670
H       -0.82890227       0.96040476       1.48203620      -0.12014989      -0.09684285      -0.18755069
H       -0.10324810       0.18616039      -0.86701885      -0.30688694      -0.00308168      -0.13686036
H       -0.55779394      -1.48180365      -0.33863554       0.42057028       0.62869519      -0.15648208
