23
Properties=species:S:1:pos:R:3:forces:R:3 id=41617 bond=C-O smiles="[H:16][C:6]1=[C:7]([N:9]([C:5](=[S:1])[N:8]1[H:17])[H:18])[C@:11]2([C@:13]([C@:12]([C:10]([O:2]2)([H:19])[H:20])([H:22])[O:3][H:14])([H:23])[O:4][H:15])[H:21]" dataset=PubChem energy=-27353.363441421687 pbc="F F F"
S        3.94851524       0.99741688      -2.48849429       0.57859913       0.35688705      -0.41148872
O       -0.40377455      -0.70284844       1.65153592      -0.13167190       0.76937557       0.81897174
O       -1.00430276       1.52873438       2.97474378      33.37794008      11.73295630     224.22814208
O        1.02960051       2.60841322       2.06133281      -0.25957975      -0.56689452      -0.08047595
C        2.91250212       0.26362577      -1.45917310      -0.92240719      -1.41546877       0.16218017
C        1.23602486      -1.10600782      -0.68933047       0.73604444       1.55281647       1.29376820
C        1.45631678      -0.10630286       0.23245423      -1.07529144      -1.86566555      -0.97078527
N        2.18947822      -0.91284299      -1.68557252       0.23111895       0.65081385      -0.34435684
N        2.50944096       0.66368758      -0.20932425       0.01984685       1.10481485      -0.12598007
C       -1.58758634       0.10866791       1.76738225      -3.15219142      -3.12287529      -5.23468749
C        0.70485177       0.19110482       1.47828226       1.17416663       0.17587551       0.32262687
C       -1.11876994       1.48659485       2.23165821     -34.99399803      -9.37927308    -214.37391926
C        0.17875994       1.62538719       1.49106591       3.48814476       0.83459396      -7.39296173
H       -0.48249807       0.79609768       3.29725832       1.87124726      -1.59491113       3.77923272
H        0.90101269       2.64266300       3.01346432       0.02309938       0.05779611       0.20439946
H        0.52053368      -1.90026808      -0.64999713       0.01998317      -0.11273904      -0.11208330
H        2.20721537      -1.39991713      -2.58317531       0.15597219       0.53696493       0.69897408
H        2.68895465       1.62319374       0.13270406      -0.01319948      -1.15210720      -0.41359876
H       -2.07100790       0.17653289       0.76540769       0.15913944      -0.38598219       0.47856492
H       -2.33559673      -0.33264399       2.46036802       0.73810012       0.14249166      -0.09543876
H        1.40664238       0.06103578       2.30749725       0.04531679      -0.12786616       0.22567074
H       -1.75619667       2.29059982       1.91167818      -2.46696115       1.87935884      -3.51788015
H        0.00607151       1.92344450       0.42451708       0.39897549      -0.07467356       0.86689732
