17
Properties=species:S:1:pos:R:3:forces:R:3 id=14830 bond=C-C smiles="[H:8][C:3]([H:9])([H:10])[C:6]([H:17])([C:7]([C:4]([H:11])([H:12])[H:13])([C:5]([H:14])([H:15])[H:16])[Br:2])[Br:1]" dataset=PubChem energy=-145443.37856376418 pbc="F F F"
Br       2.51499573       1.46937806      -1.12475880       0.03526574      -0.39005042      -0.06318090
Br       1.31729905       1.44564146       2.38041071       0.42339802      -0.49743461       0.39076244
C        0.04953478       2.46233958      -0.19416567       2.87758718      -0.89172889      -0.03573271
C        1.59982527      -0.84475901       0.67618420       6.51853505      -6.69121726      -0.29911073
C       -0.47659059      -0.53400069       1.43186096      -2.83044474       2.77995501      -1.24553818
C        0.75532744       1.00637245      -0.39750936      -1.25066036       3.53044681       1.92436870
C        0.80365304       0.18564784       0.97387500      -5.09732101       4.92672811      -0.96789410
H        0.82692997       3.21154517       0.27836166      -1.89004060      -1.55092371      -1.17397951
H       -0.73898681       2.26056641       0.45659450      -1.27693899       0.05823531       1.40827563
H       -0.41001185       2.80595201      -1.10114237       0.32739540       0.33044806      -0.58208740
H        2.65569031      -0.50234415       0.66119843      -0.39155547      -0.78426960      -0.01527576
H        1.39683348      -1.22103300      -0.36636680       0.11412809       0.01907522       1.22769637
H        1.46107424      -1.68018188       1.44931168       0.79995727       0.84181623      -1.36540014
H       -1.32931050       0.09880269       1.79332320       0.68523922      -0.14953345      -0.83268152
H       -0.25543507      -1.05566602       2.27610651       1.03589150      -1.46764328       2.39090036
H       -0.86360534      -1.28218740       0.73792873       0.21692631       0.35511335      -0.37903417
H        0.25483934       0.43735638      -1.14684756      -0.30281180      -0.42515199      -0.37871986
