17
Properties=species:S:1:pos:R:3:forces:R:3 id=14830 bond=C-C smiles="[H:8][C:3]([H:9])([H:10])[C:6]([H:17])([C:7]([C:4]([H:11])([H:12])[H:13])([C:5]([H:14])([H:15])[H:16])[Br:2])[Br:1]" dataset=PubChem energy=-145442.34113517532 pbc="F F F"
Br       2.28163490       1.77139386      -1.03750460       0.02786716      -0.50595298       0.02765253
Br       1.08393822       1.74765726       2.46766491       0.50737317      -0.92059697       0.02538556
C       -0.18382605       2.76435538      -0.10691147       2.83810190      -0.88870816       0.14311303
C        1.83318610      -1.14677481       0.58893000      -0.69168277       1.00273139       0.89072351
C       -0.70995142      -0.23198489       1.51911516      -1.06620567       1.69995632      -1.65871214
C        0.52196661       1.30838825      -0.31025516      -0.36736810       2.04116070       2.03607592
C        0.57029221       0.48766364       1.06112920       1.26706886      -1.87428839      -2.37759853
H        0.59356914       3.51356097       0.36561586      -1.88721661      -1.56613286      -1.17911444
H       -0.97234764       2.56258221       0.54384870      -1.29958051       0.09208264       1.40796445
H       -0.64337268       3.10796781      -1.01388817       0.34036649       0.27689482      -0.59531944
H        2.88905114      -0.80435995       0.57394423      -0.91439685       0.07367973       0.34125095
H        1.63019431      -1.52304880      -0.45362100      -0.41944263       0.69841756       1.16914816
H        1.69443507      -1.98219768       1.36205748      -0.07247892       1.53164473      -1.06757805
H       -1.56267133       0.40081849       1.88057740       0.81984888       0.00895434      -0.82963125
H       -0.48879590      -0.75365022       2.36336071       0.97646870      -1.57771333       2.41188205
H       -1.09696617      -0.98017160       0.82518293       0.21259444       0.34603265      -0.36158614
H        0.02147851       0.73937218      -1.05959336      -0.27491977      -0.44103594      -0.38472551
