17
Properties=species:S:1:pos:R:3:forces:R:3 id=14830 bond=C-C smiles="[H:8][C:3]([H:9])([H:10])[C:6]([H:17])([C:7]([C:4]([H:11])([H:12])[H:13])([C:5]([H:14])([H:15])[H:16])[Br:2])[Br:1]" dataset=PubChem energy=-145441.9660240901 pbc="F F F"
Br       2.25418069       1.80692513      -1.02723941       0.01871089      -0.52185154       0.04015620
Br       1.05648401       1.78318853       2.47793010       0.50106975      -0.94333354       0.00027295
C       -0.21128026       2.79988665      -0.09664628       2.83299958      -0.87943648       0.16360214
C        1.86064031      -1.18230608       0.57866481      -0.62229324       0.81597138       0.77376661
C       -0.73740563      -0.19645362       1.52938035      -0.97612607       1.62525166      -1.68191858
C        0.49451240       1.34391952      -0.29998997      -0.29620713       1.95776194       2.02407175
C        0.54283800       0.52319491       1.07139439       1.13199484      -1.62544761      -2.27212149
H        0.56611493       3.54909224       0.37588105      -1.88694978      -1.56740235      -1.17956932
H       -0.99980185       2.59811348       0.55411389      -1.30061047       0.09455041       1.40701578
H       -0.67082689       3.14349908      -1.00362298       0.34172726       0.27153873      -0.59760214
H        2.91650535      -0.83989122       0.56367904      -0.93360992       0.13290714       0.35744129
H        1.65764852      -1.55858007      -0.46388619      -0.44191895       0.71999216       1.16788614
H        1.72188928      -2.01772895       1.35179229      -0.10628765       1.56202098      -1.04864257
H       -1.59012554       0.43634976       1.89084259       0.82332406       0.02552193      -0.82710292
H       -0.51625011      -0.71811895       2.37362590       0.97084378      -1.57900226       2.41219832
H       -1.12442038      -0.94464033       0.83544812       0.21474663       0.34840554      -0.35972519
H       -0.00597570       0.77490345      -1.04932817      -0.27387824      -0.44276147      -0.38061790
