20
Properties=species:S:1:pos:R:3:forces:R:3 id=16941 bond=C-O smiles="[H:10][C:4]1([C:5]([C:7]([C:9]([C:8]([C:6]1([H:14])[H:15])([H:18])[H:19])([H:20])[O:3][N:2]=[O:1])([H:16])[H:17])([H:12])[H:13])[H:11]" dataset=PubChem energy=-11987.50455023397 pbc="F F F"
O       -0.82626772       3.91620232      -1.38771863       3.84076588      -3.08616144      -0.36884997
N        0.14654630       3.20060207      -1.70984717      -2.32627155       1.08499035       1.71127959
O        0.75476519       2.44265260      -0.66968103      -2.11868313      -0.88323868      -1.07498043
C        0.86107027      -0.65184400       2.13706827      -0.51207892       0.40176158       0.68518806
C       -0.39361383       0.20010093       1.86522329      -0.01840768      -0.37406688       0.11304146
C        1.91297810      -0.31245300       1.13485581       0.36601348      -1.22922401      -1.64625868
C       -0.89040489      -0.10430259       0.45132140       0.91952340       1.83182449       0.13535910
C        1.43012886      -0.62666718      -0.30701059       0.31915746       2.58148531       0.24202738
C        0.15353631       0.15380423      -0.64125442      -0.27090408      -2.65951245       1.10248569
H        1.27724861      -0.45414940       3.12051821      -0.23044818      -0.04053847       0.26283658
H        0.62322705      -1.73291895       2.09074080       0.00382969       0.51530348       0.00121012
H       -0.22843284       1.28208175       1.98728776       0.25392134      -0.45825695      -0.18564799
H       -1.21486361      -0.04664293       2.53810382       0.13758704      -0.10515876       0.14949389
H        2.23919074       0.71313980       1.15424818      -0.07208893       0.42282617       0.20189801
H        2.78732912      -0.94188032       1.26272810       0.25238382       0.03406983       0.30135609
H       -1.18765409      -1.16121170       0.42365143       0.29583329       0.07744516      -0.55022695
H       -1.75365217       0.48707151       0.27476845      -0.92079880       0.36844720      -0.37769383
H        1.25897591      -1.69951698      -0.45727092      -0.41206250       0.24103884      -0.05529377
H        2.20416038      -0.31253263      -0.99261319       0.21983229      -0.16504486      -0.32920667
H       -0.24618364      -0.14638494      -1.61235856       0.27350368       1.44223816      -0.31678916
