20
Properties=species:S:1:pos:R:3:forces:R:3 id=16941 bond=C-O smiles="[H:10][C:4]1([C:5]([C:7]([C:9]([C:8]([C:6]1([H:14])[H:15])([H:18])[H:19])([H:20])[O:3][N:2]=[O:1])([H:16])[H:17])([H:12])[H:13])[H:11]" dataset=PubChem energy=-11987.031969120979 pbc="F F F"
O       -0.80440485       3.99943317      -1.38875232       3.69027944      -2.99792246      -0.37468658
N        0.16840917       3.28383292      -1.71088086      -2.07768984       0.92218911       1.94290982
O        0.77662806       2.52588345      -0.67071472      -2.11873940      -0.42344147      -1.33915048
C        0.83920740      -0.73507485       2.13810196      -0.51292028       0.39617260       0.68321797
C       -0.41547670       0.11687008       1.86625698      -0.01349969      -0.38109680       0.13582555
C        1.89111523      -0.39568385       1.13588950       0.37333014      -1.23218503      -1.62608143
C       -0.91226776      -0.18753344       0.45235509       0.95757630       1.99167031       0.13883063
C        1.40826599      -0.70989803      -0.30597690       0.35045790       2.74524106       0.26389773
C        0.13167344       0.07057338      -0.64022073      -0.42275998      -3.38399150       1.21274751
H        1.25538574      -0.53738025       3.12155190      -0.23216986      -0.03917233       0.25712913
H        0.60136418      -1.81614980       2.09177449       0.00419115       0.51385694       0.00416157
H       -0.25029571       1.19885090       1.98832145       0.24922703      -0.45560104      -0.18936201
H       -1.23672648      -0.12987378       2.53913751       0.13848677      -0.10433545       0.14502293
H        2.21732787       0.62990895       1.15528187      -0.07025467       0.42352165       0.19617855
H        2.76546625      -1.02511117       1.26376179       0.24926739       0.03518761       0.29833854
H       -1.20951696      -1.24444255       0.42468512       0.30808034       0.05584529      -0.57997646
H       -1.77551504       0.40384066       0.27580214      -0.93017673       0.35825476      -0.38113920
H        1.23711304      -1.78274783      -0.45623723      -0.44308353       0.23157242      -0.08285800
H        2.18229751      -0.39576348      -0.99157950       0.22851433      -0.17664018      -0.33928242
H       -0.26804651      -0.22961579      -1.61132487       0.27284735       1.52176709      -0.36612625
