20
Properties=species:S:1:pos:R:3:forces:R:3 id=16941 bond=C-O smiles="[H:10][C:4]1([C:5]([C:7]([C:9]([C:8]([C:6]1([H:14])[H:15])([H:18])[H:19])([H:20])[O:3][N:2]=[O:1])([H:16])[H:17])([H:12])[H:13])[H:11]" dataset=PubChem energy=-11990.399984117706 pbc="F F F"
O       -0.94651350       3.45843265      -1.38203331       4.88577800      -3.60174148      -0.45275215
N        0.02630052       2.74283240      -1.70416185      -4.05375649       2.40406421       0.43737280
O        0.63451941       1.98488293      -0.66399571      -0.72279685       1.95506812       0.22125593
C        0.98131605      -0.19407433       2.13138295      -0.50171840       0.43331211       0.70605942
C       -0.27336805       0.65787060       1.85953797      -0.03085903      -0.35209857      -0.06796269
C        2.03322388       0.14531667       1.12917049       0.30711853      -1.21504226      -1.76151580
C       -0.77015911       0.35346708       0.44563608       0.41384545      -0.20098507       0.13594895
C        1.55037464      -0.16889751      -0.31269591      -0.07570549       0.53545248       0.15068361
C        0.27378209       0.61157390      -0.64693974      -0.06990972      -1.38665718       0.46033860
H        1.39749439       0.00362027       3.11483289      -0.21777493      -0.04828648       0.29966595
H        0.74347283      -1.27514928       2.08505548      -0.00068309       0.53592437      -0.02582616
H       -0.10818706       1.73985142       1.98160244       0.29032053      -0.43265929      -0.09398132
H       -1.09461783       0.41112674       2.53241850       0.13720111      -0.07762437       0.16768980
H        2.35943652       1.17090947       1.14856286      -0.03758712       0.43871879       0.28711268
H        2.90757490      -0.48411065       1.25704278       0.27210873       0.05200795       0.30841658
H       -1.06740831      -0.70344203       0.41796611       0.06854569       0.19853520      -0.20044424
H       -1.63340639       0.94484118       0.26908313      -0.89623654       0.46708543      -0.38234674
H        1.37922169      -1.24174731      -0.46295624      -0.04793349       0.22504527       0.18006569
H        2.32440616       0.14523704      -0.99829851       0.17809864      -0.06146170      -0.31892244
H       -0.12593786       0.31138473      -1.61804388       0.10008184       0.13019367      -0.04793376
