20
Properties=species:S:1:pos:R:3:forces:R:3 id=16941 bond=C-O smiles="[H:10][C:4]1([C:5]([C:7]([C:9]([C:8]([C:6]1([H:14])[H:15])([H:18])[H:19])([H:20])[O:3][N:2]=[O:1])([H:16])[H:17])([H:12])[H:13])[H:11]" dataset=PubChem energy=-11979.549494375846 pbc="F F F"
O       -1.00663638       3.22954781      -1.37919065       5.44794122      -3.28456722      -0.73285097
N       -0.03382236       2.51394756      -1.70131919      -6.08367035       4.41129215      -1.10836489
O        0.57439653       1.75599809      -0.66115305      17.94294841      69.79551558      -0.17525814
C        1.04143893       0.03481051       2.12854029      -0.50837012       0.42736707       0.71944936
C       -0.21324517       0.88675544       1.85669531       0.07337530      -0.32890045      -0.23306350
C        2.09334676       0.37420151       1.12632783       0.25488940      -1.19642234      -1.80418173
C       -0.71003623       0.58235192       0.44279342      -1.44408995      -2.93757186       1.22183941
C        1.61049752       0.05998733      -0.31553857       0.56966583      -2.36469102       0.77182013
C        0.33390497       0.84045874      -0.64978240     -15.09539515     -64.04021364       2.11307118
H        1.45761727       0.23250511       3.11199023      -0.20690114      -0.04956241       0.31110209
H        0.80359571      -1.04626444       2.08221282      -0.00685898       0.55833510      -0.04389515
H       -0.04806418       1.96873626       1.97875978       0.31869180      -0.36385564      -0.01571808
H       -1.03449495       0.64001158       2.52957584       0.13853354      -0.02515606       0.15211210
H        2.41955940       1.39979431       1.14572020       0.00074116       0.48150549       0.33413189
H        2.96769778      -0.25522581       1.25420012       0.27877135       0.09101054       0.29946907
H       -1.00728543      -0.47455719       0.41512345      -0.22815479       0.13423374       0.07832270
H       -1.57328351       1.17372602       0.26624047      -0.88819204       0.52946819      -0.44263639
H        1.43934457      -1.01286247      -0.46579890       0.20689233       0.05276249       0.28839997
H        2.38452904       0.37412188      -1.00114117       0.07991306       0.10160157      -0.42145589
H       -0.06581498       0.54026957      -1.62088654      -0.85034090      -1.99265839      -1.31281082
