34
Properties=species:S:1:pos:R:3:forces:R:3 id=31766 bond=C-C smiles="[H:13][C:1](=[C:2]([C:3]([H:15])([H:16])[H:17])[C:9]([H:29])([H:30])[C@@:12]1([C:10]([C:6]([C:7]([C:11]1([H:33])[H:34])([C:4]([H:18])([H:19])[H:20])[C:5]([H:21])([H:22])[H:23])([H:24])[H:25])([H:31])[H:32])[C:8]([H:26])([H:27])[H:28])[H:14]" dataset=PubChem energy=-12803.421410807478 pbc="F F F"
C        1.30471684      -0.11313997       3.50078568      -0.15133548      -1.65884579      -1.89766933
C        1.50140489      -0.40460937       2.16613623      -2.60958578      -1.76465389       3.72579154
C        2.82342124      -0.59585814       1.69426545       1.65949841      -0.19927004      -2.83597791
C        1.67016331       2.54750129       0.60450114      -0.88250678      -0.50664017      -1.23439810
C       -0.31846591       3.13345572      -0.76872163      -2.85978716       0.13651021       0.79422221
C        0.61365320       0.91802677      -1.29237477       1.14947391      -0.41744669      -0.19279620
C        0.40697709       1.98673424      -0.17496251       0.34716719      -2.78190968       0.95982658
C       -1.48967429      -1.14053193       0.15840478      -1.73178281      -1.03621611      -1.37823238
C        0.34029948      -1.03532045       1.30809924      18.50526252     -18.78344401      30.10754801
C        0.69319226      -0.52055541      -0.77843039       0.11577289       2.18964095      -0.15936843
C       -0.44456097       1.02446189       0.79524868       1.32420288       1.13351694       0.82708228
C       -0.17438694      -0.50436071       0.51764248     -17.41557675      21.09420173     -31.55656264
H        0.33097478      -0.20580994       3.96479115      -0.22602546       0.32766811      -0.31502017
H        2.09782112      -0.23538314       4.23204979       0.35509017       0.84410604      -0.37534538
H        3.07315708      -1.65940277       1.45551976      -0.40771644       0.86640418      -0.20862884
H        3.53249813      -0.26840089       2.37585005       1.36533435       0.60788491       1.42178729
H        2.93708230       0.07371380       0.81087101       0.42613451      -0.84792853       0.20653475
H        1.57237950       3.64251229       0.69988805      -0.05191420      -0.60358485       0.46628971
H        2.55012981       2.40152379      -0.02734797       0.11534733      -0.17280109       0.34560277
H        1.71608511       2.00505206       1.55309446       0.54001766       0.62809273      -0.20160459
H       -1.06644937       2.90887138      -1.54024940       0.54454977      -0.29204864      -0.09912082
H        0.33794728       3.86844035      -1.08991890       1.26525767       1.28131986      -1.03164636
H       -0.94942793       3.63799116      -0.02957587       0.24813595       0.02452223       0.34053538
H       -0.30048415       0.91966930      -1.82441597      -0.86848298       0.36895271      -0.89494326
H        1.42556802       1.11268213      -1.97995476       0.15708224       0.41308418      -0.29635329
H       -2.13103601      -1.15888944       1.04661386       0.15197162      -0.37204623       0.00085062
H       -1.30824860      -2.17409160      -0.25832741      -0.32724109       0.83866230       0.76909624
H       -2.11646553      -0.63121000      -0.59014349       0.63074752       0.08515138       0.00241670
H       -0.44359475      -1.21765821       1.97246334      -0.50383469      -1.03682003       3.04084547
H        0.61327962      -2.02968685       0.93915448       0.74984688      -0.52777860       0.87385436
H        0.39689617      -1.26989415      -1.48056536      -0.65706264      -0.23789804      -0.58994738
H        1.69394234      -0.80023769      -0.55442683       0.84192073      -0.04131681       0.47428870
H       -1.47547074       1.23783168       0.72377939      -1.18321890       0.31216026      -0.18195782
H       -0.12641391       1.20277079       1.85096915      -0.61876696       0.13102443      -0.90921352
