36
Properties=species:S:1:pos:R:3:forces:R:3 id=24559 bond=C-P smiles="[H:15][C:2]1([C:4]([C:8]([C:12]([C:9]([C:5]1([H:21])[H:22])([H:29])[H:30])([H:35])[P:1]([H:14])[C:13]2([C:10]([C:6]([C:3]([C:7]([C:11]2([H:33])[H:34])([H:25])[H:26])([H:17])[H:18])([H:23])[H:24])([H:31])[H:32])[H:36])([H:27])[H:28])([H:19])[H:20])[H:16]" dataset=PubChem energy=-22115.761445377364 pbc="F F F"
P       -0.41618472       1.50041866       0.46388476       3.34366134       1.34822909      -0.97534178
C       -2.66469532      -2.58334565       0.72685695       0.47940640       3.19424423      -1.19070156
C        4.33271656       2.75084285       0.43518220       0.78478249      -1.91920003      -3.18472978
C       -3.22732597      -1.36440397       1.44174101       0.60732766       0.73139742       1.68536604
C       -1.13047236      -2.56810355       0.80875513      -0.21891167      -0.99785354      -1.67855331
C        3.63668857       3.04911522      -0.91854641       1.12379327      -0.22100301      -0.97547843
C        3.85785208       1.52877657       1.10333946       1.13756468      -1.28698676       0.99908016
C       -2.57641368      -0.01179958       1.04315449      -0.96813774      -0.51177260      -1.20577953
C       -0.52915871      -1.27853251       0.18914758      -0.05420304      -0.02372153       0.39872551
C        2.08103368       2.93083124      -0.80994841      -0.71509898       2.02785672       0.83114088
C        2.40180681       1.58636038       1.28627041      -0.90845798       1.98003441       1.46748398
C       -1.06347638      -0.06099802       1.06770648       1.17236370      -1.63684963      -0.70598595
C        1.66124312       1.64896326      -0.00563958      -2.15477372      -0.38868593      -0.96979624
H       -1.24891227       2.59282016       0.24552654      -0.02437122      -0.22298360      -0.09472338
H       -3.08101230      -3.44434953       1.10547377      -0.74364907      -1.99759359       1.08928913
H       -3.01346975      -2.54984069      -0.34345029       0.66547630       0.02776025       0.75658305
H        4.01352797       3.50720887       1.02997491      -0.10523716       2.63640642       1.98356969
H        5.40551863       2.66006379       0.27409866       0.06823127       0.67560790       0.18101385
H       -2.99560814      -1.46838212       2.53803135      -0.47955428      -0.15372611      -0.80265234
H       -4.29934841      -1.29078674       1.31961395      -0.26576433       0.03312200       0.09589075
H       -0.97758370      -3.49763680       0.18387337       1.18670230       0.95471032       0.84207055
H       -0.71360832      -2.64345455       1.82636524      -0.47285432      -0.44657937      -0.33285625
H        4.03734312       4.08687811      -1.15375527      -1.14349068      -1.05539599      -0.12972689
H        4.05587468       2.38713519      -1.77527782      -0.82729515       0.82856097       1.48051909
H        4.27298746       1.49631993       2.12412050       0.19064702      -0.06666366      -0.32837913
H        4.16606913       0.58105382       0.63760877      -0.03481145       0.30609581      -0.19444752
H       -2.93728357       0.83800917       1.62320007      -0.06802630      -0.29445330       0.35598210
H       -2.94739347       0.21238112       0.01620598       0.60287210      -0.08668266       0.39489959
H       -0.93989676      -1.09389365      -0.80429410       0.20748696      -0.21862302      -0.12493188
H        0.61139733      -1.36882806       0.10054092      -1.68031526       0.44257308       0.33877532
H        1.68360768       3.81165413      -0.19804248       0.81502369      -1.01647058      -0.29801512
H        1.59841488       3.22954897      -1.77940461       0.32647702      -1.39895353       0.65110612
H        2.17534302       2.54508309       1.84663966       0.12169667      -0.89113325      -0.48135977
H        2.17504153       0.82534732       1.99916127      -1.01391212      -0.83543951      -0.03027576
H       -0.67173117      -0.27191866       2.06445218      -0.35884181       0.25207782       0.19880052
H        1.94258819       0.75103441      -0.57745490      -0.59537992       0.23055123      -0.04541085
