26
Properties=species:S:1:pos:R:3:forces:R:3 id=11888 bond=C-S smiles="[H:17][C:6]([H:18])([H:19])[C:9]([H:24])([H:25])[C:10]([H:26])([C:7]([H:20])([H:21])[H:22])[C:8]([H:23])([S:3][C:5]([H:14])([H:15])[H:16])[S:2][S:1][C:4]([H:11])([H:12])[H:13]" dataset=PubChem energy=-40034.46478632305 pbc="F F F"
S        2.49667993      -2.34174384      -0.07255422       1.10402396       0.50380456       0.88504150
S        2.63545385      -0.23115374      -0.37091901      -1.99859994      -1.83322584       0.98255166
S        1.55831780       0.43279611       2.78004539      -0.18691854      -0.35488657      -2.60041333
C        1.08334264      -2.97424974      -0.94521876      -1.20568033       0.12589104      -1.75866372
C        0.67294491      -0.91613179       3.65548134      -1.89680474       1.13914368      -0.61394147
C       -0.77570865       3.76017032       0.24238781       0.75296907       0.22814168       0.45768392
C        0.68060362       1.51560078      -1.62365027       0.16806649       0.76302425       0.40748235
C        1.05176994       0.29465274       0.48074627       1.01298059      -0.00540016       1.04632792
C       -0.53115109       2.22429655       0.51864190       0.03142165       2.25261488      -1.03390119
C        0.75811657       1.72120915      -0.07460858       0.12003898      -2.34361151      -0.19388584
H        0.71274535      -3.99198045      -0.63977559       0.93525509       1.04665518       0.07378876
H        0.25121444      -2.28811731      -0.80009420      -0.16164337      -0.09461221       0.14791930
H        1.25115540      -2.97024812      -2.04637284       0.00325446      -0.24710513       0.76579361
H       -0.34319065      -0.40498906       3.87163830       1.39160660      -1.61776958      -0.23201063
H        1.17367949      -1.08312398       4.61828422      -0.01325489      -0.11964699      -0.51520806
H        0.59323331      -1.83477908       3.01241159       0.05957791       0.94983977       0.93223356
H       -0.08067271       4.42396365       0.86801187      -1.26564489      -1.09012010      -0.43220990
H       -0.47681371       4.03734789      -0.75109156       0.09346280      -0.12497046      -0.74927330
H       -1.83046541       4.08919940       0.30223195       0.61999990      -0.30299778       0.46933842
H        1.63397768       1.52082298      -2.18294282      -0.50984665       0.11358598       0.60385803
H        0.04392877       2.30809067      -1.99713393      -0.12046314       0.01458632      -0.37710623
H        0.21523070       0.55028129      -1.79844375      -0.18129623       0.01460765      -0.21652419
H        0.17503330      -0.40863247       0.32281698       1.32607255       0.67320612       0.51929580
H       -1.35471425       1.61479817       0.17428179      -0.28198889      -0.08604059       0.01300123
H       -0.40046731       2.16723214       1.55542366      -0.28322473      -0.55021381       1.58733006
H        1.59831204       2.27983807       0.27395441       0.48051601       0.94004957      -0.17036698
