26
Properties=species:S:1:pos:R:3:forces:R:3 id=11888 bond=C-S smiles="[H:17][C:6]([H:18])([H:19])[C:9]([H:24])([H:25])[C:10]([H:26])([C:7]([H:20])([H:21])[H:22])[C:8]([H:23])([S:3][C:5]([H:14])([H:15])[H:16])[S:2][S:1][C:4]([H:11])([H:12])[H:13]" dataset=PubChem energy=-40024.41862042353 pbc="F F F"
S        2.62037185      -2.30801116       0.48890254       1.02369826       0.64498594       1.03823932
S        2.75914577      -0.19742106       0.19053775       1.33178362      -2.80040004      -3.74541016
S        1.43462588       0.39906343       2.21858863      11.61306321       2.55502649      60.70461242
C        1.20703456      -2.94051706      -0.38376200      -1.14946677       0.07775511      -1.71755721
C        0.54925299      -0.94986447       3.09402458      -1.32224886       0.91925247       0.39279468
C       -0.65201673       3.79390300       0.80384457       0.83517141       0.21850377       0.45470742
C        0.80429554       1.54933346      -1.06219351       0.14197370       1.04892084       0.28672692
C        1.17546186       0.32838542       1.04220303     -13.60266917      -3.40539624     -53.33349190
C       -0.40745917       2.25802923       1.08009866       0.03066997       2.19655898      -1.13264590
C        0.88180849       1.75494183       0.48684818      -0.39438593      -1.39036035      -3.19636460
H        0.83643727      -3.95824777      -0.07831883       0.92580632       1.03170003       0.06520357
H        0.37490636      -2.25438463      -0.23863744      -0.18624467      -0.06801914       0.12480764
H        1.37484732      -2.93651544      -1.48491608      -0.00685464      -0.21389261       0.75529850
H       -0.46688257      -0.43872174       3.31018154       1.32024001      -1.40660458      -0.27203161
H        1.04998757      -1.11685666       4.05682746      -0.23560386      -0.29003824      -0.44579111
H        0.46954139      -1.86851176       2.45095483       0.13998985       0.97612560       0.82383023
H        0.04301921       4.45769633       1.42946863      -1.26247232      -1.08486982      -0.43120783
H       -0.35312179       4.07108057      -0.18963480       0.08738692      -0.13088613      -0.73484116
H       -1.70677349       4.12293208       0.86368871       0.62247125      -0.33110496       0.47581466
H        1.75766960       1.55455566      -1.62148606      -0.51099883       0.11983796       0.58431561
H        0.16762069       2.34182335      -1.43567717      -0.09251993       0.03384373      -0.47472411
H        0.33892262       0.58401397      -1.23698699      -0.12804485       0.08394316      -0.15855719
H        0.29872522      -0.37489979       0.88427374       0.91637855       0.89879700      -1.52165544
H       -1.23102233       1.64853085       0.73573855      -0.27453682      -0.09108604      -0.00677384
H       -0.27677539       2.20096482       2.11688042      -0.36351651      -0.47376620       1.58305777
H        1.72200396       2.31357075       0.83541117       0.53753877       0.87932299      -0.11129466
