26
Properties=species:S:1:pos:R:3:forces:R:3 id=11888 bond=C-S smiles="[H:17][C:6]([H:18])([H:19])[C:9]([H:24])([H:25])[C:10]([H:26])([C:7]([H:20])([H:21])[H:22])[C:8]([H:23])([S:3][C:5]([H:14])([H:15])[H:16])[S:2][S:1][C:4]([H:11])([H:12])[H:13]" dataset=PubChem energy=-40031.4701869763 pbc="F F F"
S        2.60270157      -2.31283011       0.40869443       1.04803651       0.61183103       1.00566349
S        2.74147549      -0.20224001       0.11032964       0.04459640      -2.44563338      -2.34300814
S        1.45229616       0.40388238       2.29879674       5.14132028       0.89091329      27.19152736
C        1.18936428      -2.94533601      -0.46397011      -1.16389569       0.08923488      -1.72934439
C        0.56692327      -0.94504552       3.17423269      -1.58615038       1.05255927      -0.08250659
C       -0.66968701       3.78908405       0.72363646       0.80030132       0.21670293       0.45677408
C        0.78662526       1.54451451      -1.14240162       0.14106522       1.03567131       0.33977247
C        1.15779158       0.32356647       0.96199492      -5.79814866      -1.72514637     -22.08401867
C       -0.42512945       2.25321028       0.99989055       0.02351760       2.24760212      -1.12371895
C        0.86413821       1.75012288       0.40664007      -0.31704964      -1.87430779      -2.38492079
H        0.81876699      -3.96306672      -0.15852694       0.92919809       1.03417376       0.06669269
H        0.35723608      -2.25920358      -0.31884555      -0.17741005      -0.06977717       0.13251309
H        1.35717704      -2.94133439      -1.56512419      -0.00489875      -0.22204542       0.76082852
H       -0.44921229      -0.43390279       3.39038965       1.33304795      -1.50041623      -0.24687832
H        1.06765785      -1.11203771       4.13703557      -0.14943313      -0.19717668      -0.51141340
H        0.48721167      -1.86369281       2.53116294       0.12394760       0.97445821       0.84812668
H        0.02534893       4.45287738       1.34926052      -1.26146225      -1.08379216      -0.43043345
H       -0.37079207       4.06626162      -0.26984291       0.09043480      -0.12930194      -0.73926822
H       -1.72444377       4.11811313       0.78348060       0.61945219      -0.31717925       0.47351913
H        1.73999932       1.54973671      -1.70169417      -0.51810084       0.12515876       0.58082909
H        0.14995041       2.33700440      -1.51588528      -0.09172212       0.02531134      -0.47114102
H        0.32125234       0.57919502      -1.31719510      -0.14229525       0.06215276      -0.16301962
H        0.28105494      -0.37971874       0.80406563       1.02226357       0.85202377      -0.97736515
H       -1.24869261       1.64371190       0.65553044      -0.27657312      -0.09059448      -0.00709391
H       -0.29444567       2.19614587       2.03667231      -0.36087125      -0.48069425       1.55911319
H        1.70433368       2.30875180       0.75520306       0.52541380       0.91525712      -0.12525996
