26
Properties=species:S:1:pos:R:3:forces:R:3 id=11888 bond=C-S smiles="[H:17][C:6]([H:18])([H:19])[C:9]([H:24])([H:25])[C:10]([H:26])([C:7]([H:20])([H:21])[H:22])[C:8]([H:23])([S:3][C:5]([H:14])([H:15])[H:16])[S:2][S:1][C:4]([H:11])([H:12])[H:13]" dataset=PubChem energy=-40035.72853265288 pbc="F F F"
S        2.55558084      -2.32568066       0.19480614       1.07184898       0.54582734       0.95102021
S        2.69435476      -0.21509056      -0.10355865      -1.38757024      -2.00797246      -0.18464155
S        1.49941689       0.41673293       2.51268503       0.42373778      -0.20027633       0.71706505
C        1.14224355      -2.95818656      -0.67785840      -1.18713733       0.10737307      -1.74749912
C        0.61404400      -0.93219497       3.38812098      -1.90485912       1.09344552      -0.59093505
C       -0.71680774       3.77623350       0.50974817       0.75863540       0.22189915       0.46006313
C        0.73950453       1.53166396      -1.35628991       0.17032785       0.92916813       0.42367997
C        1.11067085       0.31071592       0.74810663       0.09282340      -0.34262496       0.39550008
C       -0.47225018       2.24035973       0.78600226       0.03096583       2.25921157      -1.07645184
C        0.81701748       1.73727233       0.19275178      -0.06524558      -2.37882964      -1.02135202
H        0.77164626      -3.97591727      -0.37241523       0.93214519       1.03953171       0.06821902
H        0.31011535      -2.27205413      -0.53273384      -0.16556326      -0.07997708       0.14101232
H        1.31005631      -2.95418494      -1.77901248      -0.00106841      -0.23662747       0.76408868
H       -0.40209156      -0.42105224       3.60427794       1.37098033      -1.59489833      -0.22973202
H        1.11477858      -1.09918716       4.35092386      -0.03544409      -0.09912714      -0.56219682
H        0.53433240      -1.85084226       2.74505123       0.08668064       0.96201847       0.89774935
H       -0.02177180       4.44002683       1.13537223      -1.26206270      -1.08472448      -0.43080892
H       -0.41791280       4.05341107      -0.48373120       0.09413238      -0.12863773      -0.74429808
H       -1.77156450       4.10526258       0.56959231       0.61713521      -0.30230688       0.47047126
H        1.69287859       1.53688616      -1.91558246      -0.52590884       0.12697925       0.58092513
H        0.10282968       2.32415385      -1.72977357      -0.10040437       0.01458947      -0.43326278
H        0.27413161       0.56634447      -1.53108339      -0.16503326       0.02564793      -0.18215872
H        0.23393421      -0.39256929       0.59017734       1.25207875       0.77773626      -0.07729044
H       -1.29581334       1.63086135       0.44164215      -0.27856717      -0.08812120       0.00152384
H       -0.34156640       2.18329532       1.82278402      -0.33147864      -0.51014949       1.55539439
H        1.65721295       2.29590125       0.54131477       0.50250034       0.94744959      -0.14597915
