22
Properties=species:S:1:pos:R:3:forces:R:3 id=548 bond=C-N smiles="[H:13][C:7]1([C:8]([C:10]([C:12]([C:11]([C:9]1([H:17])[H:18])([H:21])[N:5]([F:1])[F:2])([H:22])[N:6]([F:3])[F:4])([H:19])[H:20])([H:15])[H:16])[H:14]" dataset=PubChem energy=-20211.773717101925 pbc="F F F"
F        2.87995783       1.01985058      -0.63324364       3.82669827      -0.89143158      -1.09199989
F        1.58397237       0.07948532      -2.44017454       1.99883327      -1.25461872      -1.61964344
F       -1.06507908       2.91017862      -0.44378447       1.64486361      -0.66507361      -0.72528225
F        0.99625594       3.53919883      -1.21647215      -0.91394650      -1.18869843       0.28507074
N        1.60595802       0.83022403      -1.17942317     106.23990474      38.97385576     -95.89800744
N        0.31730080       2.97587867      -0.13322323      -0.12097637       2.02321587       1.96712403
C        0.26875711      -1.12450866       0.92996490      -0.49646102      -0.97821714       0.48106507
C        0.29107041      -0.13613109       2.08694935       1.09626739      -0.09881259      -0.11052636
C        1.30084879      -0.74788288      -0.08902794      -0.17117138      -5.51369900       3.17671538
C        0.02737827       1.30229230       1.64990735      -1.42424503       0.13774649      -0.80346240
C        0.99538945       0.64963611      -0.65624076    -106.31856688     -33.27884481      91.28687911
C        0.88751834       1.75711603       0.42456381      -2.65881488       0.63042446       2.06834055
H        0.45479227      -2.14895586       1.31458623      -0.28491778       0.51947470      -0.15751295
H       -0.72027837      -1.13317660       0.43668184       0.20456592      -0.02277970       0.27769937
H       -0.37569295      -0.42220227       2.88701057      -0.38305600       0.07444817       0.07444209
H        1.29684681      -0.20836906       2.52305889      -0.09247126       0.11590276      -0.02186400
H        2.34180427      -0.83935492       0.33782697      -1.28519297       0.51331517      -0.24803125
H        1.32586390      -1.49909047      -0.90967416      -0.31032468       0.81582531       0.44624792
H       -1.08453428       1.36847927       1.41325629       1.50938920       0.17544899       0.13259704
H        0.25256700       1.98663075       2.45855856      -0.15608979       0.15568620       0.12137287
H        0.06764436       0.59566068      -1.25981140      -1.35603662      -0.05779263       1.08245865
H        1.87797392       2.03583355       0.81214065      -0.54176794      -0.18521784      -0.71733218
