22
Properties=species:S:1:pos:R:3:forces:R:3 id=548 bond=C-N smiles="[H:13][C:7]1([C:8]([C:10]([C:12]([C:11]([C:9]1([H:17])[H:18])([H:21])[N:5]([F:1])[F:2])([H:22])[N:6]([F:3])[F:4])([H:19])[H:20])([H:15])[H:16])[H:14]" dataset=PubChem energy=-20236.95169872829 pbc="F F F"
F        3.09448193       1.08330040      -0.81706449      -0.84915962      -1.85407192      -0.51046607
F        1.79849647       0.14293514      -2.62399539       0.82098585       0.09043197       2.82184685
F       -1.27960318       2.84672880      -0.25996362       1.50478469      -0.76595892      -0.77115039
F        0.78173184       3.47574901      -1.03265130      -0.93460426      -1.28243626       0.27936264
N        1.82048212       0.89367385      -1.36324402       0.15834581       4.31171780      -3.95805231
N        0.10277670       2.91242885       0.05059762      -0.21075983       2.87928659       2.26046714
C        0.05423301      -1.18795848       1.11378575      -0.61685704      -0.86634772       0.49029163
C        0.07654631      -0.19958091       2.27077020       1.07575073      -0.02326319      -0.08958411
C        1.08632469      -0.81133270       0.09479291       0.56376586      -1.05067873       0.04332868
C       -0.18714583       1.23884248       1.83372820      -1.36717051       0.07164918      -0.83205876
C        0.78086535       0.58618629      -0.47241991       0.57452658      -2.88805361       1.17620709
C        0.67299424       1.69366621       0.60838466      -0.59200214      -1.24165436      -1.15084601
H        0.24026817      -2.21240568       1.49840708      -0.19581706       0.57255299      -0.22897142
H       -0.93480247      -1.19662642       0.62050269       0.25281810      -0.03306790       0.28567047
H       -0.59021705      -0.48565209       3.07083142      -0.37462338       0.04919846       0.06403929
H        1.08232271      -0.27181888       2.70687974      -0.09340812       0.11222598      -0.01358524
H        2.12728017      -0.90280474       0.52164782      -1.04255975       0.60460845      -0.23079003
H        1.11133980      -1.56254029      -0.72585331      -0.23896655       0.69940091       0.31399599
H       -1.29905838       1.30502945       1.59707714       1.50330398       0.17929866       0.14158397
H        0.03804290       1.92318093       2.64237941      -0.19360951       0.14866043       0.08361789
H       -0.14687974       0.53221086      -1.07599055       0.59858527       0.26200810       0.30441389
H        1.66344982       1.97238373       0.99596150      -0.34378988       0.01872534      -0.47800796
