22
Properties=species:S:1:pos:R:3:forces:R:3 id=548 bond=C-N smiles="[H:13][C:7]1([C:8]([C:10]([C:12]([C:11]([C:9]1([H:17])[H:18])([H:21])[N:5]([F:1])[F:2])([H:22])[N:6]([F:3])[F:4])([H:19])[H:20])([H:15])[H:16])[H:14]" dataset=PubChem energy=-20234.74748318876 pbc="F F F"
F        3.39151529       1.17115398      -1.07158567      -0.47027747      -1.93313996      -0.51533218
F        2.09552983       0.23078872      -2.87851657       1.06563396      -0.20396281       2.38848162
F       -1.57663654       2.75887522      -0.00544244       1.49785122      -0.78285486      -0.75930279
F        0.48469848       3.38789543      -0.77813012      -0.89736985      -1.53485612       0.32122334
N        2.11751548       0.98152743      -1.61776520      -3.26333092       2.60783896      -0.27492701
N       -0.19425666       2.82457527       0.30511880      -0.26501034       3.00133813       2.28895483
C       -0.24280035      -1.27581206       1.36830693      -0.95249799      -0.52900590       0.55358555
C       -0.22048705      -0.28743449       2.52529138       1.09666583       0.00220194      -0.07006522
C        0.78929133      -0.89918628       0.34931409       1.87780988      -0.19365962      -1.34604300
C       -0.48417919       1.15098890       2.08824938      -1.51561372      -0.18669321      -0.70711172
C        0.48383199       0.49833271      -0.21789873       1.04795648      -1.83461788       0.81274646
C        0.37596088       1.60581263       0.86290584       0.26353096      -1.17406003      -2.22433835
H       -0.05676519      -2.30025926       1.75292826      -0.10573544       0.58389112      -0.33159422
H       -1.23183583      -1.28448000       0.87502387       0.24794767      -0.04865563       0.31156694
H       -0.88725041      -0.57350567       3.32535260      -0.37705422       0.04395468       0.05572992
H        0.78528935      -0.35967246       2.96140092      -0.10383729       0.11341451      -0.01660724
H        1.83024681      -0.99065832       0.77616900      -1.05323247       0.55304548      -0.20794681
H        0.81430644      -1.65039387      -0.47133213      -0.23501450       0.66551704       0.35863477
H       -1.59609174       1.21717587       1.85159832       1.51991373       0.18825478       0.12598753
H       -0.25899046       1.83532735       2.89690059      -0.15242983       0.17589535       0.03868259
H       -0.44391310       0.44435728      -0.82146937       1.07318372       0.43247221      -0.39184138
H        1.36641646       1.88453015       1.25048268      -0.29636899       0.05166288      -0.40922581
