16
Properties=species:S:1:pos:R:3:forces:R:3 id=19627 bond=C-C smiles="[H:8][C:3]([H:9])([H:10])[S:2][C:5]([H:13])([H:14])[C:6]([H:15])([H:16])[C:4]([H:11])([H:12])[O:1][H:7]" dataset="DES370K Monomers" energy=-17197.971259067646 pbc="F F F"
O       -1.11207848      -1.52221056      -2.87460780       0.58006835       0.42078294      -0.16366564
S        0.30535380       1.14336201       1.71704150       0.65421396      -0.12680095      -0.37884940
C        1.99849450       1.41416474       2.35755254       0.65059994      -0.23501783      -0.06478012
C       -0.19997348      -0.51005592      -2.36060978      -0.84913933       0.32784423       0.44373505
C        0.76103198       0.88838377      -0.03926336      -2.36520193      -2.37467675      -0.52161624
C       -0.47600891      -0.35220877      -0.85970599       1.67833648       1.15634505       0.71711679
H       -1.03059869      -1.63073833      -3.84138465       0.16757360       0.35616579       0.91942264
H        1.92934822       1.64953025       3.42823101      -0.07716982      -0.06625853      -0.38448828
H        2.52844142       2.24894293       1.85170079      -0.54219227      -0.45544087       0.26918021
H        2.63379048       0.49863713       2.25046039      -0.67371393       0.68086368       0.05115545
H        0.83854598      -0.74634071      -2.55796290       0.15400451      -0.25142429      -0.03477266
H       -0.42448505       0.46715407      -2.76702118       0.01480225       0.15091889      -0.68651998
H        0.73072797       1.84273036      -0.53898680      -0.23649840       0.00891427      -0.46275285
H        1.78073489       0.50521480      -0.04088342      -0.29586123      -0.33716107      -0.32115989
H       -0.41591450      -1.35613449      -0.42851371       0.43442583       0.47165441       0.51062561
H       -1.51803898      -0.01818272      -0.71667982       0.70842746       0.27408985       0.10539937
