19
Properties=species:S:1:pos:R:3:forces:R:3 id=26523 bond=C-S smiles="[H:8][C:2](=[C:3]([C:7]([H:18])([H:19])[C:5]([H:13])([H:14])[H:15])[S:1][C:6]([H:16])([H:17])[C:4]([H:10])([H:11])[H:12])[H:9]" dataset=PubChem energy=-17257.926072690483 pbc="F F F"
S        0.12961824      -0.61033864       1.70876691      -1.22979979       0.85070894      -1.62806511
C       -2.15172729       0.37086709       0.52880683       2.51531602      -0.16900126      -1.24012804
C       -0.76248297       0.38770231       0.45011782      -3.19465838       0.17359347      -0.17570618
C        2.61646189       0.47724621       1.96930751       1.28441913       0.76990261       2.20087733
C        0.67404550       0.11505291      -1.58023577       2.60637587       1.49101316      -0.27565238
C        1.16601087       0.64545201       2.43823990       1.17956670       0.42898374       0.75227628
C       -0.04057464       1.14433288      -0.73123055       0.12551677      -0.41007300       2.01604887
H       -2.72588619      -0.33018589       1.14352996       0.43251397       0.64104073       0.13814399
H       -2.69957289       0.93228089      -0.25136690       0.27142277      -0.41382889       0.58131738
H        2.76495470       1.22989916       1.25860664       0.46954730       0.84888831      -1.53194450
H        2.84238876      -0.48265953       1.52937445       0.07080947      -0.20277336       0.21629091
H        3.39101137       0.78023766       2.79357133      -1.42878612      -0.91733787      -1.26388255
H        1.44124058       0.64816038      -2.22284107      -0.80814510      -0.50621561       0.58094090
H        0.04699579      -0.38907313      -2.26642971      -0.76234520      -0.80751867      -0.28700748
H        1.28101125      -0.54003347      -0.93812113      -0.53543035      -0.11318326      -0.36567317
H        0.90831332       1.72853093       2.23695562      -0.43381639      -1.51303289       0.46917353
H        1.12511481       0.39460801       3.50971541      -0.18520807       0.58796382      -0.30234890
H        0.68869856       1.81974888      -0.23890262      -0.18483169      -0.31144562      -0.46676410
H       -0.68772778       1.78453076      -1.34906654      -0.19312716      -0.42365307       0.57906756
