19
Properties=species:S:1:pos:R:3:forces:R:3 id=26523 bond=C-S smiles="[H:8][C:2](=[C:3]([C:7]([H:18])([H:19])[C:5]([H:13])([H:14])[H:15])[S:1][C:6]([H:16])([H:17])[C:4]([H:10])([H:11])[H:12])[H:9]" dataset=PubChem energy=-17252.837411875626 pbc="F F F"
S        0.56235391      -1.09446298       2.31930564      -1.38649423       1.08429831      -1.35057276
C       -2.58446296       0.85499143      -0.08173190       3.67720975      -1.21562475       0.10070418
C       -1.19521864       0.87182665      -0.16042091      -4.63967281       1.38486839      -1.55128893
C        3.04919756      -0.00687813       2.57984624       1.26494750       0.78222293       2.15636679
C        0.24130983       0.59917725      -2.19077450       2.62087607       1.44395181      -0.31801982
C        1.59874654       0.16132767       3.04877863       0.96806472       0.14039390       0.25897667
C       -0.47331031       1.62845722      -1.34176928       1.16620434      -0.71791096       2.23096744
H       -3.15862186       0.15393845       0.53299123       0.31270518       0.58101669       0.02535262
H       -3.13230856       1.41640523      -0.86190563       0.42795150      -0.16812291       0.52075968
H        3.19769037       0.74577482       1.86914537       0.46101812       0.85777021      -1.52050750
H        3.27512443      -0.96678387       2.13991318       0.05694651      -0.20069118       0.21953674
H        3.82374704       0.29611332       3.40411006      -1.42901510      -0.90960454      -1.23509230
H        1.00850491       1.13228472      -2.83337980      -0.82614043      -0.49092690       0.58780630
H       -0.38573988       0.09505121      -2.87696844      -0.75774016      -0.81399053      -0.27961245
H        0.84827558      -0.05590913      -1.54865986      -0.53975143      -0.10235088      -0.35080522
H        1.34104899       1.24440659       2.84749435      -0.40774207      -1.44183628       0.53361780
H        1.55785048      -0.08951633       4.12025414      -0.28799847       0.55197347      -0.17000943
H        0.25596289       2.30387322      -0.84944135      -0.24039082      -0.33741846      -0.49775716
H       -1.12046345       2.26865510      -1.95960527      -0.43989158      -0.42727277       0.63906440
