45
Properties=species:S:1:pos:R:3:forces:R:3 id=44672 bond=C-O smiles="[H:32][C:9]1([C:10]([C:16]2([C:12]([C:15]1([C:13]([C:17]2([H:45])[C:11]([H:36])([H:37])[C:14]([H:42])([C:5]([H:24])([H:25])[H:26])[C:8]([H:31])([O:1][C:6]([H:27])([H:28])[C:3]([H:18])([H:19])[H:20])[O:2][C:7]([H:29])([H:30])[C:4]([H:21])([H:22])[H:23])([H:40])[H:41])[H:43])([H:38])[H:39])[H:44])([H:34])[H:35])[H:33]" dataset=PubChem energy=-20113.554849774373 pbc="F F F"
O       -2.24517675      -0.08399898       2.18869980       2.88060654      -1.45409345      -1.49913040
O       -1.02441167      -1.88612790      -0.28275866       1.39102036       2.20412513       2.99020374
C       -4.67964478      -0.47597111       2.11905190      -0.47996184       0.42601045       2.27358101
C       -0.83195280      -4.27670021       0.09234195      -0.53598863       0.03581284      -0.95751908
C        1.13622684      -0.02254118       1.95783909      -2.45637568       0.81349424      -1.46612904
C       -3.45133754       0.42184911       1.91602310      -1.75070147       1.13205453       0.18124975
C       -0.62245368      -2.92443986       0.72725870      -1.12103251       0.31713160       0.46683222
C       -0.81589376      -0.51474894       0.10861418       1.06493204      -3.04320785      -1.16215459
C        5.03007007       2.82742696      -1.02483801      -1.88287967       0.95006596      -0.64790431
C        3.99904275       3.86415892      -0.35039053       1.81874301      -0.30429235       0.65779713
C        0.87904545       1.42943512      -0.08887049      -0.30454791      -0.09532561       0.74336003
C        2.86014868       2.80638843      -2.11996511       3.80523076       3.13577724       1.57695716
C        3.43507124       1.06418257      -0.67768828       0.15496490      -2.99751420       1.08967506
C        0.65666965       0.01536103       0.46439292      -0.87418766       0.15609302       2.18056748
C        4.04966999       1.86497276      -1.72601120       0.10775265       2.48311012      -1.38296726
C        2.61834455       3.33033566      -0.67749611      -0.97326706      -0.99134828       0.12943388
C        2.36188818       1.84845762      -0.00160263      -0.36916478       3.57632074       1.49179320
H       -4.40425845      -1.48449517       2.09811552       0.28138023      -1.73853292      -1.06088187
H       -5.07198306      -0.46771849       3.18508800       0.64471544       0.59040939      -0.86275824
H       -5.55107423      -0.20443565       1.55317279      -0.15123576      -0.13091635      -0.74010486
H       -1.84933495      -4.39001674      -0.30573357       0.18236916       0.09113420       0.30157081
H       -0.65253483      -5.09184474       0.80027672       0.15180570       0.27180368      -0.16205973
H       -0.17521893      -4.34490508      -0.78163830       0.05942233      -0.32033692       0.28123754
H        0.82643394      -0.93886442       2.31920715      -0.45379458      -1.79652587       1.20712806
H        0.68038236       0.75321220       2.53354784      -0.63834054       0.41064658       0.29696749
H        2.15302790       0.10317098       2.09039398       2.14486497      -0.02344214      -0.29548330
H       -3.64626213       1.19893944       2.67422517       0.25447085       0.69787754      -0.40705725
H       -3.49120518       0.87554004       0.91332432      -0.18260037       0.13350154       0.15457231
H       -1.40322708      -2.76519794       1.56156202       1.86552179      -0.04814805      -0.86479427
H        0.47808541      -2.91785354       0.99706348      -1.42719599       0.89935698       0.03170487
H       -1.21053265      -0.07422526      -0.81534884      -0.56158681       0.94043913       1.03124693
H        5.60700012       3.37303405      -1.76624421       0.55173708      -0.22926405       0.30302153
H        5.56898809       2.29448490      -0.25674115       0.63384617       0.12745318      -0.15201149
H        4.18820978       4.89610319      -0.76766083      -0.42484632      -1.10038853       0.59999433
H        4.24631620       3.83106594       0.73266562      -0.49581796       0.53535363      -0.55580159
H        0.22730846       2.17427926       0.46612989       0.86486873      -0.94640266      -0.46445589
H        0.48149169       1.37914543      -1.07362358       0.08839931       0.49983860      -1.23152602
H        2.07758499       2.36486070      -2.54502372      -3.16648120      -2.00733368      -1.68197479
H        3.23250748       3.61643081      -2.78773001      -0.32536007      -0.49085268       0.32609599
H        3.02319837       0.21944893      -1.16483430      -0.70066122      -1.20463045      -0.33567509
H        4.16133094       0.63279111       0.04408095      -0.33268385       0.37292410      -0.38276506
H        1.32318849      -0.71989460       0.04676452       0.01047715      -0.25471834      -1.00836092
H        4.41391016       1.37041752      -2.62417201       0.29916352      -0.35618372       0.38913876
H        1.83595742       4.10911112      -0.42551587       0.60253290      -1.19790797      -0.65956288
H        2.59946919       1.95635908       1.08179792      -0.24889475      -0.06954122      -0.72600859
