45
Properties=species:S:1:pos:R:3:forces:R:3 id=44672 bond=C-O smiles="[H:32][C:9]1([C:10]([C:16]2([C:12]([C:15]1([C:13]([C:17]2([H:45])[C:11]([H:36])([H:37])[C:14]([H:42])([C:5]([H:24])([H:25])[H:26])[C:8]([H:31])([O:1][C:6]([H:27])([H:28])[C:3]([H:18])([H:19])[H:20])[O:2][C:7]([H:29])([H:30])[C:4]([H:21])([H:22])[H:23])([H:40])[H:41])[H:43])([H:38])[H:39])[H:44])([H:34])[H:35])[H:33]" dataset=PubChem energy=-20116.0958906209 pbc="F F F"
O       -2.03498807      -0.14734456       1.88280486       4.41642534      -1.76885543      -2.72507415
O       -1.23460035      -1.82278232       0.02313628       1.70134565       0.79981304       2.22514429
C       -4.46945610      -0.53931669       1.81315696      -0.36963499       0.35453018       2.34781335
C       -1.04214148      -4.21335463       0.39823689      -0.52428805       0.02706733      -0.90538703
C        0.92603816       0.04080440       2.26373403      -2.54751205       0.81153593      -1.54183543
C       -3.24114886       0.35850353       1.61012816      -2.82575021       1.84588353      -0.00960265
C       -0.83264236      -2.86109428       1.03315364      -1.28115151       0.66864093       0.27051343
C       -1.02608244      -0.45140336       0.41450912      -0.52409103      -1.70334015       1.81743756
C        4.81988139       2.89077254      -0.71894307      -1.88381932       0.95327681      -0.65162646
C        3.78885407       3.92750450      -0.04449559       1.81322689      -0.29402070       0.64484820
C        0.66885677       1.49278070       0.21702445      -0.14302259      -0.18087604       0.76876364
C        2.64996000       2.86973401      -1.81407017       3.80160025       3.13724377       1.57864661
C        3.22488256       1.12752815      -0.37179334       0.14460188      -2.99583742       1.07904496
C        0.44648097       0.07870661       0.77028786      -0.67690733      -0.13820651       1.56045762
C        3.83948131       1.92831834      -1.42011626       0.10623998       2.48291408      -1.36744217
C        2.40815587       3.39368124      -0.37160117      -0.94409705      -1.00647055       0.14869678
C        2.15169950       1.91180320       0.30429231      -0.40607229       3.62965718       1.46198837
H       -4.19406977      -1.54784075       1.79222058       0.24285698      -1.72647852      -1.08198535
H       -4.86179438      -0.53106407       2.87919306       0.64965758       0.59809413      -0.88096725
H       -5.34088555      -0.26778123       1.24727785      -0.09287321      -0.12487842      -0.73677795
H       -2.05952363      -4.32667116       0.00016137       0.17762535       0.09614571       0.28724899
H       -0.86272351      -5.02849916       1.10617166       0.15053204       0.24611342      -0.16376840
H       -0.38540761      -4.28155950      -0.47574336       0.05202742      -0.30169503       0.27884437
H        0.61624526      -0.87551884       2.62510209      -0.44293863      -1.81443260       1.21570274
H        0.47019368       0.81655778       2.83944278      -0.60369049       0.43229267       0.33363684
H        1.94283922       0.16651656       2.39628892       2.14558680      -0.01785788      -0.28299411
H       -3.43607345       1.13559386       2.36833023       0.31961384       0.51252902      -0.51980826
H       -3.28101650       0.81219446       0.60742938      -0.14241144       0.02923672       0.23992436
H       -1.61341576      -2.70185236       1.86745696       1.93195198      -0.17772240      -0.82862056
H        0.26789673      -2.85450796       1.30295842      -1.41284769       0.85453616       0.06072818
H       -1.42072133      -0.01087968      -0.50945390      -0.32514558       0.90095994       0.94524851
H        5.39681144       3.43637963      -1.46034927       0.55443574      -0.22517028       0.30116383
H        5.35879941       2.35783048       0.04915379       0.63283285       0.12562265      -0.15107505
H        3.97802110       4.95944877      -0.46176589      -0.41660818      -1.09439086       0.59811104
H        4.03612752       3.89441152       1.03856056      -0.49493031       0.53306990      -0.55200783
H        0.01711978       2.23762484       0.77202483       0.85316219      -0.91700414      -0.46006840
H        0.27130301       1.44249101      -0.76772864       0.08113897       0.48541298      -1.22314374
H        1.86739631       2.42820628      -2.23912878      -3.16517908      -2.00956487      -1.67659046
H        3.02231880       3.67977639      -2.48183507      -0.32136626      -0.48600120       0.32029952
H        2.81300969       0.28279451      -0.85893936      -0.70537754      -1.19657847      -0.31998111
H        3.95114226       0.69613669       0.34997589      -0.33084211       0.37145991      -0.38236450
H        1.11299981      -0.65654902       0.35265946       0.14697540      -0.09841958      -1.03023243
H        4.20372148       1.43376310      -2.31827707       0.30071777      -0.35542876       0.38604113
H        1.62576874       4.17245670      -0.11962093       0.59993961      -1.19332341      -0.66067433
H        2.38928051       2.01970466       1.38769286      -0.23999453      -0.06797018      -0.72064028
