9
Properties=species:S:1:pos:R:3:forces:R:3 id=10147 bond=C-S smiles="[H:4][C:2]([H:5])([H:6])[S:1][C:3]([H:7])([H:8])[H:9]" dataset="DES370K Monomers" energy=-13010.072129561811 pbc="F F F"
S        0.46847873       1.07673202      -0.08194540      -1.15084823      -1.32235017      -0.44600122
C       -1.34521936       0.54815222       0.02667636       1.44909508       2.19626299       0.33048546
C        1.06345235      -0.44753380      -0.94997877       1.79276753       1.38826783      -0.66924392
H       -1.38724945      -0.16220926       0.80943405      -0.31570542      -1.12539754       0.21398055
H       -1.79628621       0.33981974      -0.92247844       0.10599836      -0.61662323      -0.36927645
H       -1.85280095       1.43297531       0.40296692      -0.01892974       0.12243952       0.04771608
H        0.50637712      -1.31069685      -0.64678901      -0.55009333      -0.27034308      -0.25958201
H        2.11858569      -0.65861108      -0.65691036      -0.74331365       0.36266108       0.00246716
H        1.12767159      -0.21192958      -2.05131471      -0.57008614      -0.73781219       1.14820823
