46
Properties=species:S:1:pos:R:3:forces:R:3 id=38118 bond=C-C smiles="[H:21][c:3]1[c:5]([c:8]([c:6]([c:4]([c:7]1[C:9]([H:25])([H:26])[H:27])[H:22])[H:24])[C:13]([H:37])([H:38])[C:19]2([C:20]([C:17]2([Cl:1])[Cl:2])([C:12]([H:34])([H:35])[H:36])[C:16]([H:43])([H:44])[C:14]([H:39])([H:40])[C:15]([H:41])([H:42])[C:18]([H:45])([C:10]([H:28])([H:29])[H:30])[C:11]([H:31])([H:32])[H:33])[H:46])[H:23]" dataset=PubChem energy=-44148.78574979425 pbc="F F F"
Cl      -0.17255306      -2.02995324      -2.79536435       0.87360133       0.29687332       0.41168838
Cl       2.65204996      -1.46198392      -1.74446962      -1.35242711      -0.02139809      -0.28262065
C       -1.06780412      -2.69819708       3.90905382      -0.57902499       0.71768875      -1.04425411
C       -2.72094811      -1.14521463       3.12250139       0.22472388      -0.37347359      -1.06921847
C       -0.56215133      -2.79063172       2.60562231      -0.04606880       0.15793164       1.56987115
C       -2.20603313      -1.27527721       1.80677904      -0.46034883       0.91462806       0.75387154
C       -2.17348184      -1.88529177       4.16637899      -0.09982964      -0.27100198      -0.24822973
C       -1.10414864      -2.07256741       1.55051102      -0.45919787      -0.70829284       0.90704744
C       -2.80250777      -1.87584014       5.53039791       0.58675935       0.61386013       0.02301653
C        3.37431187       5.33863687      -0.25515625      -0.42702509       0.02511829       0.81028137
C        3.95901817       3.90361118      -2.25946162       1.68220780       0.73335669       0.53115364
C       -1.10758382       0.38538211      -1.02541337       0.86609212      -0.94994931      -0.49458271
C       -0.50575509      -2.21444363       0.19079335     -17.88345768     -14.01127257       3.61472712
C        1.85298222       1.93907439      -1.08009228      -0.98607506      -0.26237518      -1.10819214
C        2.57069439       3.00852870      -0.31591771      -0.21035148       0.37383515      -0.63009727
C        1.26216149       0.90489888      -0.12857494       1.12175875      -0.27612686      -0.30988623
C        0.83525372      -1.32867205      -1.50660393       1.33546989       0.62391327       0.76903403
C        2.92570252       4.20435261      -1.20041392       0.27349829       0.58199047       1.26920615
C        0.39568465      -1.49902892      -0.04403684      17.67847233      13.49284551      -5.55477220
C        0.34421211      -0.11838412      -0.73231194      -1.84912361      -0.66281954       0.49738019
H       -0.64977898      -3.23795648       4.73311855       0.30820402      -0.37591579       0.10579538
H       -3.59769477      -0.52186055       3.30142404       0.26878204      -0.15049758      -0.07590576
H        0.29571424      -3.42355008       2.50739147       0.33857380      -0.25519245      -0.54316081
H       -2.64354981      -0.68211551       0.99298193       0.10148979      -0.41536939       0.46347947
H       -3.86579313      -1.75125046       5.44519903      -0.48731203       0.09968025       0.03836909
H       -2.40122308      -1.01625867       6.09315587      -0.21411146      -0.47405214       0.08696775
H       -2.61429609      -2.80897946       6.05358698       0.12025274       0.10306129       0.13925602
H        2.51529354       5.89833497       0.15980646       0.24139660      -0.41328255      -0.20154060
H        3.94011492       4.97625732       0.63072578      -0.22756067       0.00698142      -0.68355393
H        3.98133987       6.07064532      -0.74569389       0.44039559       0.40388561      -0.39903889
H        4.87491077       3.45304537      -1.78160021      -0.84600069       0.27611804      -0.54266170
H        4.30919785       4.85102796      -2.75018928      -0.43217507      -0.87477478       0.32183588
H        3.57209104       3.24232912      -3.00576255      -0.04929432      -0.42778790      -0.47208417
H       -1.84157377      -0.40904719      -1.27051529       0.73711872       0.50551373       0.01164263
H       -1.48247748       0.88905853      -0.16776583      -0.13835437       0.43525642       0.82186688
H       -1.09510415       1.09754544      -1.82848093      -0.01739293       0.23856677      -0.50789620
H       -0.15447428      -3.24768538       0.02307256      -0.60099673      -0.30174151       0.43111660
H       -1.31673850      -2.10937400      -0.52223716      -0.42894879      -0.27897043      -0.02122478
H        1.01045114       2.38287973      -1.67601964       0.69948248      -0.27996551       0.41333231
H        2.56588143       1.49798894      -1.81960508      -0.73774855       0.09137151       0.61962069
H        3.45769733       2.53970766       0.04902312       0.95313630      -0.03737419       0.43719220
H        2.02733129       3.34392118       0.57164608      -0.22280579      -0.01172117      -0.21659996
H        2.08923691       0.37525815       0.38552782      -0.41296414       0.33052064      -0.23739264
H        0.71412695       1.44571590       0.63882745      -0.17127012      -0.09503839       0.11533668
H        2.02765829       4.52714538      -1.70888350      -0.36186588       0.12537040      -0.08977760
H        1.18995673      -1.66670728       0.67808420       0.84980195       0.78013576      -0.42981144
