46
Properties=species:S:1:pos:R:3:forces:R:3 id=38118 bond=C-C smiles="[H:21][c:3]1[c:5]([c:8]([c:6]([c:4]([c:7]1[C:9]([H:25])([H:26])[H:27])[H:22])[H:24])[C:13]([H:37])([H:38])[C:19]2([C:20]([C:17]2([Cl:1])[Cl:2])([C:12]([H:34])([H:35])[H:36])[C:16]([H:43])([H:44])[C:14]([H:39])([H:40])[C:15]([H:41])([H:42])[C:18]([H:45])([C:10]([H:28])([H:29])[H:30])[C:11]([H:31])([H:32])[H:33])[H:46])[H:23]" dataset=PubChem energy=-44145.73964954287 pbc="F F F"
Cl      -0.20790364      -2.05800872      -2.78615533       0.88315462       0.28561862       0.43216338
Cl       2.61669938      -1.49003940      -1.73526060      -1.34913934      -0.01868645      -0.28600955
C       -1.03245354      -2.67014160       3.89984480      -0.57187480       0.72160984      -1.04373784
C       -2.68559753      -1.11715915       3.11329237       0.23028127      -0.37181027      -1.05739977
C       -0.52680075      -2.76257624       2.59641329      -0.03972991       0.17008811       1.53686263
C       -2.17068255      -1.24722173       1.79757002      -0.45626212       0.91382227       0.73648575
C       -2.13813126      -1.85723629       4.15716997      -0.10395398      -0.26850528      -0.24991128
C       -1.06879806      -2.04451193       1.54130200      -0.75241684      -0.83728525       1.12860687
C       -2.76715719      -1.84778466       5.52118889       0.58738121       0.61339094       0.02295458
C        3.33896129       5.31058139      -0.24594723      -0.42682021       0.02541070       0.80997079
C        3.92366759       3.87555570      -2.25025260       1.68213997       0.73353953       0.53108641
C       -1.14293440       0.35732663      -1.01620435       0.89101037      -0.93000320      -0.48731512
C       -0.47040451      -2.18638815       0.18158433     -30.56529250     -23.97985339       6.91672440
C        1.81763164       1.91101891      -1.07088326      -0.97991163      -0.25562629      -1.10326820
C        2.53534381       2.98047322      -0.30670869      -0.20948579       0.37453260      -0.63271032
C        1.22681091       0.87684340      -0.11936592       1.11141528      -0.27804821      -0.33438711
C        0.79990314      -1.35672753      -1.49739491       1.56188287       0.80529324       0.53988140
C        2.89035194       4.17629713      -1.19120490       0.27391761       0.58207215       1.27011070
C        0.36033407      -1.52708440      -0.03482782      30.38836661      23.46445400      -8.86778910
C        0.30886153      -0.14643960      -0.72310292      -1.73597540      -0.43860874       0.45063316
H       -0.61442840      -3.20990100       4.72390953       0.30821102      -0.37690867       0.10419068
H       -3.56234419      -0.49380507       3.29221502       0.26891668      -0.15051635      -0.07679916
H        0.33106482      -3.39549460       2.49818245       0.34478224      -0.26296338      -0.54364062
H       -2.60819923      -0.65406003       0.98377291       0.09265256      -0.43920896       0.49226952
H       -3.83044255      -1.72319498       5.43599001      -0.48712032       0.09976938       0.03796528
H       -2.36587250      -0.98820319       6.08394685      -0.21408817      -0.47437897       0.08660774
H       -2.57894551      -2.78092398       6.04437796       0.12039158       0.10300806       0.13920493
H        2.47994296       5.87027949       0.16901548       0.24135498      -0.41323702      -0.20149231
H        3.90476434       4.94820184       0.63993480      -0.22762657       0.00693156      -0.68358536
H        3.94598929       6.04258984      -0.73648487       0.44049302       0.40414061      -0.39899701
H        4.83956019       3.42498989      -1.77239119      -0.84608614       0.27606744      -0.54267484
H        4.27384727       4.82297248      -2.74098026      -0.43206042      -0.87461709       0.32174011
H        3.53674046       3.21427364      -2.99655353      -0.04930428      -0.42783053      -0.47189893
H       -1.87692435      -0.43710267      -1.26130627       0.72138022       0.50984577       0.00202845
H       -1.51782806       0.86100305      -0.15855681      -0.12783809       0.44987801       0.80368322
H       -1.13045473       1.06948996      -1.81927191      -0.01558738       0.22778111      -0.51418461
H       -0.11912370      -3.21962990       0.01386354      -0.79454957      -0.60717581       0.49464141
H       -1.28138792      -2.08131852      -0.53144618      -0.65351185      -0.44279940       0.03016690
H        0.97510056       2.35482425      -1.66681062       0.69992857      -0.27979412       0.41346830
H        2.53053085       1.46993346      -1.81039606      -0.73762561       0.09118678       0.61944773
H        3.42234675       2.51165218       0.05823214       0.95305416      -0.03746802       0.43725339
H        1.99198071       3.31586570       0.58085510      -0.22294917      -0.01179702      -0.21643887
H        2.05388633       0.34720267       0.39473684      -0.41421183       0.32675168      -0.23656810
H        0.67877637       1.41766042       0.64803647      -0.17344870      -0.09340150       0.11548931
H        1.99230771       4.49908990      -1.69967448      -0.36191480       0.12540625      -0.08986227
H        1.15460615      -1.69476276       0.68729322       1.14735111       0.95947328      -0.43311071
