46
Properties=species:S:1:pos:R:3:forces:R:3 id=38118 bond=C-C smiles="[H:21][c:3]1[c:5]([c:8]([c:6]([c:4]([c:7]1[C:9]([H:25])([H:26])[H:27])[H:22])[H:24])[C:13]([H:37])([H:38])[C:19]2([C:20]([C:17]2([Cl:1])[Cl:2])([C:12]([H:34])([H:35])[H:36])[C:16]([H:43])([H:44])[C:14]([H:39])([H:40])[C:15]([H:41])([H:42])[C:18]([H:45])([C:10]([H:28])([H:29])[H:30])[C:11]([H:31])([H:32])[H:33])[H:46])[H:23]" dataset=PubChem energy=-44148.57551712765 pbc="F F F"
Cl       0.30467975      -1.65120429      -2.91968622       0.78996850       0.32566232       0.39183965
Cl       3.12928277      -1.08323497      -1.86879149      -1.33704658      -0.04208010      -0.24766549
C       -1.54503693      -3.07694603       4.03337569      -0.55755504       0.62056458      -1.13521481
C       -3.19818092      -1.52396358       3.24682326       0.17119951      -0.38445637      -1.22031737
C       -1.03938414      -3.16938067       2.72994418       0.05675011      -0.02255632       1.82906826
C       -2.68326594      -1.65402616       1.93110091      -0.65277519       1.07140556       0.83509649
C       -2.65071465      -2.26404072       4.29070086      -0.10492711      -0.27144820      -0.20086487
C       -1.58138145      -2.45131636       1.67483289       1.03263506      -0.04186603      -0.42399036
C       -3.27974058      -2.25458909       5.65471978       0.59123153       0.60772254       0.00695393
C        3.85154468       5.71738582      -0.37947812      -0.42841299       0.02353211       0.81334410
C        4.43625098       4.28236013      -2.38378349       1.68347188       0.73181572       0.53075714
C       -0.63035101       0.76413106      -1.14973524       0.73054337      -0.99190118      -0.59367351
C       -0.98298790      -2.59319258       0.31511522       0.44109158       0.22032708      -0.12629215
C        2.33021503       2.31782334      -1.20441415      -0.99504918      -0.27666456      -1.17018109
C        3.04792720       3.38727765      -0.44023958      -0.20942349       0.36675505      -0.60583539
C        1.73939430       1.28364783      -0.25289681       1.11312005      -0.27838169      -0.10684251
C        1.31248653      -0.94992310      -1.63092580       0.30395153      -0.25823556       1.50601492
C        3.40293533       4.58310156      -1.32473579       0.26855524       0.58043512       1.26030357
C        0.87291746      -1.12027997      -0.16835871      -1.55534986      -1.14702088      -1.22977120
C        0.82144492       0.26036483      -0.85663381      -2.30362260      -1.25483287       0.69206712
H       -1.12701179      -3.61670543       4.85744042       0.30973881      -0.37278316       0.10138787
H       -4.07492758      -0.90060950       3.42574591       0.27375166      -0.15412148      -0.08048725
H       -0.18151857      -3.80229903       2.63171334       0.33278817      -0.18092008      -0.54379709
H       -3.12078262      -1.06086446       1.11730380       0.15860050      -0.33202021       0.39775561
H       -4.34302594      -2.12999941       5.56952090      -0.48472088       0.10383628       0.03509699
H       -2.87845589      -1.39500762       6.21747774      -0.21032443      -0.46953554       0.08209024
H       -3.09152890      -3.18772841       6.17790885       0.12470029       0.10543101       0.13647500
H        2.99252635       6.27708392       0.03548459       0.24152059      -0.41348799      -0.20176407
H        4.41734773       5.35500627       0.50640391      -0.22713791       0.00721342      -0.68350327
H        4.45857268       6.44939427      -0.87001576       0.43994682       0.40246237      -0.39950652
H        5.35214358       3.83179432      -1.90592208      -0.84594499       0.27625490      -0.54276558
H        4.78643066       5.22977691      -2.87451115      -0.43280985      -0.87525473       0.32230405
H        4.04932385       3.62107807      -3.13008442      -0.04901452      -0.42726106      -0.47222582
H       -1.36434096      -0.03029824      -1.39483716       0.83617959       0.34619196       0.11263136
H       -1.00524467       1.26780748      -0.29208770      -0.13466783       0.38966332       0.87841094
H       -0.61787134       1.47629439      -1.95280280      -0.02408735       0.30787063      -0.50186579
H       -0.63170709      -3.62643433       0.14739443       0.75310597       0.88494380       0.14236313
H       -1.79397131      -2.48812295      -0.39791529       0.49350074       0.90149415      -0.58248581
H        1.48768395       2.76162868      -1.80034151       0.69850577      -0.28698378       0.41798183
H        3.04311424       1.87673789      -1.94392695      -0.73957999       0.09427077       0.62203609
H        3.93493014       2.91845661      -0.07529875       0.95330170      -0.03647120       0.43686450
H        2.50456410       3.72267013       0.44732421      -0.22233771      -0.01089475      -0.21796791
H        2.56646972       0.75400710       0.26120595      -0.38837768       0.35026138      -0.24095287
H        1.19135976       1.82446485       0.51450558      -0.16194081      -0.09141210       0.10608041
H        2.50489110       4.90589433      -1.83320537      -0.36119079       0.12527749      -0.08926378
H        1.66718954      -1.28795833       0.55376233      -0.37420232      -0.22260352      -0.03604696
