11
Properties=species:S:1:pos:R:3:forces:R:3 id=15220 bond=C-C smiles="[H:10][C:4]([H:11])([C:3]([H:8])([H:9])[O:1][H:5])[N:2]([H:6])[H:7]" dataset="DES370K Monomers" energy=-5693.962157265871 pbc="F F F"
O        0.15198750       1.10731574      -0.91073053      -5.06158300       8.40787054      -4.93089560
N        0.05322377      -0.06623002       1.43909877      -1.28775506      -0.33389515       2.92389890
C        0.24469249      -0.17819998      -0.57714772     -86.70744054      21.03982289    -149.69825243
C        0.64843409      -0.28805503       0.11180677      91.17717733     -27.40161485     152.54109331
H        0.94737275       1.61114045      -1.16558247      -0.20716248      -1.28241849       0.16227328
H        0.76400529       0.24742561       2.11717075      -0.79999898      -0.68277091      -0.32597262
H       -0.46235167      -0.93909504       1.77255028       1.19720085       1.59121102      -0.49232254
H        0.68234475      -0.73190723      -1.37484663      -0.38827154       0.08970498      -2.53902784
H       -0.76068424      -0.63441155      -0.56234890      -1.27020582       0.20822596      -1.21397438
H        1.11859868      -1.30350157       0.14039218       0.68373036       0.26626000       1.81799750
H        1.32794307       0.61194233       0.13930970       2.66750830      -1.90273628       1.75822846
