11
Properties=species:S:1:pos:R:3:forces:R:3 id=15220 bond=C-C smiles="[H:10][C:4]([H:11])([C:3]([H:8])([H:9])[O:1][H:5])[N:2]([H:6])[H:7]" dataset="DES370K Monomers" energy=-5724.326887822101 pbc="F F F"
O       -0.29212825       1.22815630      -1.66858047      -0.35262771       2.57420785       0.18395938
N        0.49733952      -0.18707058       2.19694871      -1.45359624      -1.88055629      -0.23095831
C       -0.19942326      -0.05735942      -1.33499766       0.11856109      -1.47577840       1.02478201
C        1.09254984      -0.40889559       0.86965671       0.14098992       1.07901322       0.98714587
H        0.50325700       1.73198101      -1.92343241      -0.34949081      -1.17885652       0.33583691
H        1.20812104       0.12658505       2.87502069      -0.75697569      -0.37928335      -0.55456208
H       -0.01823592      -1.05993560       2.53040022       1.19620582       1.87884522      -0.34181226
H        0.23822900      -0.61106667      -2.13269657       1.63715469      -0.82722722      -0.02266682
H       -1.20479999      -0.51357099      -1.32019884       0.27950649       0.58419753       1.13769384
H        1.56271443      -1.42434213       0.89824212      -0.25870108       0.95861046      -1.14594845
H        1.77205882       0.49110177       0.89715964      -0.20243041      -1.33457984      -1.37555701
