44
Properties=species:S:1:pos:R:3:forces:R:3 id=41485 bond=N-N smiles="[H:41][C:21]1([C:17]([C:13]([N:11]([C:14]([C:18]1([H:35])[H:36])([H:27])[H:28])[N:9]([H:23])[C:7](=[S:1])[S:5][S:3][S:4][S:6][C:8](=[S:2])[N:10]([H:24])[N:12]2[C:15]([C:19]([C:22]([C:20]([C:16]2([H:31])[H:32])([H:39])[H:40])([H:43])[H:44])([H:37])[H:38])([H:29])[H:30])([H:25])[H:26])([H:33])[H:34])[H:42]" dataset=PubChem energy=-83795.04352733266 pbc="F F F"
S       -0.91672402      -1.52995745       0.30135483       0.22946370       0.83018701      -0.23684697
S        1.94937581       3.52048477       3.24702698       0.41365349      -0.57025469      -0.19312336
S        2.06792814       1.07574757      -0.80839889      -0.72009850      -0.74293977       1.03545357
S        2.94510717      -0.04630402       0.73064198       0.09558831       0.54629290      -0.03317475
S        0.16468806       1.28358134       0.04455990       0.49689823       1.00222366      -0.32636936
S        3.63229055       1.43885585       2.00197703       0.23641944      -0.25718991      -0.19838620
C       -0.80632083      -0.07437477      -0.50194495      -2.20737756      -1.51664854      -2.27245588
C        2.33657355       1.90683731       3.11078007      -1.46853408       0.31476916       0.92282829
N       -1.63508182       0.08926376      -1.63080447       2.31205439       3.99319982       0.05464200
N        1.67127914       1.01205882       3.89318950       1.54893891      -1.62313812      -0.40168949
N       -1.58879366       1.46418067      -2.70064523      -1.04739868      -3.38617607       0.47793949
N        2.08970709      -0.35611556       4.03145248      -0.34416412       0.42730095      -0.84694286
C       -2.11353388       2.77967473      -2.29082539      -0.24490875      -1.18444388       0.65710723
C       -0.43261721       1.50853642      -3.61014940       0.15227346      -0.22595186       1.34476400
C        1.04915310      -1.31470696       3.62970597       0.02779060       0.04842409       0.32834872
C        2.76628632      -0.73131971       5.27839190       0.59981766       1.07461048       0.15250287
C       -2.44914141       3.63998600      -3.52047946      -0.29672597      -1.72255932      -1.11892631
C       -0.87150850       2.17525061      -4.89675524      -0.55688492       0.65544781       0.79550805
C        1.65825290      -2.71483342       3.42972428       0.35209428       0.52966511       0.31381275
C        3.49203391      -2.06868449       5.11499268      -0.42059356      -0.10113097      -0.75686090
C       -1.30911710       3.62036510      -4.57731249      -0.39379822      -0.17605023       0.03445404
C        2.46791191      -3.12656466       4.69663627       0.00311235       0.58672514      -1.20061595
H       -2.35402112      -0.61615959      -1.79990475       0.36664321       0.60632307      -0.28957761
H        0.96898935       1.39193662       4.50570447      -0.12698314       0.07505671       0.15828276
H       -1.40464428       3.30154081      -1.67427661       0.48191967       0.36116198       0.41646678
H       -3.00981965       2.58313330      -1.68732264       0.24837179       0.22052130      -0.21420984
H       -0.05086741       0.52033408      -3.87540772      -0.19779791       0.01994793       0.58184871
H        0.36044638       2.10049840      -3.10335042       0.00985760      -0.32039167      -0.52458140
H        0.56592353      -0.98160485       2.71882779       0.17074414       0.14648316      -0.14006761
H        0.25405882      -1.35684816       4.39975435       0.20301965      -0.10794958      -0.06427255
H        3.48743910       0.06828504       5.50244910      -0.19129463      -0.24867185      -0.08777647
H        2.08816761      -0.77981261       6.14265639      -0.18982070      -0.07111707      -0.13771034
H       -3.35367622       3.20699068      -4.02948620       0.75200495       0.31401149       0.53904507
H       -2.73363819       4.62244697      -3.18721440       0.16273042       0.45379553       0.08659654
H       -1.68908324       1.59011908      -5.32337811       0.02755946       0.14360681       0.00578701
H       -0.03562763       2.13625260      -5.57016184       0.32968518       0.21157408      -0.44821090
H        0.81052191      -3.39059178       3.26180846       0.40147373      -0.02659906      -0.02759476
H        2.30805404      -2.70733444       2.52264637      -0.48032109      -0.02023933       0.68966468
H        4.24291749      -1.99207536       4.31049472      -0.14976577       0.15108475       0.45288930
H        3.97875304      -2.37943450       6.04748828      -0.07490092       0.27562038      -0.23265030
H       -1.67114272       4.09474512      -5.48134233      -0.05115096       0.18590835      -0.15524725
H       -0.43847128       4.19122764      -4.25139382      -0.02918502      -0.03733455       0.15893633
H        1.78967447      -3.27344481       5.49890239      -0.77923606      -0.16303567       0.82001035
H        2.95282573      -4.06178752       4.52188903       0.35102718      -0.67474294      -0.12300575
