44
Properties=species:S:1:pos:R:3:forces:R:3 id=41485 bond=N-N smiles="[H:41][C:21]1([C:17]([C:13]([N:11]([C:14]([C:18]1([H:35])[H:36])([H:27])[H:28])[N:9]([H:23])[C:7](=[S:1])[S:5][S:3][S:4][S:6][C:8](=[S:2])[N:10]([H:24])[N:12]2[C:15]([C:19]([C:22]([C:20]([C:16]2([H:31])[H:32])([H:39])[H:40])([H:43])[H:44])([H:37])[H:38])([H:29])[H:30])([H:25])[H:26])([H:33])[H:34])[H:42]" dataset=PubChem energy=-83793.62496960524 pbc="F F F"
S       -0.92072423      -1.64877743       0.39381020       0.19131848       0.65735037      -0.18630905
S        1.94537560       3.40166479       3.33948235       0.41061288      -0.56191580      -0.18818826
S        2.06392793       0.95692759      -0.71594352      -0.75231645      -0.73538226       1.04081604
S        2.94110696      -0.16512400       0.82309735       0.10531546       0.53957021      -0.03071940
S        0.16068785       1.16476136       0.13701527       0.51283415       1.05697827      -0.37081472
S        3.62829034       1.32003587       2.09443240       0.23513817      -0.25667288      -0.19719731
C       -0.81032104      -0.19319475      -0.40948958      -2.47170049      -1.31123386      -2.69272281
C        2.33257334       1.78801733       3.20323544      -1.46398256       0.30539501       0.91915375
N       -1.63908203      -0.02955622      -1.53834910       2.88321541       3.11225112       1.17938929
N        1.66727893       0.89323884       3.98564487       1.55178035      -1.61816893      -0.40095194
N       -1.58479345       1.58300065      -2.79310060      -1.69688670      -2.22598254      -1.11977323
N        2.08570688      -0.47493554       4.12390785      -0.34438378       0.42757394      -0.84539728
C       -2.10953367       2.89849471      -2.38328076       0.11727113      -1.35050456       1.19861867
C       -0.42861700       1.62735640      -3.70260477       0.57916700      -0.34996151       2.03548885
C        1.04515289      -1.43352694       3.72216134       0.02888372       0.04623951       0.32872821
C        2.76228611      -0.85013969       5.37084727       0.59847886       1.07583575       0.14935038
C       -2.44514120       3.75880598      -3.61293483      -0.26775933      -1.75622750      -1.41912449
C       -0.86750829       2.29407059      -4.98921061      -0.88403701       0.74768148       0.74017304
C        1.65425269      -2.83365340       3.52217965       0.35283690       0.52911353       0.31321910
C        3.48803370      -2.18750447       5.20744805      -0.42039065      -0.10167546      -0.75649521
C       -1.30511689       3.73918508      -4.66976786      -0.37688429      -0.17206322       0.07064265
C        2.46391170      -3.24538464       4.78909164       0.00280772       0.58750468      -1.20107677
H       -2.35802133      -0.73497957      -1.70744938       0.22602175       0.49975357      -0.32360170
H        0.96498914       1.27311664       4.59815984      -0.12805996       0.07407021       0.15679514
H       -1.40064407       3.42036079      -1.76673198       0.47119778       0.41953456       0.40493631
H       -3.00581944       2.70195328      -1.77977801       0.24855326       0.21862357      -0.24305324
H       -0.04686720       0.63915406      -3.96786309      -0.21601175       0.02208815       0.54500117
H        0.36444659       2.21931838      -3.19580579       0.03488570      -0.32198415      -0.56766663
H        0.56192332      -1.10042483       2.81128316       0.16787211       0.14661656      -0.14347483
H        0.25005861      -1.47566814       4.49220972       0.20266737      -0.10751293      -0.06499277
H        3.48343889      -0.05053494       5.59490447      -0.19096614      -0.24826955      -0.08778407
H        2.08416740      -0.89863259       6.23511176      -0.19018852      -0.07151667      -0.13667949
H       -3.34967601       3.32581066      -4.12194157       0.76250943       0.31716252       0.54972887
H       -2.72963798       4.74126695      -3.27966977       0.16441341       0.41995592       0.15154835
H       -1.68508303       1.70893906      -5.41583348       0.02756492       0.15627137      -0.00870505
H       -0.03162742       2.25507258      -5.66261721       0.35687239       0.14834923      -0.37890010
H        0.80652170      -3.50941176       3.35426383       0.40171995      -0.02565899      -0.02817836
H        2.30405383      -2.82615442       2.61510174      -0.48151089      -0.02005925       0.68990788
H        4.23891728      -2.11089534       4.40295009      -0.15006986       0.15132712       0.45270448
H        3.97475283      -2.49825448       6.13994365      -0.07446241       0.27547227      -0.23179048
H       -1.66714251       4.21356510      -5.57379770      -0.05692334       0.17529995      -0.15855531
H       -0.43447107       4.31004762      -4.34384919      -0.03680966      -0.04008933       0.15577748
H        1.78567426      -3.39226479       5.59135776      -0.77931094      -0.16297741       0.82064678
H        2.94882552      -4.18060750       4.61434440       0.35145934      -0.67526632      -0.12301590
