44
Properties=species:S:1:pos:R:3:forces:R:3 id=41485 bond=N-N smiles="[H:41][C:21]1([C:17]([C:13]([N:11]([C:14]([C:18]1([H:35])[H:36])([H:27])[H:28])[N:9]([H:23])[C:7](=[S:1])[S:5][S:3][S:4][S:6][C:8](=[S:2])[N:10]([H:24])[N:12]2[C:15]([C:19]([C:22]([C:20]([C:16]2([H:31])[H:32])([H:39])[H:40])([H:43])[H:44])([H:37])[H:38])([H:29])[H:30])([H:25])[H:26])([H:33])[H:34])[H:42]" dataset=PubChem energy=-83795.79872314328 pbc="F F F"
S       -0.91472391      -1.47054746       0.25512714       0.26359838       0.87871687      -0.22468666
S        1.95137592       3.57989476       3.20079929       0.41424057      -0.57193188      -0.19472644
S        2.06992825       1.13515756      -0.85462658      -0.69925941      -0.74912194       1.04088908
S        2.94710728       0.01310597       0.68441429       0.09135623       0.55030844      -0.03456434
S        0.16668817       1.34299133      -0.00166779       0.50568227       0.96481369      -0.29315844
S        3.63429066       1.49826584       1.95574934       0.23720022      -0.25754660      -0.19809467
C       -0.80432072      -0.01496478      -0.54817264      -2.13232538      -1.69357736      -2.05776849
C        2.33857366       1.96624730       3.06455238      -1.47019999       0.31621209       0.92438413
N       -1.63308171       0.14867375      -1.67703216       1.93407216       3.76924752      -0.00150365
N        1.67327925       1.07146881       3.84696181       1.54886375      -1.62407376      -0.40221107
N       -1.59079377       1.40477068      -2.65441754      -0.67067437      -3.27769179       0.74005156
N        2.09170720      -0.29670557       3.98522479      -0.34365331       0.42701904      -0.84698156
C       -2.11553399       2.72026474      -2.24459770      -0.35374608      -1.06691861       0.31831933
C       -0.43461732       1.44912643      -3.56392171      -0.04416898      -0.02868196       1.01186453
C        1.05115321      -1.25529697       3.58347828       0.02711696       0.04917302       0.32758305
C        2.76828643      -0.67190972       5.23216421       0.60021967       1.07455291       0.15329604
C       -2.45114152       3.58057601      -3.47425177      -0.31276042      -1.67170031      -0.99485172
C       -0.87350861       2.11584062      -4.85052755      -0.40862689       0.63310182       0.79336171
C        1.66025301      -2.65542343       3.38349659       0.35171554       0.52984574       0.31418316
C        3.49403402      -2.00927450       5.06876499      -0.42081639      -0.10101795      -0.75693000
C       -1.31111721       3.56095511      -4.53108480      -0.39803458      -0.18545821       0.03236812
C        2.46991202      -3.06715467       4.65040858       0.00319042       0.58666104      -1.20066367
H       -2.35202101      -0.55674960      -1.84613244       0.46578428       0.56640995      -0.16364804
H        0.97098946       1.45134661       4.45947678      -0.12676258       0.07536568       0.15868381
H       -1.40664439       3.24213082      -1.62804892       0.47575457       0.34107026       0.40285378
H       -3.01181976       2.52372331      -1.64109495       0.24602525       0.20467296      -0.20114673
H       -0.05286752       0.46092409      -3.82918003      -0.20247441       0.00715007       0.60547228
H        0.35844627       2.04108841      -3.05712273      -0.00910776      -0.31621990      -0.52735440
H        0.56792364      -0.92219486       2.67260010       0.17133652       0.14571354      -0.13945425
H        0.25605893      -1.29743817       4.35352666       0.20317407      -0.10806324      -0.06384880
H        3.48943921       0.12769503       5.45622141      -0.19128409      -0.24875714      -0.08768264
H        2.09016772      -0.72040262       6.09642870      -0.18975399      -0.07103443      -0.13799978
H       -3.35567633       3.14758069      -3.98325851       0.74683790       0.31288772       0.53441140
H       -2.73563830       4.56303698      -3.14098671       0.15850704       0.46846799       0.05370492
H       -1.69108335       1.53070909      -5.27715042       0.02613777       0.13844084       0.00921007
H       -0.03762774       2.07684261      -5.52393415       0.31520315       0.23507780      -0.47991623
H        0.81252202      -3.33118179       3.21558077       0.40150332      -0.02654660      -0.02764562
H        2.31005415      -2.64792445       2.47641868      -0.48009150      -0.02028438       0.68950785
H        4.24491760      -1.93266537       4.26426703      -0.14967453       0.15101329       0.45286413
H        3.98075315      -2.32002451       6.00126059      -0.07496917       0.27571506      -0.23284582
H       -1.67314283       4.03533513      -5.43511464      -0.05105458       0.18778286      -0.15431322
H       -0.44047139       4.13181765      -4.20516613      -0.02678737      -0.03662664       0.15942494
H        1.79167458      -3.21403482       5.45267470      -0.77920730      -0.16303918       0.81988945
H        2.95482584      -4.00237753       4.47566134       0.35097684      -0.67464631      -0.12296214
