40
Properties=species:S:1:pos:R:3:forces:R:3 id=22405 bond=C-C smiles="[H:30][c:15]1[c:12]([c:13]2[c:16]([c:19]3[c:18]1[n:6][c:11]([c:14]4[c:17]3[C:24]([C:26]([C:25]([C:23]4([H:33])[H:34])([H:37])[H:38])([H:39])[H:40])([H:35])[H:36])[C:9]5=[C:10]([N:20]([N:5]=[C:8]5[C:22]([F:1])([F:2])[F:3])[H:31])[H:28])[C:7](=[N:4][N:21]2[H:32])[H:27])[H:29]" dataset=PubChem energy=-34512.91811082595 pbc="F F F"
F        2.36415109      -3.97055725       3.77956523       0.20675431       1.74280037      -1.59702663
F        3.26493797      -3.37022881       1.80593731      -0.79002416       0.21244306       1.22536927
F        2.23003945      -1.82677512       2.98918475       0.06138416      -1.87149749       0.01660430
N        2.33469004       5.83153590      -0.62354025      -0.07871293      -1.27994139      -0.25500050
N        0.30906934      -4.75529961       1.96764554       0.08701881       0.20014127      -0.10836678
N        1.97397084      -0.08600620       0.08291515      -3.46381380      -2.71506189       1.42308795
C        1.39326168       4.90428456      -0.52261695      -1.00107944       0.06074189       0.04292791
C        0.89199656      -3.54504780       1.93757810      -1.87546330       0.57345941      -2.12488410
C        0.13767031      -2.71736292       0.95599304       1.43044822       1.70774367       0.76754358
C       -0.89596894      -3.50231508       0.50010270       0.96597646       0.10762520       0.50243550
C        0.70088241      -0.36555234       0.37435334       2.91728510       0.25855963      -0.69937399
C        4.20494027       2.72735032      -0.44721410       0.42155281      -3.21571454       0.39107686
C        3.30324692       3.76416262      -0.56353876      -1.62751192       1.22190967      -0.03543833
C       -0.28113799       0.65132308       0.36167192      -0.98646508      -0.32911450       0.09201580
C        3.70545597       1.42180547      -0.23010907       2.63407304       2.03466023      -0.72832191
C        1.91281254       3.55872520      -0.47244373       1.11404615       1.06058595       0.20896539
C        0.07332648       1.97931346       0.00424763      -0.68321644      -1.36409077       0.26462544
C        2.34777863       1.17993545      -0.11475107      -0.74411713       0.43199264      -0.08709105
C        1.43984367       2.25149485      -0.19546357      -1.38020238       0.32432990      -0.23545623
N       -0.75341144      -4.75051216       1.10051133       0.93332614       2.29026961       0.11604384
N        3.48222227       5.11655482      -0.69082138       1.13981742      -0.74305563       0.22556620
C        2.21341035      -3.15511279       2.65620817      -0.93764021      -1.04007560      -0.33003574
C       -1.70002728       0.27689918       0.76799825       0.10040922       0.74225406      -0.53859897
C       -1.00499170       3.07559880      -0.13875154       0.94479465      -0.46998589      -0.20208131
C       -2.48217301       1.52149221       1.16114667       0.34223241       0.27155454      -0.62306656
C       -2.40149193       2.52651497       0.00110281      -1.31832000       0.75276796      -0.01555579
H        0.32924373       5.17621573      -0.50090793       0.99592756       0.15609656       0.03530300
H       -1.67125931      -3.20507960      -0.19460832       0.08367073      -0.49717694       0.17123443
H        5.27314491       2.85475131      -0.50587753       0.08674544       0.18401025      -0.03269821
H        4.36726136       0.55325627      -0.16437808      -0.16540920       0.53080921       0.01859386
H       -1.37849441      -5.53540043       0.95188148       0.65758710       0.13042805       0.50052974
H        4.41383977       5.51485928      -0.69690118      -0.70364497       0.45108913      -0.02833277
H       -2.21495442      -0.24700073      -0.05847171       0.24648394       0.16804501       0.37609887
H       -1.64442234      -0.37638858       1.61128774       0.10715674      -0.67855373       0.36427528
H       -0.83303897       3.81414279       0.65069252       0.08923652      -0.01083510      -0.20017884
H       -0.88963287       3.57470092      -1.13080057       0.04070845      -0.35332892       0.83037230
H       -2.03219823       1.97807070       2.05986300      -0.19106909      -0.17177544      -0.30572774
H       -3.50461511       1.26137125       1.39083901      -0.27784424       0.00154157       0.06404067
H       -2.69765596       2.09070715      -0.98275599      -0.01849236       0.02470842       0.88502885
H       -3.09801416       3.39148554       0.20771229       0.63499348      -0.90317633      -0.37451571
