40
Properties=species:S:1:pos:R:3:forces:R:3 id=22405 bond=C-C smiles="[H:30][c:15]1[c:12]([c:13]2[c:16]([c:19]3[c:18]1[n:6][c:11]([c:14]4[c:17]3[C:24]([C:26]([C:25]([C:23]4([H:33])[H:34])([H:37])[H:38])([H:39])[H:40])([H:35])[H:36])[C:9]5=[C:10]([N:20]([N:5]=[C:8]5[C:22]([F:1])([F:2])[F:3])[H:31])[H:28])[C:7](=[N:4][N:21]2[H:32])[H:27])[H:29]" dataset=PubChem energy=-34514.385425261244 pbc="F F F"
F        2.40326304      -3.80723707       3.73917358       0.19468123       1.74487266      -1.60337128
F        3.30404992      -3.20690863       1.76554566      -0.81577308       0.20462976       1.24303752
F        2.26915140      -1.66345494       2.94879310       0.04851433      -1.88509724       0.04457539
N        2.29557809       5.66821572      -0.58314860      -0.08238141      -1.26353163      -0.25551184
N        0.34818129      -4.59197943       1.92725389       0.09543344       0.19151797      -0.08380922
N        1.93485889      -0.24932638       0.12330680      -2.62875270      -2.46490148       1.24192991
C        1.35414973       4.74096438      -0.48222530      -0.99287892       0.05648220       0.04299464
C        0.93110851      -3.38172762       1.89718645      -1.94342591       0.48803562      -2.17571381
C        0.17678226      -2.55404274       0.91560139       1.72457192       2.70052806       0.52626020
C       -0.85685699      -3.33899490       0.45971105       0.99097009       0.03477886       0.53830017
C        0.66177046      -0.52887252       0.41474499       1.81767648      -1.10647102      -0.25958098
C        4.16582832       2.56403014      -0.40682245       0.43145184      -3.22086174       0.39235756
C        3.26413497       3.60084244      -0.52314711      -1.63515156       1.21876121      -0.03493103
C       -0.32024994       0.48800290       0.40206357      -0.73708611      -0.07835883       0.00904842
C        3.66634402       1.25848529      -0.18971742       2.63461209       2.04033170      -0.73003241
C        1.87370059       3.39540502      -0.43205208       1.10475178       1.07133538       0.20742087
C        0.03421453       1.81599328       0.04463928      -0.80235045      -1.38096465       0.28689302
C        2.30866668       1.01661527      -0.07435942      -0.93282240       0.34879718      -0.07500609
C        1.40073172       2.08817467      -0.15507192      -1.34999780       0.35765416      -0.23871935
N       -0.71429949      -4.58719198       1.06011968       0.95321088       2.33354414       0.11667406
N        3.44311032       4.95323464      -0.65042973       1.14485394      -0.74057544       0.22369073
C        2.25252230      -2.99179261       2.61581652      -0.86796955      -1.03423316      -0.33751629
C       -1.73913923       0.11357900       0.80838990       0.12793125       0.75369982      -0.53298489
C       -1.04410365       2.91227862      -0.09835989       0.97711175      -0.46061912      -0.21235513
C       -2.52128496       1.35817203       1.20153832       0.33279904       0.26790603      -0.62764152
C       -2.44060388       2.36319479       0.04149446      -1.30897802       0.75337236      -0.01285273
H        0.29013178       5.01289555      -0.46051628       0.99460233       0.15600456       0.03549226
H       -1.63214736      -3.04175942      -0.23499997       0.08662461      -0.49526344       0.17158347
H        5.23403296       2.69143113      -0.46548588       0.08814065       0.18625405      -0.03311969
H        4.32814941       0.38993609      -0.12398643      -0.16918755       0.52546215       0.02007668
H       -1.33938246      -5.37208025       0.91148983       0.65739443       0.13789969       0.49703251
H        4.37472782       5.35153910      -0.65650953      -0.70572984       0.44961078      -0.02745520
H       -2.25406637      -0.41032091      -0.01808006       0.22286501       0.17491638       0.37389802
H       -1.68353429      -0.53970876       1.65167939       0.08494331      -0.66381638       0.37116494
H       -0.87215092       3.65082261       0.69108417       0.08314269      -0.00391516      -0.20173327
H       -0.92874482       3.41138074      -1.09040892       0.03263043      -0.34491355       0.83156899
H       -2.07131018       1.81475052       2.10025465      -0.18784881      -0.17550816      -0.30861440
H       -3.54372706       1.09805107       1.43123066      -0.28226031       0.00259198       0.06600995
H       -2.73676791       1.92738697      -0.94236434      -0.01975403       0.02297473       0.88312361
H       -3.13712611       3.22816536       0.24810394       0.63120864      -0.90489945      -0.37324516
