40
Properties=species:S:1:pos:R:3:forces:R:3 id=22405 bond=C-C smiles="[H:30][c:15]1[c:12]([c:13]2[c:16]([c:19]3[c:18]1[n:6][c:11]([c:14]4[c:17]3[C:24]([C:26]([C:25]([C:23]4([H:33])[H:34])([H:37])[H:38])([H:39])[H:40])([H:35])[H:36])[C:9]5=[C:10]([N:20]([N:5]=[C:8]5[C:22]([F:1])([F:2])[F:3])[H:31])[H:28])[C:7](=[N:4][N:21]2[H:32])[H:27])[H:29]" dataset=PubChem energy=-34517.05494672829 pbc="F F F"
F        2.47887948      -3.49148473       3.66108307       0.17163520       1.74613573      -1.60242165
F        3.37966636      -2.89115629       1.68745515      -0.83894883       0.14971093       1.32618957
F        2.34476784      -1.34770260       2.87070259       0.05761505      -1.90648418       0.22155617
N        2.21996165       5.35246338      -0.50505809      -0.07919644      -1.24147804      -0.25626188
N        0.42379773      -4.27622709       1.84916338       0.13076971       0.14306674       0.02640305
N        1.85924245      -0.56507872       0.20139731      -1.08446956      -1.29931255       0.71985887
C        1.27853329       4.42521204      -0.40413479      -0.98525124       0.04846254       0.04192380
C        1.00672495      -3.06597528       1.81909594      -2.10904957      -0.07075362      -2.21658121
C        0.25239870      -2.23829040       0.83751088       1.06647777      -0.69053453       1.26484300
C       -0.78124055      -3.02324256       0.38162054       1.01912321      -0.56859211       0.79728695
C        0.58615402      -0.84462486       0.49283550       0.97402055       1.16728121      -0.72226813
C        4.09021188       2.24827780      -0.32873194       0.44533453      -3.22429526       0.39209169
C        3.18851853       3.28509010      -0.44505660      -1.64112473       1.21147434      -0.03552967
C       -0.39586638       0.17225056       0.48015408      -0.33987343       0.91953704      -0.29690917
C        3.59072758       0.94273295      -0.11162691       2.63308043       2.06692895      -0.73321313
C        1.79808415       3.07965268      -0.35396157       1.09298436       1.07671695       0.20511205
C       -0.04140191       1.50024094       0.12272979      -1.05332316      -1.39838951       0.32453909
C        2.23305024       0.70086293       0.00373109      -1.06701778       0.16497451      -0.04490389
C        1.32511528       1.77242233      -0.07698141      -1.31454892       0.40103079      -0.23960722
N       -0.63868305      -4.27143964       0.98202917       0.93738058       2.38660848       0.06244020
N        3.36749388       4.63748230      -0.57233922       1.14999585      -0.72722896       0.22055465
C        2.32813874      -2.67604027       2.53772601      -0.73125047      -1.01532232      -0.42456927
C       -1.81475567      -0.20217334       0.88648041       0.11271941       0.91168063      -0.51493342
C       -1.11972009       2.59652628      -0.02026938       1.02708204      -0.43395920      -0.22676900
C       -2.59690140       1.04241969       1.27962883       0.33255269       0.27725014      -0.64537963
C       -2.51622032       2.04744245       0.11958497      -1.29391036       0.75747555      -0.00567401
H        0.21451534       4.69714321      -0.38242577       0.99308877       0.15602510       0.03579069
H       -1.55653092      -2.72600708      -0.31309048       0.13300376      -0.54289846       0.17232653
H        5.15841652       2.37567879      -0.38739537       0.09091666       0.19114936      -0.03367101
H        4.25253297       0.07418375      -0.04589592      -0.17181895       0.51781126       0.02366233
H       -1.26376602      -5.05632791       0.83339932       0.66552351       0.14049368       0.49560724
H        4.29911138       5.03578676      -0.57841902      -0.70905890       0.44782779      -0.02606175
H       -2.32968281      -0.72607325       0.06001045       0.15119616       0.25315316       0.41863816
H       -1.75915073      -0.85546110       1.72976990       0.00452009      -0.62827034       0.38568090
H       -0.94776736       3.33507027       0.76917468       0.07365805       0.00774494      -0.20442494
H       -1.00436126       3.09562840      -1.01231841       0.02101324      -0.33140875       0.83322021
H       -2.14692662       1.49899818       2.17834516      -0.18300404      -0.18126703      -0.31340768
H       -3.61934350       0.78229873       1.50932117      -0.28738999       0.00164063       0.06856628
H       -2.81238435       1.61163463      -0.86427383      -0.02242719       0.02023804       0.87934096
H       -3.21274255       2.91241302       0.32619445       0.62559886      -0.90738676      -0.37267754
