26
Properties=species:S:1:pos:R:3:forces:R:3 id=43308 bond=C-N smiles="[H:18][c:5]1[c:6]([c:8]([c:10]([c:9]([c:7]1[H:20])[H:22])[N:12]2[C:2](=[S:1])[N:11]([C:13]([C:14]2([H:26])[C:4](=[C:3]([H:15])[H:16])[H:17])([H:24])[H:25])[H:23])[H:21])[H:19]" dataset=PubChem energy=-25428.467087327153 pbc="F F F"
S       -2.39256664       1.43259717      -0.75466184       0.08601631       0.51616158       0.32277040
C       -1.44618543       0.20926667      -0.15807937      -0.42705138       0.37335531      -0.98369701
C        2.01205722      -0.76786469      -1.40734092      -1.56662907      -1.88052047       2.53975753
C        1.55028108      -1.49937224      -0.29767815       1.75456317       3.48317601      -3.10882604
C        1.72784461       3.58538786       2.30740842       0.46421417       0.41012803       0.23516974
C        0.88892422       3.82189790       1.25025251      -0.49211124      -1.28652098      -0.61813391
C        2.05070091       2.29751638       2.69933256      -0.59624888      -0.85018354      -0.13067197
C        0.34680166       2.70558706       0.56998027      -0.10210998       0.94558113      -0.08535276
C        1.38056422       1.20987365       2.12840911       0.08409187      -0.71308137      -0.24044734
C        0.52926652       1.40825168       1.02034744      -0.45040694      -1.31986062      -0.17660543
N       -1.93492338      -1.07542466      -0.30772106       3.02443637       0.22572598       1.95246512
N       -0.15237918       0.23736725       0.34341558      -0.38142864      -0.00267908       0.66210768
C       -0.83699080      -2.03033506      -0.08403907      -0.93763708       0.24128930      -0.05588236
C        0.30381775      -1.18232487       0.48501252       0.29613943       0.58250347      -1.00666977
H        2.94661573      -0.99685942      -1.91948394      -0.29755377      -0.17900491       0.36387135
H        1.41445348       0.01937259      -1.85784630       0.06471815       0.00843396       0.31612492
H        2.21304229      -2.23896729       0.06023027       0.35976371      -0.89596836       0.48936184
H        2.14701332       4.43209067       2.81293734       0.33545564       0.17150529       0.24122867
H        0.66454129       4.83789102       0.93056952       0.01910539      -0.38450398      -0.01315436
H        2.79959751       2.10645691       3.45861634      -0.25431106       0.11222471       0.07984503
H       -0.24425357       2.90575972      -0.29882458      -0.26463847      -0.19308689      -0.18204354
H        1.54363246       0.19561187       2.54355629      -0.02440778       0.81149961      -0.47360864
H       -2.59966274      -1.24812793      -1.00475494      -0.87147871       0.08956210      -0.86887735
H       -1.10083469      -2.78706037       0.62944524      -0.32562698      -0.38830710       0.31419760
H       -0.55760774      -2.53059589      -0.99878506       0.15558961       0.02974709      -0.30025849
H        0.40753889      -1.45655512       1.51166447       0.34748341       0.08698807       0.72892704
