26
Properties=species:S:1:pos:R:3:forces:R:3 id=43308 bond=C-N smiles="[H:18][c:5]1[c:6]([c:8]([c:10]([c:9]([c:7]1[H:20])[H:22])[N:12]2[C:2](=[S:1])[N:11]([C:13]([C:14]2([H:26])[C:4](=[C:3]([H:15])[H:16])[H:17])([H:24])[H:25])[H:23])[H:21])[H:19]" dataset=PubChem energy=-25428.134164140036 pbc="F F F"
S       -2.41261504       1.39815940      -0.77457160       0.12131375       0.58692401       0.32104617
C       -1.46623383       0.17482890      -0.17798913      -0.28501637       0.43637329      -0.85357891
C        1.99200882      -0.80230246      -1.42725068      -1.56123596      -1.87525617       2.53501841
C        1.53023268      -1.53381001      -0.31758791       1.75255040       3.47740336      -3.10383746
C        1.74789301       3.61982563       2.32731818       0.45547999       0.39314410       0.22115022
C        0.90897262       3.85633567       1.27016227      -0.46265808      -1.27996117      -0.59451990
C        2.07074931       2.33195415       2.71924232      -0.60247507      -0.81262327      -0.14392746
C        0.36685006       2.74002483       0.58989003      -0.24109183       0.70669566      -0.19448444
C        1.40061262       1.24431142       2.14831887      -0.03700909      -0.91996145      -0.35168445
C        0.54931492       1.44268945       1.04025720      -0.84664384      -1.93710053      -0.52046832
N       -1.95497178      -1.10986243      -0.32763082       3.00362827       0.20468915       1.95167095
N       -0.17242758       0.20292948       0.32350582       0.09579596       0.87994573       1.08044285
C       -0.85703920      -2.06477283      -0.10394883      -0.94999375       0.24703245      -0.05730761
C        0.28376935      -1.21676264       0.46510276       0.35332805       0.66975747      -0.96117761
H        2.92656733      -1.03129719      -1.93939370      -0.29548063      -0.18134329       0.36323961
H        1.39440508      -0.01506518      -1.87775606       0.06276879       0.00577419       0.31935471
H        2.19299389      -2.27340506       0.04032051       0.36253331      -0.90033192       0.48599804
H        2.16706172       4.46652844       2.83284710       0.33227825       0.17036439       0.24082767
H        0.68458969       4.87232879       0.95047928       0.01373726      -0.39250283      -0.01913762
H        2.81964591       2.14089468       3.47852610      -0.26038577       0.10241282       0.07636607
H       -0.22420517       2.94019749      -0.27891482      -0.30303524      -0.19547024      -0.20107222
H        1.56368086       0.23004964       2.56346605      -0.03349130       0.79837690      -0.47414897
H       -2.61971114      -1.28256570      -1.02466470      -0.86810285       0.09140367      -0.87477125
H       -1.12088309      -2.82149814       0.60953548      -0.32569788      -0.38979905       0.31539838
H       -0.57765614      -2.56503366      -1.01869482       0.15916218       0.02966679      -0.30148197
H        0.38749049      -1.49099289       1.49175471       0.36115095       0.07968551       0.74338412
