50
Properties=species:S:1:pos:R:3:forces:R:3 id=32768 bond=C-N smiles="[H:26][c:3]1[c:2]([c:4]([c:8]2[c:10]([c:5]1[H:28])[N:14]([c:11]3[c:6]([c:12]([c:7]([c:13]([c:9]3[S:1]2)[C:17]([H:34])([H:35])[H:36])[H:30])[C:16]([H:31])([H:32])[H:33])[H:29])[C:20]([H:42])([H:43])[C:24]4([C:23]([C:22]([C:19]([N:15]([C:21]4([H:44])[H:45])[C:18]([H:37])([H:38])[H:39])([H:40])[H:41])([H:46])[H:47])([H:48])[H:49])[H:50])[H:27])[H:25]" dataset=PubChem energy=-36017.42309566164 pbc="F F F"
S       -2.54850071       0.37349301       2.58045585       0.00350053      -1.66927446       0.40475012
C       -1.97126311      -3.59456880       1.38598623       0.91659820       3.12107394      -0.34180876
C       -0.76952868      -3.54192073       0.66490624      -0.40855890       2.58102857       0.13743167
C       -2.48867601      -2.27784640       1.88179977      -0.39835937      -4.18811577       1.33833080
C       -0.23888415      -2.24051363       0.37376529      -0.21611663       0.54446415       0.50678285
C       -0.64344960       2.49637216      -0.10910015      -1.15466337       1.98837269      -1.69681189
C       -2.43992275       3.91303651       0.65820794      -0.51384922      -0.60258598      -0.84135777
C       -1.83935564      -1.06573255       1.75312193      -1.10869574      -0.40339475      -0.40782451
C       -2.19949334       1.51939814       1.36556847      -1.01822513       3.53802152      -0.92959007
C       -0.76365989      -0.97938950       0.86555085       0.62474673      -3.26929127       0.12520107
C       -1.05840891       1.38594704       0.57550624      -0.07121976       0.05602573       0.50169379
C       -1.33922225       3.75443881      -0.16344242       1.78015903      -0.85716458       0.65799418
C       -2.96111482       2.81310456       1.31386300       2.21997799      -2.30334888       1.44625959
N       -0.19286674       0.22617667       0.53142692       1.63452239       2.85885673       0.71174582
N        3.84318739      -1.83699972       0.17158188     -16.74642748      85.17657417     -29.01774936
C       -0.70385617       4.88383238      -0.96224062       0.59991813      -0.62764409       0.57256998
C       -4.13465780       3.05485098       2.20225759      -1.90266566       0.98821596      -1.72436687
C        4.01263307      -2.67688764       0.48745763      17.29855578     -85.36068270      27.25434388
C        5.04906184      -0.99954063      -0.20143489      -1.13698893       1.25081675      -2.96322376
C        1.18548304       0.58972236       1.15947672       0.64125898      -0.45610878      -1.18422108
C        3.02106315      -1.19583351       1.17687948      -3.33749259       2.02868701      -1.02529186
C        4.61192471       0.41062855      -0.77385036      -1.52771997      -2.82353454      -0.77196930
C        3.47375065       1.00469463       0.05716325      -0.70923796      -1.05272939      -1.77616899
C        2.42552084      -0.11157064       0.39142795      -1.40484948       4.26348361       1.36040210
H       -2.43659967      -4.56059749       1.48190977      -0.50281227       0.23497772       0.55102919
H       -0.21166235      -4.37734181       0.26091288      -0.37724247      -0.14722720       0.15342489
H       -3.32659953      -2.42924053       2.63280042       0.87104491       0.72743226      -1.27027459
H        0.66854121      -2.21523840      -0.23659424      -0.45425657       0.18168216       0.11093335
H        0.16199526       2.37050478      -0.80254416       0.55121019       0.02406658      -0.10357628
H       -3.02915042       4.82900088       0.72613648       0.43513321      -0.06369393      -0.18912455
H        0.20162994       5.30344383      -0.46453576      -0.40744620      -0.68332641      -0.48372517
H       -1.32780033       5.72731249      -1.09140997      -1.04531449       0.73430152       0.03352135
H       -0.49982041       4.52002614      -1.96317403       0.48467465       0.03089944      -0.06056165
H       -4.49084895       2.13414161       2.66701539      -0.30572025       0.39669965      -0.09486324
H       -4.91372769       3.54898350       1.47303320       0.82911779      -1.39321202       1.48046082
H       -4.02882903       3.86713927       2.92533620       0.52576112      -0.42483279       0.19109464
H        4.77549265      -2.68891943       1.29239902       1.14339604      -1.94660295       2.54355942
H        3.08726380      -3.27671421       0.74665093       0.84764682      -1.06107696       0.46861640
H        4.47377966      -3.26885927      -0.30632106       1.15716183      -2.38491877      -0.36763282
H        5.63930040      -1.59126968      -0.99933199      -1.08981325       0.76127253       1.35860818
H        5.69222027      -0.83237726       0.63553419       0.27309545      -0.48072010       1.13201727
H        1.20219928       0.34120402       2.21682329      -0.20611820      -0.54629471       0.12796510
H        1.38595564       1.69145112       1.19032426      -0.83616062      -0.99798506      -0.61183621
H        3.57490808      -0.96441777       2.07164963       0.32309057       0.18345676       0.39877711
H        2.07791132      -1.80005915       1.42044623       2.04376409      -0.05854661      -0.07816797
H        4.18143541       0.19141024      -1.79046671       0.72134999       0.41004990       0.76759091
H        5.46897799       1.02399002      -0.84138863       0.77954523       0.78549387      -0.20669251
H        2.89361078       1.67121129      -0.59175865       0.49905023       0.44950125       0.32466349
H        3.94321639       1.53156035       0.85623600      -0.41035440       0.31315607       1.10729058
H        2.04754299      -0.51141448      -0.55624215       0.08651530       0.17175720       0.37595236
