50
Properties=species:S:1:pos:R:3:forces:R:3 id=32768 bond=C-N smiles="[H:26][c:3]1[c:2]([c:4]([c:8]2[c:10]([c:5]1[H:28])[N:14]([c:11]3[c:6]([c:12]([c:7]([c:13]([c:9]3[S:1]2)[C:17]([H:34])([H:35])[H:36])[H:30])[C:16]([H:31])([H:32])[H:33])[H:29])[C:20]([H:42])([H:43])[C:24]4([C:23]([C:22]([C:19]([N:15]([C:21]4([H:44])[H:45])[C:18]([H:37])([H:38])[H:39])([H:40])[H:41])([H:46])[H:47])([H:48])[H:49])[H:50])[H:27])[H:25]" dataset=PubChem energy=-36032.27120239974 pbc="F F F"
S       -2.58362969       0.54761611       2.51496941       0.00381528      -1.67065212       0.40573661
C       -2.00639209      -3.42044570       1.32049979       0.90995661       3.11207080      -0.33039266
C       -0.80465766      -3.36779763       0.59941980      -0.41202781       2.60318734       0.14355829
C       -2.52380499      -2.10372330       1.81631333      -0.40340864      -4.19261208       1.33634106
C       -0.27401313      -2.06639053       0.30827885      -0.20192541       0.53474462       0.48699409
C       -0.67857858       2.67049526      -0.17458659      -1.15643514       1.99272483      -1.70191958
C       -2.47505173       4.08715961       0.59272150      -0.51532588      -0.60100172      -0.83987753
C       -1.87448462      -0.89160945       1.68763549      -1.10617036      -0.40599507      -0.40948284
C       -2.23462232       1.69352124       1.30008203      -1.02313619       3.54723482      -0.93211485
C       -0.79878887      -0.80526640       0.80006441       0.62444046      -3.24503949       0.11913526
C       -1.09353789       1.56007014       0.51001980      -0.06011964       0.03056179       0.50640404
C       -1.37435123       3.92856191      -0.22892886       1.77978601      -0.86149135       0.65839826
C       -2.99624380       2.98722766       1.24837656       2.22106540      -2.30648912       1.44510738
N       -0.22799572       0.40029977       0.46594048       1.59912521       2.84989762       0.71332961
N        3.80805841      -1.66287662       0.10609544      -0.78036425       6.11093645      -1.54420381
C       -0.73898515       5.05795548      -1.02772706       0.59973542      -0.62749340       0.57322083
C       -4.16978678       3.22897408       2.13677115      -1.90297790       0.99008100      -1.72377462
C        4.04776205      -2.85101074       0.55294407       2.31893204      -7.77834497       1.02884196
C        5.01393286      -0.82541753      -0.26692133      -1.11534780      -0.61574612      -1.87381754
C        1.15035406       0.76384546       1.09399028       0.71202025      -0.43214579      -1.17753171
C        2.98593417      -1.02171041       1.11139304      -2.13460859      -0.60152690      -1.36425521
C        4.57679573       0.58475165      -0.83933680      -1.61755255      -2.90453519      -0.73978401
C        3.43862167       1.17881773      -0.00832319      -0.71881062      -1.05417317      -1.77325810
C        2.39039186       0.06255246       0.32594151      -1.40213714       4.13160596       1.36637826
H       -2.47172865      -4.38647439       1.41642333      -0.50597801       0.23390311       0.55152128
H       -0.24679133      -4.20321871       0.19542644      -0.38252341      -0.15167419       0.14496755
H       -3.36172851      -2.25511743       2.56731398       0.87010323       0.72634287      -1.26977542
H        0.63341223      -2.04111530      -0.30208068      -0.44041871       0.19152220       0.11961811
H        0.12686628       2.54462788      -0.86803060       0.55187794       0.02273716      -0.09901917
H       -3.06427940       5.00312398       0.66065004       0.43397195      -0.06266965      -0.18906767
H        0.16650096       5.47756693      -0.53002220      -0.40674996      -0.68404115      -0.48419455
H       -1.36292931       5.90143559      -1.15689641      -1.04656779       0.73548271       0.03342071
H       -0.53494939       4.69414924      -2.02866047       0.48556159       0.03050214      -0.06022599
H       -4.52597793       2.30826471       2.60152895      -0.30553153       0.39612381      -0.09474117
H       -4.94885667       3.72310660       1.40754676       0.82779908      -1.39239849       1.48008574
H       -4.06395801       4.04126237       2.85984976       0.52533261      -0.42445709       0.19223302
H        4.81062163      -2.86304253       1.35788546      -0.36764019      -0.40862985       0.53661642
H        3.12239278      -3.45083731       0.81213737       1.03872734       0.85410958       0.07729301
H        4.50890864      -3.44298237      -0.24083462       0.25885657      -0.42534914      -0.05968187
H        5.60417142      -1.41714658      -1.06481843      -0.95211907       0.94052444       1.31012294
H        5.65709129      -0.65825416       0.57004775       0.52246399      -0.15515068       0.94468736
H        1.16707030       0.51532712       2.15133685      -0.20743523      -0.54779505       0.12251629
H        1.35082666       1.86557422       1.12483782      -0.84934962      -0.98637713      -0.61182251
H        3.53977910      -0.79029467       2.00616319       0.10478753       0.42314092       0.54330494
H        2.04278234      -1.62593605       1.35495979       1.91349626       0.02176913       0.03535430
H        4.14630643       0.36553334      -1.85595315       0.70266890       0.38474993       0.77496081
H        5.43384901       1.19811312      -0.90687507       0.79143317       0.75877457      -0.19719393
H        2.85848180       1.84533439      -0.65724509       0.49209267       0.45856717       0.32331338
H        3.90808741       1.70568345       0.79074956      -0.40696591       0.31854508       1.10752197
H        2.01241401      -0.33729138      -0.62172859       0.13502999       0.13493930       0.39296403
