26
Properties=species:S:1:pos:R:3:forces:R:3 id=12892 bond=C-C smiles="[H:19][C:9](=[C:10]1[C:16]2([C:15]([C:17]([C:18]1([C:11]([H:21])([H:22])[H:23])[C:12]([H:24])([H:25])[H:26])([C:14]([C:13]2([Cl:1])[Cl:2])([Cl:3])[Cl:4])[Cl:8])([Cl:5])[Cl:6])[Cl:7])[H:20]" dataset=PubChem energy=-110666.62530488374 pbc="F F F"
Cl       0.11375046      -2.30912726      -0.86985800       0.85466785       0.87302640      -0.47206128
Cl       1.80000326      -0.74293654      -2.74193904      -0.61232322      -0.86184621       0.75435134
Cl      -1.95003655      -0.25354730      -1.56721375       0.29801516       0.50264046       0.67186747
Cl      -0.20753932       1.41318257      -2.88905904      -0.02246684      -0.03107693       0.16737818
Cl       2.46043202       2.09490283      -1.59399292      -0.46502988      -0.11628858       0.99563747
Cl       2.40867659       2.17822320       1.24297436      -0.51946736      -0.35569172      -0.56625110
Cl       3.29346439      -0.83682554      -0.02265468      -0.65902408       0.28990567       0.26820536
Cl      -0.85154226       2.97926576      -0.27743403       0.61181976      -1.23384799       0.35711256
C        1.04948202      -1.25198977       2.22069254       0.07510947       2.13383761      -2.80532529
C        0.82997271      -0.32776516       1.22711148       5.25089441      -2.30003408       2.83042613
C       -1.01524799       0.24044663       1.28051748    -153.60105630     -88.26278875      10.65952812
C       -0.38060847       1.59189375       2.42569592       2.45798188       5.12768654       1.61483473
C        0.80147573      -0.65915822      -1.22650859       0.57386796      -0.57203520      -1.05459490
C       -0.28153866       0.46502316      -1.36020229      -1.41042579       0.16898843      -1.12135974
C        1.57090065       1.39385278      -0.16159293       1.02288436       1.04191957      -0.43428455
C        1.65395400      -0.12898080      -0.04609058       0.55234410      -0.91324677       0.76733186
C        0.01150283       1.39244480      -0.14112267       1.36682781       2.05282900      -1.66982036
C       -0.31820169       0.64105470       1.22243705     150.50622549      86.18310072     -11.00719252
H        0.36322588      -1.28056817       3.01908305      -0.64991037       0.01747887       0.93497867
H        1.86834452      -1.95604675       2.27161386      -0.08981090       0.11167727      -0.46797402
H       -1.23549502       0.03243086       2.32291522      -2.08474487      -2.25161617       0.09357129
H       -1.08973126      -0.74193099       0.78920432      -1.76117962      -0.37025692      -0.49081274
H       -1.81015508       0.87433782       0.88249351      -2.48094667      -0.63012620       0.78977300
H        0.17677260       2.51242430       2.28596666       0.22061309       0.19674843       0.54584100
H       -0.01968172       1.08464123       3.33320167       0.03673608      -0.10704696      -0.70948248
H       -1.41636625       1.94365044       2.62671091       0.52853589      -0.69693740      -0.63982107
