26
Properties=species:S:1:pos:R:3:forces:R:3 id=12892 bond=C-C smiles="[H:19][C:9](=[C:10]1[C:16]2([C:15]([C:17]([C:18]1([C:11]([H:21])([H:22])[H:23])[C:12]([H:24])([H:25])[H:26])([C:14]([C:13]2([Cl:1])[Cl:2])([Cl:3])[Cl:4])[Cl:8])([Cl:5])[Cl:6])[Cl:7])[H:20]" dataset=PubChem energy=-110698.58420488397 pbc="F F F"
Cl       0.71121872      -1.96574893      -0.91964122       0.81699866       0.98200819      -0.38004469
Cl       2.39747152      -0.39955821      -2.79172226      -0.59466933      -0.86180272       0.73763760
Cl      -1.35256829       0.08983103      -1.61699697       0.62410326       0.61541058       0.54203795
Cl       0.38992894       1.75656090      -2.93884226       0.02662357      -0.01467868       0.14999998
Cl       3.05790028       2.43828116      -1.64377614      -0.60532552      -0.12442375       1.05125282
Cl       3.00614485       2.52160153       1.19319114      -0.45838367      -0.32505491      -0.58460918
Cl       3.89093265      -0.49344721      -0.07243790      -0.72650992       0.34804116       0.30714103
Cl      -0.25407400       3.32264409      -0.32721725       0.73272441      -0.93432201       0.18308009
C        1.64695028      -0.90861144       2.17090932       0.27241652       1.89012873      -2.54591875
C        1.42744097       0.01561317       1.17732826       0.41591554      -2.55008244       2.34537022
C       -1.61271625      -0.10293170       1.33030070       1.15381766       0.65475683      -0.38070445
C        0.21685979       1.93527208       2.37591270      -1.24969007      -0.01450754       0.51538074
C        1.39894399      -0.31577989      -1.27629181       0.51149854      -0.60745751      -1.01774931
C        0.31592960       0.80840149      -1.40998551      -1.57032020       0.03954330      -1.34493690
C        2.16836891       1.73723111      -0.21137615       1.29345029       0.94965331      -0.21239415
C        2.25142226       0.21439753      -0.09587380       0.64760403      -1.01383178       0.67744709
C        0.60897109       1.73582313      -0.19090589      -1.82308012       0.63938127       0.22373137
C        0.27926657       0.98443303       1.17265383      -1.61402097      -0.76551345      -0.15308822
H        0.96069414      -0.93718984       2.96929983      -0.72773854      -0.00930264       0.78103621
H        2.46581278      -1.61266842       2.22183064       0.04477493       0.22773949      -0.36572935
H       -1.83296328      -0.31094747       2.37269844       0.75712453       0.58186585       0.40802559
H       -1.68719952      -1.08530932       0.83898754       0.86923163       0.66628787      -0.18192726
H       -2.40762334       0.53095949       0.93227673       0.57480343       0.22349242       0.01394333
H        0.77424086       2.85580263       2.23618344       0.15762855      -0.27553114      -0.07148653
H        0.57778654       1.42801956       3.28341845      -0.10979059       0.16422396      -0.44145996
H       -0.81889799       2.28702877       2.57692769       0.57507935      -0.48753165      -0.24974981
