32
Properties=species:S:1:pos:R:3:forces:R:3 id=9174 bond=C-O smiles="[H:32][C@@:12]1([C:9]([C:8]([C@@:11]([S:2]1)([C:6]([H:22])([H:23])[H:24])[C:7]([H:25])([H:26])[C:5]([H:20])([H:21])[O:1][H:13])([H:27])[H:28])([H:29])[H:30])[C:10]([H:31])([C:3]([H:14])([H:15])[H:16])[C:4]([H:17])([H:18])[H:19]" dataset=PubChem energy=-23583.669289133413 pbc="F F F"
O       -1.21912377      -1.31172178       1.60393150     -33.67803403      26.57086585      -0.11571487
S       -0.37109771       0.62640907      -0.60310784      -0.84755389       0.50203514      -0.09850555
C        0.47042780       3.45928576       2.30285737       0.14644030       0.56122646      -0.54771754
C       -1.14184799       3.64433553       0.31773176      -1.02913753      -0.05170570       0.78543913
C       -0.39903959      -1.93852470       1.57067999      29.86207617     -23.89801550      -1.38672703
C        1.16769257      -1.14601216      -1.91445211      -0.03619507      -0.40909127      -0.60655216
C        0.12862719      -2.03609273       0.09221047       0.41810638      -0.46087345       0.76349326
C        2.02438065      -0.23169217       0.23880622       0.23137255       0.72993260       0.78835955
C        1.58050403       0.94316887       1.15013715      -0.23755811      -0.52195741       0.39787573
C       -0.29627249       2.70614674       1.19506302      -1.06543964      -0.14140880       1.57881978
C        0.77382526      -0.76633189      -0.48392823       0.97874884      -0.77244319      -0.94571964
C        0.59084314       1.81898787       0.37446443       1.00225480      -0.66542679      -0.39877017
H       -1.03933876      -0.58359299       0.94970257      -1.72524698       0.76687482       0.90607337
H        1.33632723       3.97169664       1.87033865      -0.23076858       0.34979879       0.04179285
H       -0.19697669       4.18565276       2.81229898       0.52865708      -0.45265113      -0.34804866
H        0.90820071       2.79285958       3.03758737      -0.25612583      -0.21452364       0.13022462
H       -0.47177997       4.20745399      -0.31441506      -0.02772874       0.11859085      -0.48561010
H       -1.72027674       4.38397791       0.91936597       0.59370070      -0.53284670      -0.18811160
H       -1.93394080       3.10669877      -0.25210920       0.91792974       0.24774836       0.08341400
H        0.34547145      -1.54995439       2.26189479       2.92186125      -0.73750419       0.64036510
H       -0.66692391      -2.93742130       1.95462701       0.85887599      -1.14047609      -0.03669722
H        0.25976272      -1.44473050      -2.48153832       0.72056906      -0.01897110       0.28100118
H        1.90374121      -1.97592638      -1.88096264      -0.54865064       0.34700568      -0.13168213
H        1.63020870      -0.31521437      -2.45495751      -0.11466085      -0.01466474       0.18554687
H        0.83101717      -2.82248208       0.07541242       1.08149474      -0.87685627      -0.45916295
H       -0.72566643      -2.33630488      -0.53861609       0.23554522       0.18294658       0.27797268
H        2.73720154       0.20253649      -0.49112633      -0.37014296      -0.56528347       0.24137210
H        2.52653179      -1.03085718       0.83148602      -0.33803557       0.60134852      -0.53257047
H        1.06662509       0.50295296       2.02443418       0.27045621       0.39231310      -0.19067017
H        2.40969953       1.58337965       1.47994313      -0.13187224      -0.46434511       0.06117106
H       -0.94820562       2.01994374       1.78238651       0.01557869       0.36392876      -0.61476611
H        1.18786630       2.40386250      -0.32678011      -0.14617476       0.20640243      -0.07282433
