32
Properties=species:S:1:pos:R:3:forces:R:3 id=9174 bond=C-O smiles="[H:32][C@@:12]1([C:9]([C:8]([C@@:11]([S:2]1)([C:6]([H:22])([H:23])[H:24])[C:7]([H:25])([H:26])[C:5]([H:20])([H:21])[O:1][H:13])([H:27])[H:28])([H:29])[H:30])[C:10]([H:31])([C:3]([H:14])([H:15])[H:16])[C:4]([H:17])([H:18])[H:19]" dataset=PubChem energy=-23587.9853899989 pbc="F F F"
O       -1.54374042      -1.06361229       1.61709356       3.06694816      -2.25907866      -0.08815032
S       -0.04648106       0.37829958      -0.61626990      -0.55039676       0.57417237      -0.43315963
C        0.79504445       3.21117627       2.28969531       0.14038915       0.56291195      -0.55572177
C       -0.81723134       3.39622604       0.30456970      -1.00891308      -0.05106173       0.77950231
C       -0.07442294      -2.18663419       1.55751793      -1.71644273       1.73245823      -1.35245186
C        1.49230922      -1.39412165      -1.92761417      -0.03485528      -0.44482994      -0.57898021
C        0.45324384      -2.28420222       0.07904841      -2.06570591       1.50690752       1.76836151
C        2.34899730      -0.47980166       0.22564416       0.17270813       0.75010035       0.77025181
C        1.90512068       0.69505938       1.13697509      -0.23823880      -0.52455559       0.46101490
C        0.02834416       2.45803725       1.18190096      -1.08711156      -0.16824615       1.61113631
C        1.09844191      -1.01444138      -0.49709029       0.70388682      -0.49051562      -0.88530969
C        0.91545979       1.57087838       0.36130237       0.98976921      -0.70990936      -0.44771007
H       -1.36395541      -0.33548350       0.96286463       0.34760031      -1.32330916       0.70856284
H        1.66094388       3.72358715       1.85717659      -0.22425669       0.35638670       0.03978321
H        0.12763996       3.93754327       2.79913692       0.52965471      -0.45488074      -0.34464770
H        1.23281736       2.54475009       3.02442531      -0.26102840      -0.21650950       0.13518541
H       -0.14716332       3.95934450      -0.32757712      -0.02768020       0.12271056      -0.49244408
H       -1.39566009       4.13586842       0.90620391       0.59177420      -0.53583166      -0.18616418
H       -1.60932415       2.85858928      -0.26527126       0.91638197       0.24602970       0.08361898
H        0.67008810      -1.79806388       2.24873273      -0.32913274       0.52373473      -0.10113100
H       -0.34230726      -3.18553079       1.94146495      -0.77419170       0.80875810      -0.29470544
H        0.58437937      -1.69283999      -2.49470038       0.71749676      -0.00794439       0.27154752
H        2.22835786      -2.22403587      -1.89412470      -0.50974362       0.31413607      -0.15911370
H        1.95482535      -0.56332386      -2.46811957      -0.12504174      -0.07010483       0.21708974
H        1.15563382      -3.07059157       0.06225036       0.96309729      -0.97839111      -0.05472822
H       -0.40104978      -2.58441437      -0.55177815       0.40395840       0.16392330       0.23566195
H        3.06181819      -0.04557300      -0.50428839      -0.36217537      -0.59761884       0.25624481
H        2.85114844      -1.27896667       0.81832396      -0.26627783       0.57408313      -0.52264969
H        1.39124174       0.25484347       2.01127212       0.24220184       0.46454970      -0.23199157
H        2.73431618       1.33527016       1.46678107      -0.11774950      -0.46763981       0.05236227
H       -0.62358897       1.77183425       1.76922445       0.03553301       0.37290724      -0.61090950
H        1.51248295       2.15575301      -0.33994217      -0.12042961       0.22420872      -0.04888192
