39
Properties=species:S:1:pos:R:3:forces:R:3 id=10017 bond=C-N smiles="[H:26][C:15]1([c:10]2[c:8]3[c:7]([c:9]([c:5]([c:6]2[Br:2])[Br:1])[C:14]([H:23])([H:24])[H:25])[N:3]=[C:4]([N:13]3[C:20]([C:21]1([H:38])[H:39])([H:36])[H:37])[N:12]4[C:18]([C:16]([N:11]([C:17]([C:19]4([H:34])[H:35])([H:30])[H:31])[H:22])([H:28])[H:29])([H:32])[H:33])[H:27]" dataset=PubChem energy=-161908.55434702666 pbc="F F F"
Br      -1.27528907       5.62845806      -2.90608527       0.20686060       0.00921886      -0.25511102
Br      -3.56366921       5.12329010      -0.69536223      -0.02355270      -0.45678062       0.60627585
N        1.36112581       1.51808731      -0.51056316      -1.44319470      -3.09312248       2.58713076
C        0.93160956       0.73925190       0.53110544       0.56529395       0.93436661      -1.14627791
C       -1.03341104       4.29768805      -1.60887136       1.80222229      -3.14375909       0.46079428
C       -1.98544742       4.02360896      -0.61456772       0.07928575       0.64870279       0.84900654
C        0.31381602       2.39150552      -0.68000045      -1.74340159       2.00319472       0.16811019
C       -0.63900710       2.25591926       0.36017794      -1.40395627       2.87634628      -2.25459503
C        0.08310196       3.37502865      -1.68618455      -0.14863073       0.73512452       0.13832265
C       -1.79331399       3.11824326       0.44419273      -0.31099881      -0.70227821      -0.67334353
N        2.81113750      -3.74595261       0.37557489       0.08779348       0.99523433       0.34520647
N        2.38511973      -1.33410001       1.68855185       1.14035369       2.72471218       2.52980879
N       -0.28922458       1.20996281       1.10959313       0.92021255      -1.23820092       0.91066235
C        1.02405475       3.36162714      -2.85233404       1.19613721      -0.85631660       0.40257763
C       -2.80452992       2.87295179       1.58806012       1.54401338      -2.92850750      -1.55357875
C        3.37790685      -2.41284227      -0.09889501       0.00830930      -0.71266652      -1.33586912
C        1.50821733      -3.64218616       1.12341547       1.85256601       0.86375554       0.63397729
C        3.71050125      -1.45915222       1.06741587      -4.83514004      -1.23993839      -2.18352625
C        1.80269247      -2.55642223       2.24107939      -2.37459001       1.33580158      -3.51129627
C       -1.13339735       0.97265148       2.31741402       0.56517242      -0.00730171       1.11991577
C       -1.85545446       2.31457893       2.74824570      -2.23127303      -1.11730571      -1.00085531
H        2.78857833      -4.47598887      -0.33206528       0.06147198       0.59606752       0.09441797
H        1.19940828       4.36320739      -3.20320179      -0.18730463       0.14814670      -0.62960573
H        0.62355404       2.65309755      -3.60637309       0.24667148       0.78306832       0.08418858
H        2.03981005       2.95907573      -2.56597378      -1.21473176       0.29685349      -0.08752158
H       -3.36589504       3.75539832       1.79546640      -0.22605101       0.43670266       0.46361993
H       -3.55182029       2.01397018       1.21425209       1.49537400       1.86670702       1.05104672
H        2.69145685      -1.99852872      -0.85730176       0.00649018       0.52259931       0.76836667
H        4.31935554      -2.39632606      -0.65054601       0.10947693      -1.48647889      -0.12446001
H        0.59676864      -3.40182376       0.54284975       0.59681457       0.14519472       0.13675912
H        1.35834861      -4.56069136       1.67647917      -0.13036838      -0.39375929      -0.27663584
H        4.29274922      -1.99104166       1.71407980       1.56302615      -1.63364545       1.98932665
H        4.25774246      -0.59761608       0.75596531      -0.50181786       1.03241170      -0.09464696
H        2.43548542      -2.91160321       2.98890144       1.51929396      -0.73568247       0.98455124
H        0.88230789      -2.22725892       2.73525602       0.04090395      -0.27329152      -0.16314816
H       -0.48029323       0.71052213       3.19148037      -0.44785569      -0.01000497      -1.01852716
H       -1.87091638       0.13677566       2.17837928       0.73288860       0.89970024      -0.14866732
H       -2.57533194       2.02899544       3.54880545       1.04403982       0.32459040      -0.04534399
H       -1.13038303       3.07654624       3.02890680      -0.15929712      -0.15814715       0.18264936
