39
Properties=species:S:1:pos:R:3:forces:R:3 id=10017 bond=C-N smiles="[H:26][C:15]1([c:10]2[c:8]3[c:7]([c:9]([c:5]([c:6]2[Br:2])[Br:1])[C:14]([H:23])([H:24])[H:25])[N:3]=[C:4]([N:13]3[C:20]([C:21]1([H:38])[H:39])([H:36])[H:37])[N:12]4[C:18]([C:16]([N:11]([C:17]([C:19]4([H:34])[H:35])([H:30])[H:31])[H:22])([H:28])[H:29])([H:32])[H:33])[H:27]" dataset=PubChem energy=-161909.18027648362 pbc="F F F"
Br      -1.20552058       5.52893717      -2.85052785       0.21126227      -0.00431553      -0.24223137
Br      -3.49390072       5.02376921      -0.63980481      -0.00565902      -0.47176728       0.60711982
N        1.43089430       1.41856642      -0.45500574      -1.33215851      -3.24612387       2.62880307
C        1.00137805       0.63973101       0.58666286       0.75637870       0.48518469      -0.96557882
C       -0.96364255       4.19816716      -1.55331394       1.83210883      -3.14763261       0.43911793
C       -1.91567893       3.92408807      -0.55901030       0.06355108       0.63749353       0.87794380
C        0.38358451       2.29198463      -0.62444303      -1.73531823       1.94203041       0.25462558
C       -0.56923861       2.15639837       0.41573536      -1.31732024       2.82123024      -2.28307233
C        0.15287045       3.27550776      -1.63062713      -0.13940443       0.75601842       0.10792999
C       -1.72354550       3.01872237       0.49975015      -0.33635462      -0.69297304      -0.66423116
N        2.74136901      -3.64643172       0.32001747       0.09903799       0.92657537       0.32721820
N        2.31535124      -1.23457912       1.63299443       0.86376883       3.48436755       2.81877904
N       -0.21945609       1.11044192       1.16515055       1.04979941      -1.41982093       0.96755854
C        1.09382324       3.26210625      -2.79677662       1.19802703      -0.85781292       0.40394603
C       -2.73476143       2.77343090       1.64361754       1.53967344      -2.93349388      -1.55152317
C        3.30813836      -2.31332138      -0.15445243       0.32670401      -0.51578575      -1.24677728
C        1.43844884      -3.54266527       1.06785805       1.83024003       0.94449693       0.81354939
C        3.64073276      -1.35963133       1.01185845      -4.92958619      -1.23811105      -2.89981190
C        1.73292398      -2.45690134       2.18552197      -2.78958360       1.25979339      -3.78897509
C       -1.06362886       0.87313059       2.37297144       0.53222057      -0.02887651       1.18966094
C       -1.78568597       2.21505804       2.80380312      -2.22639135      -1.10706295      -1.00748826
H        2.71880984      -4.37646798      -0.38762270       0.04990624       0.61446299       0.09184896
H        1.26917677       4.26368650      -3.14764437      -0.18764348       0.14560430      -0.62658133
H        0.69332253       2.55357666      -3.55081567       0.24554622       0.78413981       0.08720075
H        2.10957854       2.85955484      -2.51041636      -1.21404044       0.29900579      -0.09139318
H       -3.29612655       3.65587743       1.85102382      -0.22367676       0.43609639       0.46224584
H       -3.48205180       1.91444929       1.26980951       1.49748768       1.86947696       1.04958491
H        2.62168836      -1.89900783      -0.91285918      -0.00289166       0.52486572       0.75355658
H        4.24958705      -2.29680517      -0.70610343       0.12563558      -1.56477781      -0.19206360
H        0.52700015      -3.30230287       0.48729233       0.57860276       0.12368484       0.10324442
H        1.28858012      -4.46117047       1.62092175      -0.13504108      -0.42911903      -0.28655782
H        4.22298073      -1.89152077       1.65852238       1.48902899      -1.52197719       2.09908302
H        4.18797397      -0.49809519       0.70040789      -0.42597220       0.99318069      -0.07787595
H        2.36571693      -2.81208232       2.93334402       1.49760960      -0.60929486       0.99316885
H        0.81253940      -2.12773803       2.67969860       0.02912139      -0.32276196      -0.09702134
H       -0.41052474       0.61100124       3.24703779      -0.44452788      -0.00801231      -1.02921213
H       -1.80114789       0.03725477       2.23393670       0.74233666       0.90126889      -0.15679906
H       -2.50556345       1.92947455       3.60436287       1.04974391       0.32101438      -0.05042431
H       -1.06061454       2.97702535       3.08446422      -0.15968841      -0.15942829       0.18546966
