45
Properties=species:S:1:pos:R:3:forces:R:3 id=11451 bond=C-O smiles="[H:32][c:12]1[c:10]([c:16]2[c:18]([c:13]([c:19]1[C@@:24]3([C@@:26]4([C@@:27]([C@@:25]([O:7][C:22]4([H:38])[H:39])([H:43])[O:6][c:14]5[c:8]([c:9]([c:15]6[c:17]([c:11]5[H:31])[O:3][C:20]([O:1]6)([H:34])[H:35])[H:29])[H:28])([C:23]([O:5]3)([H:40])[H:41])[H:45])[H:44])[H:42])[H:33])[O:4][C:21]([O:2]2)([H:36])[H:37])[H:30]" dataset=PubChem energy=-35383.77390812375 pbc="F F F"
O       -6.71567618      -1.65378566       1.52104376      -0.91650228       0.08885881      -0.51282975
O        7.56528798       2.54350280       0.71628123      -0.28381835      -1.18257119       0.37007529
O       -5.85758769      -0.88826031      -0.48966898       0.13841051      -0.08706387      -0.21138815
O        6.73883620       0.34039366       0.94315624       1.87107933       0.18771310       0.52036598
O        1.97707311       0.23504874      -1.33459002      -0.32449472       0.72644178      -0.05191119
O       -1.27339041      -0.62296362       1.51623295      -1.54861412      -2.09145214       2.26990578
O       -0.98438724       1.58829212       1.05595392      -0.10291947       0.05138856       0.06378736
C       -3.21391045      -1.30853290       2.68526075      -0.30659035      -0.01002591      -0.50783590
C       -4.60584389      -1.55728764       2.76136683       0.83092739       0.26155123      -0.15276931
C        5.40784351       3.43923687      -0.15367084       0.45179768      -1.08228986      -0.28444816
C       -3.49258696      -0.64446683       0.37403265      -0.53189170       0.05838898       0.29487484
C        4.14148990       3.06887149      -0.60805505      -0.16617577      -0.75806815       0.44954649
C        4.48104373       0.75607687       0.07644487       0.55277122       0.85589823       0.04639267
C       -2.63979661      -0.82651372       1.51390074      -1.93943713      -0.09717333      -0.71413765
C       -5.40177380      -1.33732338       1.65603207       0.73896125      -0.27287597       0.77863739
C        6.24791519       2.43573832       0.33842316      -0.99440578       1.34212334      -0.51930514
C       -4.88454186      -0.88723738       0.46669821       2.17396033      -0.20986358       0.59530247
C        5.77142564       1.15127974       0.45648703      -1.02481867      -0.24252000      -0.52103632
C        3.64045755       1.75613403      -0.47739679       0.99991592       0.29452125       0.86223505
C       -7.05596482      -1.34594626       0.16119133       0.03025494       0.52873879       0.03456282
C        7.91987077       1.19911015       1.15527433      -0.87806414       0.40079316      -0.04139980
C        0.03454397       2.36720227       0.43379301      -0.36434669      -0.94700901       0.04510328
C        1.36914138      -0.67139698      -0.44091040       0.40298930       0.08243309       0.47270957
C        2.17990891       1.49731945      -0.71204764       0.23816842       0.89643566      -0.11944308
C       -0.71672686       0.22852444       0.68704590       0.33768249       2.43634892      -2.30133228
C        1.32487021       1.55421113       0.58533060      -0.17362543      -0.30523139      -0.18484796
C        0.79065857       0.13341575       0.73490914       0.63491217      -1.37381705       0.20882164
H       -2.54158747      -1.55911679       3.49344991      -0.23305362       0.18678581       0.18935638
H       -5.01317584      -1.91110439       3.68751334      -0.21876289      -0.20587260       0.13209013
H        5.72146360       4.44537544      -0.31623769       0.38487135       0.41000611       0.14398003
H       -3.10190999      -0.32628436      -0.56965174       0.16048048       0.15361315      -0.26625535
H        3.53320542       3.85219859      -1.03648394      -0.20758755      -0.11785035      -0.00730125
H        4.18470327      -0.28019583       0.23023856      -0.06391123       0.37353862      -0.16667353
H       -7.47737729      -2.21478338      -0.34244634       0.34449066      -0.19663117       0.05902475
H       -7.78004109      -0.53003723       0.08863945       0.02995866      -0.02747740       0.39397697
H        8.22165671       1.20329248       2.19915420      -0.53948719       0.08560007       0.26666709
H        8.78567067       0.87730288       0.60596419      -0.00448712      -0.41269125      -0.72076656
H       -0.21221038       2.51520991      -0.61061316      -0.00850274       0.03078153      -0.40564933
H        0.06692926       3.31377267       0.91323555      -0.00472357       0.77093050       0.42800478
H        0.63115640      -1.22392083      -0.98824316      -0.60185427      -0.22852318      -0.20604767
H        2.11017744      -1.39355684      -0.12666690       0.25819777      -0.19612350       0.32282265
H        1.81192116       2.31207168      -1.37238830       0.17476151      -0.65007094       0.07057013
H       -1.14721056       0.07282993      -0.32907909       0.65611117       0.22386398       0.18410053
H        1.83077530       1.86598253       1.50605434       0.26776819      -0.04822962      -0.62306660
H        1.07098792      -0.32214767       1.70864946      -0.23861837       0.29566649      -0.68441866
