46
Properties=species:S:1:pos:R:3:forces:R:3 id=9553 bond=C-P smiles="[H:23][c:4]1[c:2]([c:6]([c:3]([c:5]([c:7]1[P:8]([C:19]2([C:15]([C:11]([C:9]([C:12]([C:16]2([H:39])[H:40])([H:31])[H:32])([H:25])[H:26])([H:29])[H:30])([H:37])[H:38])[H:45])[C:20]3([C:17]([C:13]([C:10]([C:14]([C:18]3([H:43])[H:44])([H:35])[H:36])([H:27])[H:28])([H:33])[H:34])([H:41])[H:42])[H:46])[H:24])[H:22])[Cl:1])[H:21]" dataset=PubChem energy=-40915.09558646377 pbc="F F F"
Cl       5.87408786       0.06870735      -3.82451332      -0.94293979      -0.16340010       0.96269894
C        4.12905698       1.41381562      -2.12895668      -1.72024220      -3.40011815       0.14659799
C        3.69002466      -1.02925217      -2.42585719       0.69484648       1.02531505       0.24500076
C        2.97447853       1.42955363      -1.29258622       0.83918101       0.67446616      -1.00766502
C        2.53561907      -0.94730937      -1.65839232      -0.90637009       0.91492122       1.20896351
C        4.49448352       0.12982125      -2.67185439      -0.82266175       1.06589778       0.13314065
C        2.17075507       0.31370336      -1.05662406      -0.37642266      -0.63316627       1.02267199
P        0.81736647       0.44787375       0.28263388       3.57176396      -4.71627366       0.85719610
C       -2.27512384       3.59330956      -0.33592630       2.22248474      -0.41976081      -0.22932807
C       -0.32775576      -2.12689768       4.38259612       0.88750941       1.21427858      -1.29596655
C       -0.85126639       4.07021753      -0.07741899       0.89997941       1.63210806      -0.37848741
C       -2.18062830       2.53741137      -1.37385482      -3.02410988      -2.34395121      -1.86386743
C        0.70869901      -0.98469066       4.41598426      -0.96225829       1.28260098      -0.79179656
C       -0.16370178      -2.86179053       3.03392039      -2.36522440       1.68449908      -1.02015775
C        0.27449253       3.00281779      -0.07777274      -0.98419120       2.19532861       0.56068802
C       -1.30110944       1.29772280      -0.96517629       0.40738310       2.85782624      -0.31404773
C        0.76287844      -0.04530280       3.13880550       1.22823979       0.03176427       0.85646241
C       -0.18925006      -1.79161130       1.76360594       2.67543443      -3.72290423       1.55058946
C       -0.35380561       1.70432142       0.21214431      -2.10904914      -0.50021327      -1.18758174
C        0.93262129      -0.83712661       1.83398794       0.79182900       2.34943892      -0.82406195
H        4.60473256       2.32753003      -2.35706843       0.74454639       0.51469185      -0.23874423
H        3.98574023      -2.01341164      -2.74886430       0.21855472       0.11697407      -0.43992015
H        2.68366032       2.40988803      -0.89272214       0.31637732      -0.73321576       0.01399986
H        1.89512496      -1.84894144      -1.43622459       0.93391568       1.14579850      -0.42036816
H       -2.64609432       3.17370407       0.56977368      -0.62085647      -0.22803429       0.66841849
H       -2.85188055       4.42696563      -0.63389105      -0.85148592       0.67459058      -0.24675973
H       -0.04062254      -2.73819601       5.19190513      -0.00288674      -1.08908054       0.91650842
H       -1.28617902      -1.70604956       4.62190973      -0.71991638      -0.06866158      -0.38296534
H       -0.84591437       4.46205369       0.90317389       0.02825525       0.73394119       1.19764611
H       -0.59689045       4.95694962      -0.72655541      -0.19260217      -1.03998727       0.38616024
H       -1.92866231       2.92194454      -2.37638265       0.38589941       0.06675540       0.57440370
H       -3.27045608       2.16172603      -1.56387717       1.73332246       0.36436760       0.24759626
H        0.49285751      -0.30220925       5.24477206       0.14679413      -0.30426463       0.10009798
H        1.65992360      -1.43909966       4.59216176       0.85134642      -0.01880509      -0.04585325
H       -1.01680607      -3.54907261       2.79180681       0.91380660       0.32642062       0.55688819
H        0.75724764      -3.41493212       3.14758550       0.30032969      -0.11256924      -0.75168889
H        0.81679478       3.06358591      -0.98795576       0.12391823      -0.51611828      -1.03508368
H        1.01628515       3.23684517       0.67642375      -0.00017834       0.15583086       0.28300731
H       -1.86008167       0.45208964      -0.71795065      -1.06808616      -1.13256293       0.69720079
H       -0.68063593       0.96039830      -1.78602225       0.13335420       0.25627394      -0.27531212
H        1.54870646       0.74472748       3.32745658      -0.61819895      -1.02442456      -0.43988814
H       -0.15958972       0.52666496       3.03353630      -0.20422689      -0.16835483       0.24113128
H       -1.05423672      -1.30131745       1.55887960      -2.92984674       1.31257022       0.38900277
H       -0.05658920      -2.37071025       0.88274233       0.17537471      -0.79497315      -0.76502747
H       -0.97243357       1.72757617       1.12422084       0.59599618       0.01404675      -0.11252351
H        1.90345125      -1.35100900       1.69710957      -0.40052201       0.51922670       0.25446649
