46
Properties=species:S:1:pos:R:3:forces:R:3 id=9553 bond=C-P smiles="[H:23][c:4]1[c:2]([c:6]([c:3]([c:5]([c:7]1[P:8]([C:19]2([C:15]([C:11]([C:9]([C:12]([C:16]2([H:39])[H:40])([H:31])[H:32])([H:25])[H:26])([H:29])[H:30])([H:37])[H:38])[H:45])[C:20]3([C:17]([C:13]([C:10]([C:14]([C:18]3([H:43])[H:44])([H:35])[H:36])([H:27])[H:28])([H:33])[H:34])([H:41])[H:42])[H:46])[H:24])[H:22])[Cl:1])[H:21]" dataset=PubChem energy=-40914.728798733435 pbc="F F F"
Cl       6.03465177      -0.10354757      -3.81484943      -0.93938996      -0.16429314       0.96265547
C        4.28962089       1.24156070      -2.11929279      -1.71458833      -3.40150036       0.12864828
C        3.85058857      -1.20150709      -2.41619330       0.68542890       1.02552268       0.24590183
C        3.13504244       1.25729871      -1.28292233       0.74533320       0.66973551      -0.98941627
C        2.69618298      -1.11956429      -1.64872843      -0.92602140       0.90150737       1.19592386
C        4.65504743      -0.04243367      -2.66219050      -0.82499447       1.08076488       0.14054724
C        2.33131898       0.14144844      -1.04696017      -0.19027738      -0.64396043       0.94923490
P        0.97793038       0.27561883       0.29229777      -0.87279701       0.02592427       0.02722614
C       -2.43568775       3.76556448      -0.34559019       2.17325514      -0.37466423      -0.22196326
C       -0.16719185      -2.29915260       4.39226001       0.88794480       1.21595746      -1.29637691
C       -1.01183030       4.24247245      -0.08708288       0.73418927       1.51323161      -0.25542715
C       -2.34119221       2.70966629      -1.38351871      -2.93998268      -2.26141886      -1.73756804
C        0.86926292      -1.15694558       4.42564815      -0.94960918       1.26848834      -0.80110203
C       -0.00313787      -3.03404545       3.04358428      -2.34259103       1.68365113      -1.01284050
C        0.11392862       3.17507271      -0.08743663      -0.18247309       1.22603804       0.67175039
C       -1.46167335       1.46997772      -0.97484018       1.29204832       2.03498842       0.03817649
C        0.92344235      -0.21755772       3.14846939       1.21920404       0.05571765       0.84363286
C       -0.02868615      -1.96386622       1.77326983       2.67241325      -3.68052862       1.50533364
C       -0.51436952       1.87657634       0.20248042       0.33477566      -3.05322953      -1.14275630
C        1.09318520      -1.00938153       1.84365183       0.76688566       2.19701367      -0.59419789
H        4.76529647       2.15527511      -2.34740454       0.74256821       0.51511130      -0.24113944
H        4.14630414      -2.18566656      -2.73920041       0.21889908       0.11511259      -0.43685578
H        2.84422423       2.23763311      -0.88305825       0.17836412      -0.64834547       0.05843316
H        2.05568887      -2.02119636      -1.42656070       0.93494218       1.14092459      -0.42570512
H       -2.80665823       3.34595899       0.56010979      -0.62433982      -0.22117645       0.66147056
H       -3.01244446       4.59922055      -0.64355494      -0.85163136       0.67480422      -0.25172415
H        0.11994137      -2.91045093       5.20156902      -0.00225064      -1.09108142       0.91617130
H       -1.12561511      -1.87830448       4.63157362      -0.71960709      -0.06859305      -0.38437832
H       -1.00647828       4.63430861       0.89351000       0.02283885       0.73077992       1.18407025
H       -0.75745436       5.12920454      -0.73621930      -0.14368612      -1.09453309       0.37839527
H       -2.08922622       3.09419946      -2.38604654       0.40447356       0.04749383       0.58819105
H       -3.43101999       2.33398095      -1.57354106       1.77128467       0.33524014       0.26627200
H        0.65342142      -0.47446417       5.25443595       0.14724624      -0.30140665       0.09653307
H        1.82048751      -1.61135458       4.60182565       0.85147704      -0.02258673      -0.04023149
H       -0.85624216      -3.72132753       2.80147070       0.91405837       0.33030043       0.55040766
H        0.91781155      -3.58718704       3.15724939       0.29855538      -0.11540491      -0.74784683
H        0.65623087       3.23584083      -0.99761965       0.25126599      -0.52575151      -1.07520669
H        0.85572124       3.40910009       0.66675986      -0.02842561       0.20140899       0.25779976
H       -2.02064558       0.62434456      -0.72761454      -1.09346732      -1.11093695       0.65467745
H       -0.84119984       1.13265322      -1.79568614       0.11286485       0.24482847      -0.27723197
H        1.70927037       0.57247256       3.33712047      -0.62411497      -1.02589369      -0.44288369
H        0.00097419       0.35441004       3.04320019      -0.19806964      -0.15987808       0.20628414
H       -0.89367281      -1.47357237       1.56854349      -2.91418326       1.32086419       0.38346479
H        0.10397471      -2.54296517       0.89240622       0.17085728      -0.80223600      -0.76727955
H       -1.13299748       1.89983109       1.11455695       0.92216594      -0.31349057       0.00442272
H        2.06401516      -1.52326392       1.70677346      -0.37477168       0.52460365       0.22874477
