46
Properties=species:S:1:pos:R:3:forces:R:3 id=9553 bond=C-P smiles="[H:23][c:4]1[c:2]([c:6]([c:3]([c:5]([c:7]1[P:8]([C:19]2([C:15]([C:11]([C:9]([C:12]([C:16]2([H:39])[H:40])([H:31])[H:32])([H:25])[H:26])([H:29])[H:30])([H:37])[H:38])[H:45])[C:20]3([C:17]([C:13]([C:10]([C:14]([C:18]3([H:43])[H:44])([H:35])[H:36])([H:27])[H:28])([H:33])[H:34])([H:41])[H:42])[H:46])[H:24])[H:22])[Cl:1])[H:21]" dataset=PubChem energy=-40912.03559320187 pbc="F F F"
Cl       5.77963850       0.17003377      -3.83019796      -0.93294854      -0.16203391       0.94772114
C        4.03460762       1.51514204      -2.13464132      -1.73686230      -3.39101047       0.17002008
C        3.59557530      -0.92792575      -2.43154183       0.71095192       1.02433243       0.23768609
C        2.88002917       1.53088005      -1.29827086       1.02499288       0.66526513      -1.09890766
C        2.44116971      -0.84598295      -1.66407696      -0.84716483       0.92562002       1.18231283
C        4.40003416       0.23114767      -2.67753903      -0.82070929       1.03463528       0.13363725
C        2.07630571       0.41502978      -1.06230870      -0.45275465      -0.75475157       1.18716619
P        0.72291711       0.54920017       0.27694924      15.72156258     -17.65307097       2.17168947
C       -2.18067448       3.49198314      -0.33024166       2.25854075      -0.44885509      -0.23941273
C       -0.42220512      -2.02557126       4.37691148       0.89068713       1.20894459      -1.29782102
C       -0.75681703       3.96889111      -0.07173435       0.91649821       1.73167093      -0.42749840
C       -2.08617894       2.43608495      -1.36817018      -3.12849076      -2.32421579      -1.97992893
C        0.61424965      -0.88336424       4.41029962      -0.98579617       1.30007645      -0.77571149
C       -0.25815114      -2.76046411       3.02823575      -2.39600000       1.67702361      -1.01957278
C        0.36894189       2.90149137      -0.07208810      -1.55536743       3.09698926       0.39272052
C       -1.20666008       1.19639638      -0.95949165      -0.45557437       3.43995599      -0.78243508
C        0.66842908       0.05602362       3.13312086       1.26287416      -0.01587910       0.83501073
C       -0.28369942      -1.69028488       1.75792130       2.70545108      -3.75271360       1.60413683
C       -0.25935625       1.60299500       0.21782895     -12.78578822      10.94032320      -1.76020100
C        0.83817193      -0.73580019       1.82830330       0.88741984       2.38280956      -1.02161212
H        4.51028320       2.42885645      -2.36275307       0.75041987       0.51461608      -0.23669520
H        3.89129087      -1.91208522      -2.75454894       0.22224041       0.11635234      -0.44438433
H        2.58921096       2.51121445      -0.89840678       0.55442397      -0.85012959      -0.04938917
H        1.80067560      -1.74761502      -1.44190923       0.93096259       1.15010209      -0.41364287
H       -2.55164496       3.07237765       0.57545832      -0.62082173      -0.23256838       0.67691913
H       -2.75743119       4.32563921      -0.62820641      -0.84857896       0.67139930      -0.24502095
H       -0.13507190      -2.63686959       5.18622049      -0.00304591      -1.08755818       0.91942405
H       -1.38062838      -1.60472314       4.61622509      -0.72173727      -0.06769425      -0.38057181
H       -0.75146501       4.36072727       0.90885853       0.03284029       0.73261704       1.20072190
H       -0.50244109       4.85562320      -0.72087077      -0.20944959      -1.01697693       0.38655428
H       -1.83421295       2.82061812      -2.37069801       0.38041249       0.07388945       0.56699530
H       -3.17600672       2.06039961      -1.55819253       1.71288295       0.37718663       0.24141171
H        0.39840815      -0.20088283       5.23908742       0.14513689      -0.30737995       0.10932366
H        1.56547424      -1.33777324       4.58647712       0.85039504      -0.01339737      -0.05422226
H       -1.11125543      -3.44774619       2.78612217       0.91052986       0.31866760       0.56579229
H        0.66279828      -3.31360570       3.14190086       0.30130747      -0.10867969      -0.75584345
H        0.91124414       2.96225949      -0.98227112      -0.13934632      -0.49966109      -0.92913497
H        1.11073451       3.13551875       0.68210839      -0.00446081       0.09076888       0.30495363
H       -1.76563231       0.35076322      -0.71226601      -1.02437155      -1.13579433       0.77331311
H       -0.58618657       0.85907188      -1.78033761       0.15888168       0.28095076      -0.23454983
H        1.45425710       0.84605390       3.32177194      -0.61172295      -1.02244270      -0.43721043
H       -0.25403908       0.62799138       3.02785166      -0.23089230      -0.16236972       0.27334013
H       -1.14868608      -1.19999103       1.55319496      -2.95373421       1.31003542       0.39043861
H       -0.15103856      -2.26938383       0.87705769       0.18218059      -0.78615007      -0.76087975
H       -0.87798421       1.62624975       1.12990548       0.36796956       0.23153116      -0.21633494
H        1.80900189      -1.24968258       1.69142493      -0.41637958       0.49981441       0.29236745
