46
Properties=species:S:1:pos:R:3:forces:R:3 id=9553 bond=C-P smiles="[H:23][c:4]1[c:2]([c:6]([c:3]([c:5]([c:7]1[P:8]([C:19]2([C:15]([C:11]([C:9]([C:12]([C:16]2([H:39])[H:40])([H:31])[H:32])([H:25])[H:26])([H:29])[H:30])([H:37])[H:38])[H:45])[C:20]3([C:17]([C:13]([C:10]([C:14]([C:18]3([H:43])[H:44])([H:35])[H:36])([H:27])[H:28])([H:33])[H:34])([H:41])[H:42])[H:46])[H:24])[H:22])[Cl:1])[H:21]" dataset=PubChem energy=-40911.97530548053 pbc="F F F"
Cl       6.39355934      -0.48858799      -3.79324779      -0.90593076      -0.16741786       0.93538152
C        4.64852846       0.85652028      -2.09769115      -1.73101375      -3.37457173       0.08659795
C        4.20949614      -1.58654751      -2.39459166       0.58941906       1.02793357       0.18357477
C        3.49395001       0.87225829      -1.26132069       0.79001808       0.59112972      -1.07695192
C        3.05509055      -1.50460471      -1.62712679      -0.84745392       0.89572625       1.16205427
C        5.01395500      -0.42747409      -2.64058886      -0.82219293       1.10978667       0.17557279
C        2.69022655      -0.24359198      -1.02535853       0.66286209      -0.72022350       1.53312168
P        1.33683795      -0.10942159       0.31389941      -2.00020839      -1.11440475      -1.24500432
C       -2.79459532       4.15060490      -0.36719183       2.17890985      -0.35950852      -0.19111843
C        0.19171572      -2.68419302       4.41386165       0.89138324       1.22579488      -1.30581214
C       -1.37073787       4.62751287      -0.10868452       0.32637415       1.57666322      -0.09983524
C       -2.70009978       3.09470671      -1.40512035      -2.94117221      -1.94428393      -1.67990302
C        1.22817049      -1.54198600       4.44724979      -0.93993565       1.30974663      -0.78810093
C        0.35576970      -3.41908587       3.06518592      -2.29907689       1.67766296      -0.99031117
C       -0.24497895       3.56011313      -0.10903827       0.56948746       0.24754145       0.71608604
C       -1.82058092       1.85501814      -0.99644182       2.17699982       0.97948483       0.49064999
C        1.28234992      -0.60259814       3.17007103       1.21579919      -0.04646027       0.87458041
C        0.33022142      -2.34890664       1.79487147       2.66535798      -3.44226610       1.28368955
C       -0.87327709       2.26161676       0.18087878      -2.01723399       0.20894276      -1.42266761
C        1.45209277      -1.39442195       1.86525347       1.75160594       2.13111638      -0.28104450
H        5.12420404       1.77023469      -2.32580290       0.75426225       0.51478081      -0.24944916
H        4.50521171      -2.57070698      -2.71759877       0.22084127       0.10887830      -0.44252218
H        3.20313180       1.85259269      -0.86145661       0.15506298      -0.59423460       0.08102292
H        2.41459644      -2.40623678      -1.40495906       0.95151386       1.09837493      -0.40129356
H       -3.16556580       3.73099941       0.53850815      -0.62361686      -0.21317121       0.64668239
H       -3.37135203       4.98426097      -0.66515658      -0.83570369       0.67364797      -0.28219714
H        0.47884894      -3.29549135       5.22317066      -0.00087875      -1.09789343       0.91609166
H       -0.76670754      -2.26334490       4.65317526      -0.72143649      -0.06750117      -0.38612522
H       -1.36538585       5.01934903       0.87190836       0.02801962       0.70481536       1.16228763
H       -1.11636193       5.51424496      -0.75782094      -0.06265561      -1.15084573       0.35087884
H       -2.44813379       3.47923988      -2.40764818       0.44307414       0.00613541       0.60704537
H       -3.78992756       2.71902137      -1.59514270       1.83627178       0.26409493       0.30149630
H        1.01232899      -0.85950459       5.27603759       0.13750943      -0.30787443       0.11513243
H        2.17939508      -1.99639500       4.62342729       0.84966926      -0.02381225      -0.04319826
H       -0.49733459      -4.10636795       2.82307234       0.90641459       0.33937511       0.53782137
H        1.27671912      -3.97222746       3.17885103       0.29356784      -0.10721776      -0.75073405
H        0.29732330       3.62088125      -1.01922129       0.23533198      -0.49359770      -1.06904523
H        0.49681367       3.79414051       0.64515822      -0.07239750       0.27052914       0.26853988
H       -2.37955315       1.00938498      -0.74921618      -1.13810120      -1.07850789       0.64072907
H       -1.20010741       1.51769364      -1.81728778       0.14664501       0.21929965      -0.36280427
H        2.06817794       0.18743214       3.35872211      -0.61460495      -1.01357735      -0.41401631
H        0.35988176      -0.03063038       3.06480183      -0.20979095      -0.13845458       0.18405110
H       -0.53476524      -1.85861279       1.59014513      -2.94928638       1.34622738       0.35788281
H        0.46288228      -2.92800559       0.91400786       0.15857288      -0.83895739      -0.77869202
H       -1.49190505       2.28487151       1.09295531       1.15007938      -0.61552313       0.22321974
H        2.42292273      -1.90830434       1.72837510      -0.35471719       0.38220607       0.42705042
