25
Properties=species:S:1:pos:R:3:forces:R:3 id=46855 bond=C-S smiles="[H:15][c:5]1[c:6]([c:8]([c:10]([c:9]([c:7]1[H:17])[H:19])/[C:4](=[N:1]/[O:2][H:14])/[S:3][C:12]([H:22])([H:23])[C:13]([H:24])([H:25])[N:11]([H:20])[H:21])[H:18])[H:16]" dataset=PubChem energy=-25397.673103170117 pbc="F F F"
N        2.14505969       0.07694631       2.40777097      -1.89106775       1.94037171      -2.21921957
O        3.34945951       0.83466412       2.19574687      -1.04901673      -0.10479607      -0.20011471
S        1.09205324       2.76874247       0.44461983      -0.00384722      -2.59089621       1.23896616
C        1.02019719       0.50998633       1.84792433       3.83011929      -0.58900293       1.16221797
C       -2.59121122      -1.83544527       2.41239164       1.29056686      -0.21937530       0.00338248
C       -2.66346421      -0.57859944       1.80448721       1.10703725      -1.01268174       0.44564574
C       -1.33972897      -2.37003051       2.82477901      -1.12139291       0.23093339       0.11351338
C       -1.49277320       0.14193927       1.58040342       1.36594448      -0.24528667       0.42161946
C       -0.19301559      -1.62121533       2.68897388      -0.11007929       1.68664458      -0.92504528
C       -0.20659097      -0.34511726       2.02070639      -1.97830045       0.50632886      -0.18069027
N        2.80072826       2.21106592      -3.19390862      -0.73095754       0.86927673      -1.19302867
C        1.53884203       1.98677364      -1.15871530      -0.68967637      -0.46818891       1.02532019
C        2.08557088       2.97936311      -2.18139570       0.38234189      -0.78722623       0.43758301
H        4.14318499       0.29961011       2.41888688      -1.46486687      -0.11603098       0.10640506
H       -3.44402756      -2.46107231       2.57864163      -0.50954931       0.06354445      -0.05138338
H       -3.58983554      -0.16334797       1.48545132      -0.54989077       0.13081661      -0.11761593
H       -1.29508819      -3.35929118       3.32635543      -0.06537246       0.88497890      -0.45277242
H       -1.60340919       1.10746063       1.08737920       0.47886113      -0.21543096       0.15130678
H        0.70641946      -1.95641146       3.13018391       0.85871544      -0.31469878       0.10011573
H        2.14367599       1.68789449      -3.75970738       0.34682333      -0.16123261       0.09734079
H        3.51395554       1.61423447      -2.81895058      -0.02559346      -0.16348934       0.19467500
H        0.64857528       1.43552557      -1.48903518       0.28316000       0.33980327      -0.31151346
H        2.30274636       1.22988748      -0.98316305       0.03875130       0.22637269       0.21450697
H        1.26707727       3.58264580      -2.59676545       0.53643626      -0.13027319      -0.10314869
H        2.83244103       3.61152067      -1.69943111      -0.32904658       0.23931047       0.03983139
