47
Properties=species:S:1:pos:R:3:forces:R:3 id=21478 bond=C-N smiles="[H:22][c:3]1[c:2]([c:4]([c:6]([c:7]([c:5]1[H:24])[N:9]2[C:16]([C:19]([N:10]([C:20]([C:17]2([H:42])[H:43])([H:47])[C:13]([H:33])([H:34])[H:35])[C:15]([H:38])([H:39])[C:18]([H:44])([H:45])[C:14]([H:36])([H:37])[N:8]([H:25])[H:26])([H:46])[C:12]([H:30])([H:31])[H:32])([H:40])[H:41])[S:1][C:11]([H:27])([H:28])[H:29])[H:23])[H:21]" dataset=PubChem energy=-32349.4764662993 pbc="F F F"
S       -2.48185183       1.89379696      -1.35506750       0.31284854       0.50846953       0.00974384
C       -4.76061560      -0.94073900       0.31657596       0.01380369      -0.94022900       0.24114119
C       -3.86516692      -1.63490149       1.14530818      -0.60011633       0.30743808       0.24187579
C       -4.28603150       0.02708617      -0.55697383      -0.23930509      -0.15596082       1.03012843
C       -2.54209425      -1.26448997       1.21100496       0.08185802       0.38225283      -0.12454526
C       -2.96818783       0.45394584      -0.48229159       0.04831191      -1.00760096       0.55202918
C       -2.09116532      -0.22012719       0.40692006      -0.32442283       0.07110997      -0.36948833
N        5.50016481       3.00071931       1.71674328      -0.62894244       0.40323346      -0.19575444
N       -0.75921466       0.13150022       0.46182535       2.41236571       0.80540459       0.15705622
N        2.14463125       0.66982198       0.57275830     -22.76584596     -19.64365349      -1.43498196
C       -2.70148970       3.05412415       0.03345643      -1.46448598      -0.22126693      -0.46084048
C        1.65219311      -1.22182675       2.18266402       0.25476781       0.29750859      -0.98122590
C        2.35971270       0.05657128      -1.76201738       0.12451013      -0.49167396      -0.81843964
C        5.43541414       1.75962771       0.89276385       1.01371499       0.71539608       0.00546489
C        2.98698646       1.39495338       0.64209883      19.46552979      16.53020102       1.67151910
C       -0.12287136       0.63856335       1.72242914       0.53577852       0.13315852      -1.46563412
C        0.12024687      -0.22174611      -0.66924860       0.18674354      -0.94105067       0.69059693
C        4.27404195       0.84005672       1.20826006       1.62263166       0.67896389       0.74677817
C        1.40886400       0.28143639       1.83772026      -0.74587606      -0.96023107      -1.20227884
C        1.40305279       0.60601128      -0.69473256       0.11384713      -0.30907356       0.18270956
H       -5.83182599      -1.17271658       0.38156386       0.59018491       0.03860963      -0.28596306
H       -4.19021966      -2.43000241       1.79660879      -0.32509750      -0.03926028       0.00581949
H       -4.99554374       0.53086341      -1.16969563      -0.20336108       0.39788377      -0.49140194
H       -1.83401253      -1.70967861       1.91605924      -0.33281586      -0.04607099      -0.42186111
H        4.59970838       3.51947308       1.64111381       1.26661251      -0.42864319      -0.03663173
H        6.28711778       3.60915518       1.40642720      -1.17792107      -0.70686332       0.26919841
H       -2.11225345       2.78863815       0.88330157       0.21500896      -0.35966126       0.47183602
H       -2.40759875       4.02257231      -0.28868778       0.42007881       0.79200669      -0.43993642
H       -3.78578307       3.13437990       0.26791708       0.81297307      -0.27500717       0.09686442
H        1.43180511      -1.87274619       1.30934571       0.11141072       0.50728190       0.56711498
H        1.01205120      -1.52566620       2.99227224      -0.24844501      -0.12942221       0.41442091
H        2.70205305      -1.40439888       2.47570954      -0.52175371       0.21729735      -0.19347708
H        3.25592396       0.66632883      -1.96106661      -0.70148253       0.20323465       0.00667240
H        1.82053635      -0.12167140      -2.72739781       0.54870568       0.18510544       0.77921916
H        2.82140992      -0.88381775      -1.41711332      -0.65014607       0.10553794      -0.07926427
H        6.37784463       1.25186897       1.06555581       0.17428836      -0.16719522       0.00216144
H        5.42773324       2.04617334      -0.16403991      -0.14179640      -0.32389439      -0.17378148
H        2.66263753       2.20403553       1.26450485       0.70265107       2.52227139       1.03586945
H        3.23509580       1.84123922      -0.32352937       0.31335185       0.32570080       0.01351416
H       -0.65117408       0.24869613       2.58172499      -0.10320475      -0.08975774       0.17117020
H       -0.22807159       1.74741987       1.72146605       0.19338370      -0.58350703       0.20598733
H       -0.37674262      -0.09222700      -1.64880170       0.04237620       0.09663270       0.69526200
H        0.39869271      -1.31841191      -0.60049333      -0.20420185       0.92603776      -0.14866686
H        4.42356807      -0.17658811       0.81780061       0.07282992       0.35717059      -0.06821418
H        4.22235757       0.77083961       2.30105370      -0.12825097      -0.18270131      -0.10188584
H        1.80698751       0.86458124       2.67110263       0.05039988       0.22316030      -0.28978539
H        1.12345092       1.63783512      -0.90206386      -0.19491716       0.27074472      -0.47634373
