20
Properties=species:S:1:pos:R:3:forces:R:3 id=19543 bond=N-P smiles="[H:12][C:5]([H:13])([H:14])[N:3]([C:6]([H:15])([H:16])[H:17])[P:8](=[S:1])([C:7]([H:18])([H:19])[H:20])[S:2][C:4]([H:9])([H:10])[H:11]" dataset=PubChem energy=-36798.8076864022 pbc="F F F"
S        1.56472236      -0.56128575       2.48340741       1.65508485      -0.48900826       0.22779144
S        2.06678420       1.91646945       0.00499358      -0.78534017      -0.28378065      -0.18475584
N       -0.29261727       1.01367562       1.47595216     -20.96057951      12.66309250       7.64407844
C        3.25030726       0.92844008      -0.97329220       0.13047868      -1.08070092       1.70461969
C       -1.24617638       0.15996554       2.18209888      -0.83903677       0.65822507       0.48543477
C       -0.78721656       2.19064849       0.77935656      -1.96006717       1.32011930       1.84973406
C        0.49434003      -0.96850480      -0.29230717      -0.42820823       0.68340006       3.23161799
P        0.78715992       0.42347377       0.99413755      23.90138777     -13.81447911      -9.22688100
H        3.67746156       1.54055970      -1.74922881       0.43035586       0.49611527       0.28032318
H        2.79326075       0.11048930      -1.50796637      -0.41299315      -0.22625072       0.11802165
H        3.94701403       0.49808847      -0.20160762      -0.24569131       0.53073374      -1.31466749
H       -0.74947502      -0.23360110       3.04830255      -0.21075518      -0.17385142       0.21023788
H       -1.46877683      -0.58075280       1.46990539      -0.58826923      -1.54386743      -0.30966617
H       -2.19148912       0.63950654       2.41736545       0.24250175       0.58227999       0.01563436
H       -0.01754065       2.97168629       0.79957743      -0.42349891      -0.33766488      -0.40869303
H       -1.14780249       1.92402690      -0.21906285      -0.06351830       0.50470939       0.20063611
H       -1.59053864       2.54102104       1.49801602       0.52215279      -0.00935701      -1.51332050
H       -0.55583525      -0.97110308      -0.43899176      -1.23135981      -0.43279313       0.09543753
H        0.85110962      -0.90235342      -1.23373088       1.64575541       0.62097985      -2.89747785
H        0.86703592      -1.87553705       0.19468137      -0.37465751       0.32706081      -0.21486370
