20
Properties=species:S:1:pos:R:3:forces:R:3 id=19543 bond=N-P smiles="[H:12][C:5]([H:13])([H:14])[N:3]([C:6]([H:15])([H:16])[H:17])[P:8](=[S:1])([C:7]([H:18])([H:19])[H:20])[S:2][C:4]([H:9])([H:10])[H:11]" dataset=PubChem energy=-36799.7314104947 pbc="F F F"
S        2.00544774      -0.80218446       2.28674839      -0.15305017       0.79070419       0.01870755
S        2.50750958       1.67557074      -0.19166544      -1.19038508       0.04104978       0.20298636
N       -0.73334265       1.25457433       1.67261118       2.76567960       0.80240779       0.25122594
C        3.69103264       0.68754137      -1.16995122       0.05778674      -1.20070880       1.64593974
C       -1.68690176       0.40086425       2.37875790       1.31602444       0.20650230      -1.35333116
C       -1.22794194       2.43154720       0.97601558      -0.22019525      -0.76304297       1.25002828
C        0.93506541      -1.20940351      -0.48896619      -0.91494213       0.51045949       3.37482687
P        1.22788530       0.18257506       0.79747853      -0.81936141      -0.75771144      -0.03229722
H        4.11818694       1.29966099      -1.94588783       0.40273834       0.52673322       0.26507154
H        3.23398613      -0.13040941      -1.70462539      -0.38089504      -0.23446243       0.08123878
H        4.38773941       0.25718976      -0.39826664      -0.25800579       0.55448892      -1.30952690
H       -1.19020040       0.00729761       3.24496157      -0.12126072      -0.33640545       0.42337229
H       -1.90950221      -0.33985409       1.66656441      -0.84347160      -1.77514213      -0.34557644
H       -2.63221450       0.88040525       2.61402447       0.18964544       0.50603530       0.08978700
H       -0.45826603       3.21258500       0.99623645      -0.17756514      -0.23209832      -0.50467128
H       -1.58852787       2.16492561      -0.02240383      -0.29343877       0.71142808       0.02236411
H       -2.03126402       2.78191975       1.69467504       0.47487142      -0.11416439      -1.28475822
H       -0.11510987      -1.21200179      -0.63565078      -1.19228275      -0.42010209       0.19171097
H        1.29183500      -1.14325213      -1.43038990       1.71548894       0.80979197      -2.86657496
H        1.30776130      -2.11643576      -0.00197765      -0.35623861       0.37437323      -0.12080420
