29
Properties=species:S:1:pos:R:3:forces:R:3 id=25395 bond=C-N smiles="[H:18][c:5]1[c:4]([c:6]([c:8]2[c:9]([c:7]1[H:20])[C@@:14]([C@:15]([C:13]([C:12]2([H:24])[H:25])([H:26])[H:27])([H:29])[O:2][H:16])([H:28])[N:11]([H:23])[C:3](=[S:1])[N:10]([H:21])[H:22])[H:19])[H:17]" dataset=PubChem energy=-27507.72596653304 pbc="F F F"
S       -2.99712179       2.15413695      -0.75249492      -1.74084654      -0.75643636       0.55472941
O       -0.05694370      -2.70416046       0.17741314      -0.70181026       1.00033615      -0.65176668
C       -1.50912568       2.57780283      -1.28862928       1.57766995      -1.18503483       0.72274058
C        1.82915069       0.62261836       3.87257650      -0.89207260      -0.01204233      -0.86606818
C        0.48719875       1.02993249       3.73125914       0.75635259      -0.16653936      -0.22301335
C        2.42244185      -0.07611091       2.81491664       0.63400787       0.22277679       1.47510534
C       -0.19320599       0.73342143       2.56261340       0.49742911       0.26449398       0.37268060
C        1.75677754      -0.38445504       1.65295807       0.14654864      -0.11794044      -0.26978652
C        0.42622487       0.04859260       1.51151035      -0.78672408       0.34578498      -1.21573027
N       -1.40757427       3.74736100      -1.96510671       1.21324585       1.63957184      -0.70765580
N       -0.41126553       1.79843807      -1.06923150      -1.67427247      -1.21651103       0.59830367
C        2.50360562      -1.21904351       0.63900429      -1.11610233      -0.15657613      -0.64925082
C        1.71675219      -1.29501189      -0.69726953       0.19863172       0.89652235       0.87575773
C       -0.39809470      -0.26038600       0.29941836       1.09227192      -1.25899095       1.66462196
C        0.20186560      -1.44875766      -0.49696466       1.41321590       0.55408290       0.39075715
H        0.16868003      -2.64098717       1.10531461       0.13733405       0.21059461       0.14551376
H        2.36940565       0.86250805       4.77568630       0.11352365      -0.05811518      -0.05493582
H        0.01314785       1.62854479       4.49080899      -0.08262614      -0.09537239       0.15328992
H        3.45755388      -0.41133101       2.92693475      -0.35687343       0.11143475      -0.06110793
H       -1.19405757       1.09091770       2.44475320      -0.43129649       0.05735780      -0.20501022
H       -0.49120603       4.23011642      -2.06292485      -1.33161956      -0.69956515       0.03371792
H       -2.26902601       4.30071049      -2.08497785       1.04754614      -0.68555159       0.32617270
H        0.46887429       2.22406965      -1.22370993       1.03594076       0.26834712      -0.08689052
H        2.65998484      -2.24359179       1.02866675      -0.10312604       0.54627078      -0.06236236
H        3.48655988      -0.79061676       0.46484241       0.04870637      -0.01485067       0.02123825
H        1.88278498      -0.37200744      -1.26118919      -0.02003855      -0.13241436       0.00815110
H        2.13131537      -2.11416913      -1.24307701      -0.10249760      -0.50116509      -0.62152588
H       -1.42278145      -0.53659274       0.60911131       0.08503706       1.37740534      -0.95951994
H       -0.24576394      -1.46137680      -1.45754501      -0.65848117      -0.43993075      -0.71193734
