29
Properties=species:S:1:pos:R:3:forces:R:3 id=25395 bond=C-N smiles="[H:18][c:5]1[c:4]([c:6]([c:8]2[c:9]([c:7]1[H:20])[C@@:14]([C@:15]([C:13]([C:12]2([H:24])[H:25])([H:26])[H:27])([H:29])[O:2][H:16])([H:28])[N:11]([H:23])[C:3](=[S:1])[N:10]([H:21])[H:22])[H:19])[H:17]" dataset=PubChem energy=-27510.75844744731 pbc="F F F"
S       -2.99397740       1.66261589      -0.42574518      -1.33610766      -0.47837298       0.31830582
O       -0.06008809      -2.21263940      -0.14933660      -0.28013164       0.41150954      -0.85698096
C       -1.50598129       2.08628177      -0.96187954      -0.23119277       0.04824386       0.07142125
C        1.82600630       1.11413942       3.54582676      -0.80517526      -0.04724115      -0.79533212
C        0.48405436       1.52145355       3.40450940       0.97526133      -0.08805374      -0.23614100
C        2.41929746       0.41541015       2.48816690       0.67874795       0.47344433       1.64760971
C       -0.19635038       1.22494249       2.23586366       0.73901723       0.14946350       0.05388110
C        1.75363315       0.10706602       1.32620833      -0.47515772      -0.02187735      -0.13198952
C        0.42308048       0.54011366       1.18476061       0.45021385      -1.11611472       1.45407253
N       -1.40442988       3.25583994      -1.63835697       1.49058998       1.12039501      -0.45530725
N       -0.40812114       1.30691701      -0.74248176      -1.43080669       7.10854763      -5.02251558
C        2.50046123      -0.72752245       0.31225455      -1.08081317      -0.23146748      -0.59677691
C        1.71360780      -0.80349083      -1.02401927       0.15980187       0.77172875       0.94359181
C       -0.40123909       0.23113506      -0.02733138       0.51399913      -6.39365278       3.59380139
C        0.19872121      -0.95723660      -0.82371440       1.04300548      -0.72907230       1.85942998
H        0.16553564      -2.14946611       0.77856487       0.08637304       0.27994590       0.07841921
H        2.36626126       1.35402911       4.44893656       0.10965039      -0.07795171      -0.04204659
H        0.01000346       2.12006585       4.16405925      -0.08788118      -0.09024671       0.18436495
H        3.45440949       0.08019005       2.60018501      -0.31777691       0.12225634      -0.04544567
H       -1.19720196       1.58243876       2.11800346      -0.48825578      -0.03560889      -0.14103253
H       -0.48806164       3.73859536      -1.73617511      -1.27388532      -0.63748962       0.01201984
H       -2.26588162       3.80918943      -1.75822811       1.04827069      -0.71921765       0.33093701
H        0.47201868       1.73254859      -0.89696019       0.69312011       0.48593012      -0.33514471
H        2.65684045      -1.75207073       0.70191701      -0.11152722       0.53116018      -0.12110739
H        3.48341549      -0.29909570       0.13809267       0.07243325      -0.02202254       0.00320753
H        1.87964059       0.11951362      -1.58793893       0.12295111      -0.11247513      -0.08458169
H        2.12817098      -1.62264807      -1.56982675      -0.07450572      -0.45734498      -0.67667342
H       -1.42592584      -0.04507168       0.28236157       0.55305553       0.12939840      -0.27001940
H       -0.24890833      -0.96985574      -1.78429475      -0.74215392      -0.36966828      -0.73904615
