29
Properties=species:S:1:pos:R:3:forces:R:3 id=25395 bond=C-N smiles="[H:18][c:5]1[c:4]([c:6]([c:8]2[c:9]([c:7]1[H:20])[C@@:14]([C@:15]([C:13]([C:12]2([H:24])[H:25])([H:26])[H:27])([H:29])[O:2][H:16])([H:28])[N:11]([H:23])[C:3](=[S:1])[N:10]([H:21])[H:22])[H:19])[H:17]" dataset=PubChem energy=-27505.93181611261 pbc="F F F"
S       -2.99338412       1.56987606      -0.36409428      -1.26850305      -0.49898602       0.31148981
O       -0.06068137      -2.11989957      -0.21098750      -0.18983637       0.19143667      -0.90921507
C       -1.50538801       1.99354194      -0.90022864      -0.50818674       0.92590501      -0.51357435
C        1.82541302       1.20687925       3.48417586      -0.79712402      -0.05620759      -0.78900316
C        0.48346108       1.61419338       3.34285850       0.99024954      -0.05145155      -0.25258416
C        2.41870418       0.50814998       2.42651600       0.71241444       0.52903472       1.63926796
C       -0.19694366       1.31768232       2.17421276       0.72823230       0.20488315       0.00723890
C        1.75303987       0.19980585       1.26455743      -0.46526780      -0.00641331      -0.11432092
C        0.42248720       0.63285349       1.12310971       0.90614167      -1.94673787       2.69163155
N       -1.40383660       3.16310011      -1.57670607       1.43067835       1.16285450      -0.48920250
N       -0.40752786       1.21417718      -0.68083086      -2.27518285      32.31234857     -21.55844071
C        2.49986795      -0.63478262       0.25060365      -1.07817087      -0.26538638      -0.57908363
C        1.71301452      -0.71075100      -1.08567017       0.12799802       0.78639059       0.96915677
C       -0.40183237       0.32387489      -0.08898228       0.95778530     -30.62887640      19.46121505
C        0.19812793      -0.86449677      -0.88536530       1.23987419      -1.86093881       2.20506389
H        0.16494236      -2.05672628       0.71691397       0.06848091       0.29835593       0.05847995
H        2.36566798       1.44676894       4.38728566       0.10757250      -0.08280586      -0.04015836
H        0.00941018       2.21280568       4.10240835      -0.09122382      -0.09475474       0.18821986
H        3.45381621       0.17292988       2.53853411      -0.31297276       0.12241320      -0.04298476
H       -1.19779524       1.67517859       2.05635256      -0.49279429      -0.05415721      -0.11432305
H       -0.48746836       3.64585553      -1.67452421      -1.25860173      -0.63753729       0.02163456
H       -2.26528834       3.71644960      -1.69657721       1.07863986      -0.70894957       0.31793840
H        0.47261196       1.63980876      -0.83530929       0.72042922       1.17029124      -0.87652633
H        2.65624717      -1.65933090       0.64026611      -0.11308647       0.53163942      -0.12969189
H        3.48282221      -0.20635587       0.07644177       0.07459033      -0.01933877       0.00364636
H        1.87904731       0.21225345      -1.64958983       0.16581466      -0.09388225      -0.11460063
H        2.12757770      -1.52990824      -1.63147765      -0.07916427      -0.43563495      -0.69778091
H       -1.42651912       0.04766815       0.22071067       0.42247381      -0.49040182       0.10077389
H       -0.24950161      -0.87711591      -1.84594565      -0.80027266      -0.29818737      -0.75356557
