29
Properties=species:S:1:pos:R:3:forces:R:3 id=25395 bond=C-N smiles="[H:18][c:5]1[c:4]([c:6]([c:8]2[c:9]([c:7]1[H:20])[C@@:14]([C@:15]([C:13]([C:12]2([H:24])[H:25])([H:26])[H:27])([H:29])[O:2][H:16])([H:28])[N:11]([H:23])[C:3](=[S:1])[N:10]([H:21])[H:22])[H:19])[H:17]" dataset=PubChem energy=-27490.69490803044 pbc="F F F"
S       -2.99285017       1.48641022      -0.30860848      -1.06884595      -0.66599417       0.34761558
O       -0.06121532      -2.03643373      -0.26647330      -0.11283130      -0.02919538      -0.96784548
C       -1.50485406       1.91007610      -0.84474284      -1.08702853       2.55288509      -1.48550448
C        1.82487907       1.29034509       3.42869006      -0.79680470      -0.06757806      -0.78986343
C        0.48292713       1.69765922       3.28737270       1.00910050      -0.01230201      -0.28676789
C        2.41817023       0.59161582       2.37103020       0.73508944       0.60407872       1.60410542
C       -0.19747761       1.40114816       2.11872696       0.68981972       0.25907952      -0.10227299
C        1.75250592       0.28327169       1.20907163      -0.43564910       0.00952355      -0.11964816
C        0.42195325       0.71631933       1.06762391       1.71944330      -2.84553840       4.57450049
N       -1.40330265       3.07963427      -1.52122027       1.32505366       1.30990692      -0.58656304
N       -0.40699391       1.13071134      -0.62534506      -3.98208818     100.79152960     -66.50232630
C        2.49933400      -0.55131678       0.19511785      -1.07884076      -0.30877530      -0.55111146
C        1.71248057      -0.62728516      -1.14115597       0.07181087       0.84929057       1.00440720
C       -0.40236632       0.40734073      -0.14446808       1.73718808     -98.33461653      64.04547021
C        0.19759398      -0.78103093      -0.94085110       1.77807253      -3.70464138       2.32139726
H        0.16440841      -1.97326044       0.66142817       0.05219779       0.31853946       0.04536867
H        2.36513403       1.53023478       4.33179986       0.10437258      -0.08915162      -0.03828022
H        0.00887623       2.29627152       4.04692255      -0.09623105      -0.10108050       0.19112739
H        3.45328226       0.25639572       2.48304831      -0.30745361       0.12132913      -0.04144816
H       -1.19832919       1.75864443       2.00086676      -0.49702373      -0.07202031      -0.08639920
H       -0.48693441       3.56238969      -1.61903841      -1.24004212      -0.63808443       0.03709484
H       -2.26475439       3.63298376      -1.64109141       1.13122911      -0.68333240       0.29306931
H        0.47314591       1.55634292      -0.77982349       1.15157943       2.31879774      -1.81366676
H        2.65571322      -1.57586506       0.58478031      -0.11349886       0.53256215      -0.13750998
H        3.48228826      -0.12289003       0.02095597       0.07452163      -0.01485071       0.00503817
H        1.87851336       0.29571929      -1.70507563       0.20741850      -0.06821979      -0.13908360
H        2.12704375      -1.44644240      -1.68696345      -0.09192506      -0.41611949      -0.72464703
H       -1.42705307       0.13113399       0.16522487       0.00660717      -1.42272084       0.66604354
H       -0.25003556      -0.79365007      -1.90143145      -0.88326376      -0.19174883      -0.76134130
