11
Properties=species:S:1:pos:R:3:forces:R:3 id=9973 bond=C-S smiles="[H:8][C:5]([H:9])([C:6]([H:10])([H:11])[S:4][N:2]=[O:1])[O:3][H:7]" dataset=PubChem energy=-18567.905564793018 pbc="F F F"
O        0.69578688      -1.21143948      -1.36337225      -3.88189502       1.21043675       0.20817945
N       -0.50194107      -0.94771682      -1.04979162       4.82651651      -2.98576377      -2.92915166
O        1.84837738      -0.05698198       1.34058830       1.15272222      -0.87116266       0.79044231
S       -0.60583769      -0.49833320       0.57698972     -17.05107123     -51.36891640       2.61265286
C        0.98007706       0.99185696       1.37335238       1.13309724       3.29174083      -0.75107943
C       -0.25357660       0.68350449       0.53059810      12.97583158      48.10925344      -1.82942727
H        2.47588578      -0.00401743       0.61890858      -0.17720196       0.13411600      -0.07144523
H        0.51894266       1.16318831       2.34556672       0.99115697      -0.07629638       0.39700649
H        1.42343268       1.93445852       0.94106516      -0.23727814      -0.65453156       0.98229641
H       -0.13269469       1.07568827      -0.51564839      -0.21437676       0.84201514       1.02706733
H       -1.08564040       1.15368888       1.08302787       0.47860613       2.35290103      -0.44294529
