11
Properties=species:S:1:pos:R:3:forces:R:3 id=9973 bond=C-S smiles="[H:8][C:5]([H:9])([C:6]([H:10])([H:11])[S:4][N:2]=[O:1])[O:3][H:7]" dataset=PubChem energy=-18577.753803357653 pbc="F F F"
O        0.61750663      -1.47407007      -1.35306300      -4.04468858       1.19291495       0.39409906
N       -0.58022132      -1.21034741      -1.03948237       4.78022435      -1.85541837      -2.51912505
O        1.92665763       0.20564861       1.33027905       1.60410113      -1.00951248       0.85874112
S       -0.68411794      -0.76096379       0.58729897      -1.19259568      -0.03353004       1.84322285
C        1.05835731       1.25448755       1.36304313      -0.81000366       1.37788046      -1.38980806
C       -0.17529635       0.94613508       0.52028885      -0.53638474       1.24643859      -0.45343418
H        2.55416603       0.25861316       0.60859933      -0.17383563       0.13496379      -0.02843955
H        0.59722291       1.42581890       2.33525747       1.11380043      -0.05017557       0.46090437
H        1.50171293       2.19708911       0.93075591      -0.37809379      -0.67661461       0.86405406
H       -0.05441444       1.33831886      -0.52595764      -0.52493158      -0.65181357       0.95437891
H       -1.00736015       1.41631947       1.07271862       0.16265257       0.32812977      -0.98423354
