25
Properties=species:S:1:pos:R:3:forces:R:3 id=35135 bond=C-S smiles="[H:19][c:9]1[c:13]2[c:12]([c:8]([c:6]([c:7]1[Cl:4])[Cl:3])[H:18])[n+:14]([c:10]([c:11]([n+:15]2[O-:2])[C:17]([H:23])([H:24])[H:25])[S:5][C:16]([H:20])([H:21])[H:22])[O-:1]" dataset=PubChem energy=-53468.02419223116 pbc="F F F"
O        1.64494065       1.07284137       2.79033246       0.69233537      -0.34366570       0.96667177
O        0.02144763       0.25619405      -2.16751991      -0.74722389      -0.50456349      -1.91578117
Cl       2.79252413      -4.03383819       2.01379873       0.01009710       0.34363705       0.08394065
Cl       1.31248179      -4.55750075      -0.78041873       0.22321460       0.64137352       0.37415730
S        0.60672415       3.56110962       1.60076298      -1.39389819      -1.65906865       0.72565827
C        2.06849912      -2.71770564       1.16500797      -0.36648685       1.45435486       0.43670913
C        1.44321463      -2.96148053      -0.07808230      -0.18553835       0.96479307      -0.45245940
C        2.03769997      -1.40728489       1.70831694      -0.62542199      -1.09020886       0.03316593
C        0.91782534      -1.88992921      -0.79993806       0.25582670      -1.03510219       0.26068299
C        0.66804817       1.87193044       0.93582221      -0.03441265       0.87462959      -1.78807167
C        0.23391822       1.66509720      -0.41683118       0.04801125       0.53304217       1.18830263
C        1.34460750      -0.36004952       1.04242035       0.74618531      -2.06094674      -1.16415046
C        0.83866734      -0.59568313      -0.26604102       1.04832737      -1.14526064       2.02259725
N        1.26748887       0.87943056       1.60944094      -0.91827244       1.33134078       0.69984051
N        0.31893712       0.43338111      -0.97276602      -0.09098232       2.26169101       0.04858372
C       -1.10952436       3.29833432       2.41971149       1.33806186       0.23436772       0.48701164
C       -0.24280134       2.86743268      -1.21407256      -1.30156343      -1.41614284      -0.48413339
H        2.40641156      -1.20123116       2.72014274      -0.02710625      -0.15056997      -0.66419319
H        0.58423661      -2.13300410      -1.79138479      -0.32293590       0.45850661      -0.11977070
H       -1.38270686       4.20808478       2.99427118       0.36587056      -0.67052050      -0.41368464
H       -1.81119321       3.12828775       1.63349630      -0.43891791       0.00447089      -0.46168297
H       -1.06224512       2.40438195       3.06879439       0.13616710       0.69167046      -0.26589237
H       -1.10319194       3.38339504      -0.76201043       0.39549623      -0.38958790       0.15511470
H        0.54350778       3.57280167      -1.26100931       0.77577090       0.69355586      -0.19436691
H       -0.56904885       2.56727441      -2.22098360       0.41416205      -0.01797877       0.44315651
