25
Properties=species:S:1:pos:R:3:forces:R:3 id=35135 bond=C-S smiles="[H:19][c:9]1[c:13]2[c:12]([c:8]([c:6]([c:7]1[Cl:4])[Cl:3])[H:18])[n+:14]([c:10]([c:11]([n+:15]2[O-:2])[C:17]([H:23])([H:24])[H:25])[S:5][C:16]([H:20])([H:21])[H:22])[O-:1]" dataset=PubChem energy=-53466.621684303966 pbc="F F F"
O        1.85334225       1.10474979       2.69088872       0.68382634      -0.38537736       0.90658218
O        0.22984923       0.28810247      -2.26696365      -0.75314422      -0.52422903      -1.94304379
Cl       3.00092573      -4.00192977       1.91435499       0.01298060       0.33804521       0.08781805
Cl       1.52088339      -4.52559233      -0.87986247       0.22272630       0.63649917       0.37173433
S        0.81512575       3.59301804       1.50131924      -2.94773303      -2.05657842       1.33641495
C        2.27690072      -2.68579722       1.06556423      -0.37430181       1.45166999       0.42491666
C        1.65161623      -2.92957211      -0.17752604      -0.17627108       0.96334462      -0.43645920
C        2.24610157      -1.37537647       1.60887320      -0.62626230      -1.08771751       0.02934667
C        1.12622694      -1.85802079      -0.89938180       0.25173311      -1.01714868       0.26205054
C        0.87644977       1.90383886       0.83637847      -0.22416026       1.20468273      -1.54236267
C        0.44231982       1.69700562      -0.51627492       0.01181537       0.49282277       1.08928487
C        1.55300910      -0.32814110       0.94297661       0.75741877      -2.05750342      -1.16649588
C        1.04706894      -0.56377471      -0.36548476       1.05329271      -1.17322144       2.02530761
N        1.47589047       0.91133898       1.50999720      -0.86032705       1.27862705       0.80367930
N        0.52733872       0.46528953      -1.07220976      -0.08742641       2.33522706       0.07656234
C       -1.31792596       3.26642590       2.51915523       1.64973494       0.29741476       0.40652564
C       -0.03439974       2.89934110      -1.31351630      -1.32970454      -1.43917760      -0.49784753
H        2.61481316      -1.16932274       2.62069900      -0.02597161      -0.14981883      -0.66503888
H        0.79263821      -2.10109568      -1.89082853      -0.32276378       0.45982715      -0.12004718
H       -1.59110846       4.17617636       3.09371492       0.76697213      -0.53695413      -0.55682119
H       -2.01959481       3.09637933       1.73294004       0.06460480       0.04762471      -0.84497956
H       -1.27064672       2.37247353       3.16823813       0.63244123       0.64516002      -0.46939205
H       -0.89479034       3.41530346      -0.86145417       0.41347467      -0.39569238       0.17456259
H        0.75190938       3.60471009      -1.36045305       0.77651399       0.69912804      -0.18699542
H       -0.36064725       2.59918283      -2.32042734       0.42793190      -0.02299356       0.43540399
