25
Properties=species:S:1:pos:R:3:forces:R:3 id=35135 bond=C-S smiles="[H:19][c:9]1[c:13]2[c:12]([c:8]([c:6]([c:7]1[Cl:4])[Cl:3])[H:18])[n+:14]([c:10]([c:11]([n+:15]2[O-:2])[C:17]([H:23])([H:24])[H:25])[S:5][C:16]([H:20])([H:21])[H:22])[O-:1]" dataset=PubChem energy=-53467.9238653958 pbc="F F F"
O        1.54686931       1.05782563       2.83712952       0.68695838      -0.31147336       0.99935286
O       -0.07662371       0.24117831      -2.12072285      -0.74179429      -0.49774780      -1.90169428
Cl       2.69445279      -4.04885393       2.06059579       0.00891700       0.34583547       0.08238148
Cl       1.21441045      -4.57251649      -0.73362167       0.22330629       0.64343412       0.37522758
S        0.50865281       3.54609388       1.64756004       2.73356469      -1.02206675      -1.17351442
C        1.97042778      -2.73272138       1.21180503      -0.36273428       1.45457092       0.44001966
C        1.34514329      -2.97649627      -0.03128524      -0.18817080       0.96400781      -0.45716389
C        1.93962863      -1.42230063       1.75511400      -0.62608668      -1.09070294       0.03428061
C        0.81975400      -1.90494495      -0.75314100       0.25718173      -1.03892056       0.26031725
C        0.56997683       1.85691470       0.98261927       0.21879916       0.75412967      -1.98373980
C        0.13584688       1.65008146      -0.37003412       0.06470415       0.53340576       1.22187812
C        1.24653616      -0.37506526       1.08921741       0.73527304      -2.06845774      -1.15184924
C        0.74059600      -0.61069887      -0.21924396       1.04906091      -1.13856698       2.02258540
N        1.16941753       0.86441482       1.65623800      -0.94462937       1.33220632       0.63382400
N        0.22086578       0.41836537      -0.92596896      -0.10761165       2.24038593       0.03122172
C       -1.01145302       3.31335006       2.37291443      -1.86611037      -0.22913897       1.96905132
C       -0.34087268       2.85241694      -1.16727550      -1.26738388      -1.40045937      -0.47218445
H        2.30834022      -1.21624690       2.76693980      -0.02752620      -0.15136433      -0.66373506
H        0.48616527      -2.14801984      -1.74458773      -0.32301317       0.45804475      -0.11971050
H       -1.28463552       4.22310052       2.94747412       0.08799033      -0.70798559      -0.29437602
H       -1.71312187       3.14330349       1.58669924      -0.90374190      -0.03661964      -0.20787653
H       -0.96417378       2.41939769       3.02199733      -0.26319974       0.68322051      -0.04073456
H       -1.20126328       3.36837930      -0.71521337       0.37672719      -0.38382412       0.14738457
H        0.44543644       3.55778593      -1.21421225       0.77526433       0.68631214      -0.19993794
H       -0.66712019       2.55225867      -2.17418654       0.40140651      -0.01438164       0.44949214
