18
Properties=species:S:1:pos:R:3:forces:R:3 id=42064 bond=N-N smiles="[H:15][C:7]([H:16])([C:5]([H:11])([H:12])[Br:1])[N:4]([C:8]([H:17])([H:18])[C:6]([H:13])([H:14])[Br:2])[N:3]([H:9])[H:10]" dataset=PubChem energy=-147387.5368298694 pbc="F F F"
Br      -1.40328645      -1.11406480       2.24449859       0.12585851       0.99784902      -0.06314401
Br       1.43834842       0.37981627      -2.85496487      -0.08812769      -0.48891020       0.16993968
N        0.53529266       2.08525136      -0.16443318      -0.81748467       3.95367745      -3.14805449
N        0.64099921       0.96905414       0.47539192       0.72655118      -4.78900686       3.93557442
C       -0.99663376       0.84528286       2.25755725      -0.33907883       0.78895327       0.54267663
C        1.02084577      -0.67784737      -1.24982097       0.95335058      -1.38653409       0.30151716
C        0.46904189       1.10625810       1.93415222      -0.80173126      -0.64184326      -0.86258284
C        1.57089639      -0.06561720       0.02905075      -0.65000027       0.84686017      -0.07026360
H        1.37746886       2.65491095      -0.13442015       0.17042525       0.13384876      -0.48353711
H        0.21110083       1.92577496      -1.13222545       0.40806792       0.58256506       0.94887634
H       -1.22428345       1.24316664       3.27277813      -0.10477206      -0.63578709      -0.71558625
H       -1.63778447       1.36333800       1.50233100       0.49588404      -0.74843579       0.69593379
H       -0.05226731      -0.86221217      -1.20485225       0.17390358       0.43255262      -0.00253512
H        1.50010097      -1.67545711      -1.31485429      -0.17259729       0.67359496      -0.68329133
H        1.09411580       0.44442813       2.52746663       0.13571754      -0.21413009      -0.29922357
H        0.72138022       2.10493291       2.24956904       0.01246511       0.58863453       0.02786596
H        1.59344411      -0.83211826       0.80014203      -0.12625188      -0.10448936      -0.09704541
H        2.60331321       0.29655988      -0.09409370      -0.10268351       0.01024536      -0.19316797
