18
Properties=species:S:1:pos:R:3:forces:R:3 id=42064 bond=N-N smiles="[H:15][C:7]([H:16])([C:5]([H:11])([H:12])[Br:1])[N:4]([C:8]([H:17])([H:18])[C:6]([H:13])([H:14])[Br:2])[N:3]([H:9])[H:10]" dataset=PubChem energy=-147387.59428057156 pbc="F F F"
Br      -1.39447757      -1.20708124       2.29781735       0.12433654       0.98856691      -0.06337989
Br       1.44715730       0.28679983      -2.80164611      -0.10099311      -0.50161467       0.22020659
N        0.52648378       2.17826780      -0.21775194      -0.30670412      -1.80186683       1.11425643
N        0.64980809       0.87603770       0.52871068       0.12773915       1.30724542      -0.22847779
C       -0.98782488       0.75226642       2.31087601      -0.37597907       0.78196185       0.51308882
C        1.02965465      -0.77086381      -1.19650221       0.94813203      -1.38986034       0.31812126
C        0.47785077       1.01324166       1.98747098      -0.77701954      -0.00439575      -1.18339000
C        1.57970527      -0.15863364       0.08236951      -0.60870673       1.31406698      -0.47313471
H        1.36865998       2.74792739      -0.18773891       0.11049170      -0.49810546      -0.18101744
H        0.20229195       2.01879140      -1.18554421       0.56668859      -0.08925116       1.13477032
H       -1.21547457       1.15015020       3.32609689      -0.08481419      -0.63982162      -0.70688084
H       -1.62897559       1.27032156       1.55564976       0.50992864      -0.76407430       0.70144489
H       -0.04345843      -0.95522861      -1.15153349       0.18569056       0.44913093       0.00268473
H        1.50890985      -1.76847355      -1.26153553      -0.15625408       0.65874838      -0.68821199
H        1.10292468       0.35141169       2.58078539       0.18295517      -0.20885650      -0.35671340
H        0.73018910       2.01191647       2.30288780      -0.02881342       0.55185903       0.09618941
H        1.60225299      -0.92513470       0.85346079      -0.18405384      -0.05121314      -0.03343439
H        2.61212209       0.20354344      -0.04077494      -0.13256287      -0.09910419      -0.18104218
