18
Properties=species:S:1:pos:R:3:forces:R:3 id=42064 bond=N-N smiles="[H:15][C:7]([H:16])([C:5]([H:11])([H:12])[Br:1])[N:4]([C:8]([H:17])([H:18])[C:6]([H:13])([H:14])[Br:2])[N:3]([H:9])[H:10]" dataset=PubChem energy=-147363.09611120983 pbc="F F F"
Br      -1.42266598      -0.90942865       2.12719732       0.11904140       1.00791498      -0.04989978
Br       1.41896889       0.58445242      -2.97226614      -0.02752691      -0.43333734       0.07700943
N        0.55467219       1.88061521      -0.04713191     -14.82031649     126.09491227     -77.71757362
N        0.62161968       1.17369029       0.35809065      11.66950520    -128.24264624      78.60515878
C       -1.01601329       1.04991901       2.14025598      -0.01961998       0.77829707       0.44016035
C        1.00146624      -0.47321122      -1.36712224       0.84332648      -1.04910078       0.24849711
C        0.44966236       1.31089425       1.81685095      -1.14079026      -3.24822824       3.43448703
C        1.55151686       0.13901895      -0.08825052       0.97796272      -3.39968750       0.80787274
H        1.39684839       2.45027480      -0.01711888       3.11386675       4.84214228      -1.75360706
H        0.23048036       1.72113881      -1.01492418      -0.90435245       3.04813309      -2.53836432
H       -1.24366298       1.44780279       3.15547686      -0.17708569      -0.61193956      -0.78438696
H       -1.65716400       1.56797415       1.38502973       0.38370504      -0.64306267       0.63528596
H       -0.07164684      -0.65757602      -1.32215352       0.06634694       0.34432716      -0.04035996
H        1.48072144      -1.47082096      -1.43215556      -0.26262963       0.76135348      -0.60477346
H        1.07473627       0.64906428       2.41016536       0.01287293      -0.22191402       0.05547553
H        0.70200069       2.30956906       2.13226777       0.25817470       0.75854772      -0.48699443
H        1.57406458      -0.62748211       0.68284076       0.04320481      -0.33971696      -0.19968190
H        2.58393368       0.50119603      -0.21139497      -0.13590460       0.55308955      -0.12183430
