18
Properties=species:S:1:pos:R:3:forces:R:3 id=42064 bond=N-N smiles="[H:15][C:7]([H:16])([C:5]([H:11])([H:12])[Br:1])[N:4]([C:8]([H:17])([H:18])[C:6]([H:13])([H:14])[Br:2])[N:3]([H:9])[H:10]" dataset=PubChem energy=-147384.9801633964 pbc="F F F"
Br      -1.37157448      -1.44892397       2.43644612       0.13243022       0.98646705      -0.05521620
Br       1.47006039       0.04495710      -2.66301734      -0.12634553      -0.48469478       0.35049049
N        0.50358069       2.42011053      -0.35638071      -0.70082462      -1.63254396       2.26825963
N        0.67271118       0.63419497       0.66733945      -0.52905229       1.14710108      -0.98668159
C       -0.96492179       0.51042369       2.44950478      -0.44924132       0.76326927       0.34000276
C        1.05255774      -1.01270654      -1.05787344       0.89153693      -1.26853016       0.30083965
C        0.50075386       0.77139893       2.12609975      -0.43887873       0.56369536      -1.24472294
C        1.60260836      -0.40047637       0.22099828      -0.36063479       1.70219287      -0.83608745
H        1.34575689       2.98977012      -0.32636768       0.37355930      -0.79561232      -0.14401386
H        0.17938886       2.26063413      -1.32417298       0.83063479      -0.77472772       0.84158974
H       -1.19257148       0.90830747       3.46472566      -0.03183098      -0.64018824      -0.70803585
H       -1.60607250       1.02847883       1.69427853       0.52187373      -0.77616363       0.69709813
H       -0.02055534      -1.19707134      -1.01290472       0.18875179       0.46604161       0.00913739
H        1.53181294      -2.01031628      -1.12290676      -0.14027805       0.64528605      -0.65654853
H        1.12582777       0.10956896       2.71941416       0.28994844      -0.18724735      -0.31142492
H        0.75309219       1.77007374       2.44151657      -0.06276298       0.53873647       0.12809375
H        1.62515608      -1.16697743       0.99208956      -0.21340559      -0.03821135       0.12637312
H        2.63502518      -0.03829929       0.09785383      -0.17389852      -0.21426766      -0.11463686
