19
Properties=species:S:1:pos:R:3:forces:R:3 id=4685 bond=C-S smiles="[H:8][C:3]([H:9])([H:10])[S:1][C:5]([H:14])([H:15])[C:7]([H:18])([H:19])[C:6]([H:16])([H:17])[S:2][C:4]([H:11])([H:12])[H:13]" dataset="DES370K Monomers" energy=-27057.921765981337 pbc="F F F"
S       -2.14145562      -1.64751474       0.45565497      -0.56709942      -0.18098954      -0.57889592
S        1.69760760       1.09487835      -0.78492507       0.66860770       0.12978946       1.13112784
C       -2.41967913      -0.96398256      -1.19779281      -1.50415919       0.44247159       0.24005062
C        3.41421124       1.65297095      -0.35610308       0.67509296      -0.92726051      -1.70947457
C       -0.46804649      -1.05462583       0.61615715       1.07185319      -2.31586751      -0.52446752
C        0.99744591       1.09514764       0.91756818      -1.66677589       0.06217129      -0.73308330
C       -0.44119969       0.33237705       0.98494891       0.27362019       5.18967422       0.61372257
H       -3.50671336      -0.90900001      -1.35244051       0.24593140       0.10839539       0.24730919
H       -2.09018585      -1.57270781      -2.00889078       0.76015276      -0.54687660      -0.30022685
H       -2.04318878       0.05391120      -1.29867950       0.08565367      -0.16842161       0.08796651
H        3.98896619       1.33750895      -1.31571039      -0.70785713       0.78355977       1.76547977
H        3.48719879       2.73858562      -0.21489013      -0.12412561      -0.39503383      -0.07989748
H        3.88222977       1.12426201       0.50684324      -0.66768106       0.25544848      -0.66848457
H        0.01067746      -1.21419486      -0.38992309       0.04492257      -0.30309754       1.35324367
H       -0.03979001      -1.60214444       1.50108579       0.08777499      -0.06588487      -1.45507731
H        0.92579647       2.16299478       1.23030129      -0.30325696      -0.92305370      -0.08908527
H        1.69786927       0.61025742       1.56487575       0.39904167      -0.41012435       0.34218889
H       -1.18563822       0.97253731       0.33279825       1.38102446      -1.15889461       1.49675081
H       -0.71928785       0.38150132       2.07353846      -0.15051011       0.42612980      -1.13784006
