40
Properties=species:S:1:pos:R:3:forces:R:3 id=10254 bond=C-N smiles="[H:18][c:1]1[c:2]([c:4]([c:6]([c:5]([c:3]1[H:20])[H:22])[N:9]([H:24])[C:17]2([C:15]([C:13]([N:8]([C:14]([C:16]2([H:38])[H:39])([H:34])[H:35])[C:12]([H:30])([H:31])[C:11]([H:28])([H:29])[N:7]([H:23])[C:10]([H:25])([H:26])[H:27])([H:32])[H:33])([H:36])[H:37])[H:40])[H:21])[H:19]" dataset=PubChem energy=-19373.282678055348 pbc="F F F"
C        4.13371542       3.18275936       4.66062274      -1.84904982      -0.22593804       0.00193703
C        2.76210097       3.30471333       5.02429047       0.35493119      -0.74403364      -1.26778606
C        4.49334124       2.55711027       3.48003450      -1.31001566      -0.16463336      -0.34816805
C        1.79145721       2.80945690       4.13244762       0.99129319       0.43222947       1.42495449
C        3.51046828       2.07201310       2.58938160      -0.47887593       0.73457890       1.08748314
C        2.14573065       2.23565872       2.90882602      -0.33483261      -0.18530983      -0.53544965
N       -1.53339525      -1.06623486      -2.49123010      -0.59535688      -2.01736173      -2.93837457
N       -1.24517210       0.05564984       0.09222891      -0.63418506      -1.07700695      -0.41985219
N        1.08473609       1.87414082       2.06581428      -0.16943366       0.01278919      -0.26317249
C       -0.79402482      -2.24392680      -3.99627052      -0.09872338       1.79730784       2.24517758
C       -2.18128963      -1.77183930      -1.34643135       1.41879996      -0.36390470      -1.80723423
C       -2.44046231      -0.79143635      -0.23432318       0.71634385       1.45526664       0.81496687
C       -1.36115500       1.51332744       0.25846705       1.12776846      -0.73463200      -0.79521665
C       -0.21239444      -0.58756105       0.93330341      -0.35945593       0.86713809      -0.73514949
C        0.01479847       2.12238057      -0.15456972      -0.68583522      -0.52924282       1.20301113
C        1.13835076      -0.04312210       0.51469430       0.19577150       0.21167969      -0.73060349
C        1.16530470       1.49547668       0.64843788       0.23581840      -0.46650321       0.08327368
H        4.86723402       3.50950154       5.33758679       0.86802558       0.43967672       0.64476404
H        2.45461634       3.75014957       5.97547092       0.21429031      -0.20615578      -0.43796090
H        5.53041199       2.43469043       3.25361886       0.39731852      -0.09256309      -0.19786622
H        0.75901977       2.81405934       4.44966497      -0.14926373       0.18914961      -0.21550842
H        3.77070311       1.57911547       1.68481293       0.29370323      -0.24295421      -0.52251153
H       -0.82250472      -0.44014446      -2.14283642       0.56929744      -0.47045590      -0.06121301
H        0.14792231       1.77749022       2.48068526       1.20238681       0.30057144      -0.29386475
H        0.02229227      -2.87575177      -3.64124189      -0.32010401       0.21638419       0.44717074
H       -1.56519675      -2.84119776      -4.45177064      -0.70381090       0.05353567       0.56883843
H       -0.39653944      -1.59591011      -4.77997289      -0.24322543       0.47966241       0.61470990
H       -3.12504073      -2.25927917      -1.66314778       0.52092486       0.37197167       0.11440921
H       -1.49127730      -2.55480472      -1.01583788      -0.27731032      -0.16476902       0.39050045
H       -2.73401757      -1.39172164       0.62839679      -0.24567052       0.16106629       0.24211467
H       -3.24583050      -0.09281335      -0.48809955       0.09881804      -0.31253749      -0.02187706
H       -1.61141726       1.83369418       1.26901331      -0.00091292      -0.10108524       0.45139368
H       -2.14752170       1.93045576      -0.36605165      -0.00463047      -0.31132272      -0.20252167
H       -0.42679157      -0.37557666       1.97588637       0.10594732      -0.11837636       0.48418817
H       -0.14754876      -1.66214005       0.80137675      -0.62073974      -0.10539597      -0.12932065
H        0.00713265       3.16813954       0.05550101      -0.00027829       0.85374955       0.17616489
H        0.22205562       2.01844366      -1.20352265      -0.18734174      -0.36494960      -0.48772920
H        1.93870071      -0.50341229       1.09746572      -0.01372444       0.16395020       0.01374468
H        1.27554551      -0.33487944      -0.55418644       0.02260805       0.25092131       0.71070609
H        2.07867220       1.87148126       0.16587052      -0.04936721       0.00699687       0.69076649
