40
Properties=species:S:1:pos:R:3:forces:R:3 id=10254 bond=C-N smiles="[H:18][c:1]1[c:2]([c:4]([c:6]([c:5]([c:3]1[H:20])[H:22])[N:9]([H:24])[C:17]2([C:15]([C:13]([N:8]([C:14]([C:16]2([H:38])[H:39])([H:34])[H:35])[C:12]([H:30])([H:31])[C:11]([H:28])([H:29])[N:7]([H:23])[C:10]([H:25])([H:26])[H:27])([H:32])[H:33])([H:36])[H:37])[H:40])[H:21])[H:19]" dataset=PubChem energy=-19375.021623087905 pbc="F F F"
C        4.19800850       3.08035136       4.52974966      -1.84944569      -0.22592875       0.00151390
C        2.82639405       3.20230533       4.89341739       0.35513284      -0.74394722      -1.26762366
C        4.55763432       2.45470227       3.34916142      -1.30946384      -0.16468693      -0.34791116
C        1.85575029       2.70704890       4.00157454       0.99063736       0.43203086       1.42391230
C        3.57476136       1.96960510       2.45850852      -0.47979999       0.73456576       1.08759288
C        2.21002373       2.13325072       2.77795294      -0.33112232      -0.18434886      -0.53315317
N       -1.46910217      -1.16864286      -2.62210318      -0.17836747      -2.14783360      -2.76927477
N       -1.18087902      -0.04675816      -0.03864417      -0.63651742      -1.09541205      -0.42930423
N        1.14902917       1.77173282       1.93494120      -0.17180342       0.00984764      -0.26707140
C       -0.85831790      -2.14151880      -3.86539744      -0.48411519       2.23470684       2.72402290
C       -2.11699655      -1.87424730      -1.47730443       1.28966255      -0.00212667      -1.76867628
C       -2.37616923      -0.89384435      -0.36519626       0.68803903       1.35242082       0.83554016
C       -1.29686192       1.41091944       0.12759397       1.12829006      -0.73705424      -0.79758655
C       -0.14810136      -0.68996905       0.80243033      -0.36390192       0.87195837      -0.73082452
C        0.07909155       2.01997257      -0.28544280      -0.68706568      -0.52906093       1.20505026
C        1.20264384      -0.14553010       0.38382122       0.19435267       0.21108928      -0.72279040
C        1.22959778       1.39306868       0.51756480       0.23651992      -0.46300377       0.08348792
H        4.93152710       3.40709354       5.20671371       0.86793368       0.43963702       0.64465657
H        2.51890942       3.64774157       5.84459784       0.21428952      -0.20625181      -0.43809303
H        5.59470507       2.33228243       3.12274578       0.39716700      -0.09257603      -0.19782587
H        0.82331285       2.71165134       4.31879189      -0.14921744       0.18916196      -0.21541662
H        3.83499619       1.47670747       1.55393985       0.29403417      -0.24296092      -0.52252026
H       -0.75821164      -0.54255246      -2.27370950       0.21017186      -0.32187456       0.01394865
H        0.21221539       1.67508222       2.34981218       1.20212229       0.30039782      -0.29408743
H       -0.04200081      -2.77334377      -3.51036881      -0.19239667      -0.01880982       0.17024799
H       -1.62948983      -2.73878976      -4.32089756      -0.49278104      -0.08796479       0.31491081
H       -0.46083252      -1.49350211      -4.64909981      -0.14748510       0.20614343       0.38186673
H       -3.06074765      -2.36168717      -1.79402086       0.51173855       0.35598869       0.11727700
H       -1.42698422      -2.65721272      -1.14671096      -0.22311721      -0.21232320       0.36121609
H       -2.66972449      -1.49412964       0.49752371      -0.24176521       0.18384669       0.25883007
H       -3.18153742      -0.19522135      -0.61897263       0.10028591      -0.31727875      -0.02643117
H       -1.54712418       1.73128618       1.13814023      -0.00056954      -0.10103751       0.45085155
H       -2.08322862       1.82804776      -0.49692473      -0.00458607      -0.31210176      -0.20243608
H       -0.36249849      -0.47798466       1.84501329       0.10862479      -0.12046155       0.48369270
H       -0.08325568      -1.76454805       0.67050367      -0.62093418      -0.10671477      -0.12685892
H        0.07142573       3.06573154      -0.07537207       0.00056630       0.85365899       0.17577296
H        0.28634870       1.91603566      -1.33439573      -0.18711322      -0.36401796      -0.48829481
H        2.00299379      -0.60582029       0.96659264      -0.01325003       0.16383273       0.01215214
H        1.33983859      -0.43728744      -0.68505952       0.02595864       0.25142919       0.70794434
H        2.14296528       1.76907326       0.03499744      -0.04901390       0.00701834       0.69116912
