31
Properties=species:S:1:pos:R:3:forces:R:3 id=39691 bond=C-C smiles="[H:30][C@@:14]12[C@:15]([C@@:13]([C@:11]([O:3][C@@:12]1([O:2][C:9]([O:5]2)([C:8]([H:21])([H:22])[H:23])[O:1][C:7]([H:18])([H:19])[H:20])[H:28])([H:27])[C:10]([H:24])([H:25])[H:26])([H:29])[O:4][H:16])([H:31])[O:6][H:17]" dataset=PubChem energy=-21887.68829061989 pbc="F F F"
O        0.07331861       1.49208490      -1.46244928      -1.43911821       1.62539507       0.21819945
O       -0.24692762       1.19960842       0.78728053       0.44293944       0.04763366       0.64024603
O        0.55376482      -0.22300919       2.60811808       0.59088557       2.79346836       0.79653459
O        3.19359661      -1.64615198       2.17613139       0.17476903       1.05305651      -0.31477007
O        1.80253494       1.92291490       0.02921620      -2.23311085       1.33738964      -0.73504093
O        1.46983505      -0.67297777      -1.00112638       1.16888183       0.50552006       2.63004074
C       -1.35849559       1.61005524      -1.85772631      -0.06808425      -2.39743767       1.22995659
C       -0.21100070       3.68889761       0.07027169       0.28463777      -2.37498643      -0.93693701
C        0.36506991       2.00425927      -0.16859785      -0.82022942       3.08275019      -0.09884468
C       -0.59195995      -1.72931143       1.31516680       1.53983970      -2.12441341      -1.89774695
C        0.73818751      -1.51723476       2.05253818      -0.49430064       0.21584418      -1.88589958
C        0.75472112       0.99735896       1.81318047      -1.19747916      -1.56223680       1.76207364
C        2.09936667      -1.54883643       1.22791508      -1.96239337      -3.37317546       1.89056389
C        1.96693350       0.95286606       1.00721633       1.83008483      -1.86897326      -1.11394879
C        2.23699284      -0.41304340       0.28758021      -0.61894105       0.39654852      -1.24577991
H        3.00167537      -2.21475621       2.93579271      -0.37128995       0.31289341      -0.66950478
H        0.86505718       0.08653984      -1.18597826       0.75411488      -0.74368687       0.13630700
H       -1.75081252       0.52598677      -1.94511125       0.67508725       1.84940275      -0.08205098
H       -1.55750774       2.17190019      -2.75305435       0.76071152       0.04009608      -0.51462161
H       -1.96127176       2.08172754      -1.08425543       0.33443881      -0.08047148       0.22873368
H        0.46742487       4.20847679       0.74423265      -0.16697599      -0.33977321       0.14709347
H       -1.28012188       3.74906922       0.37429314       0.96116152      -0.58246380       0.35222886
H       -0.22522422       4.23852468      -0.86494909       0.50810828      -0.22390851      -0.35043070
H       -0.48120045      -1.51560350       0.27805385       0.15103008       0.91907410      -0.79059712
H       -0.86138009      -2.76924344       1.19207099      -0.11351062      -0.56371425       0.71363751
H       -1.40197157      -1.18650683       1.68542292      -0.92830286       0.81211266       0.94779623
H        0.77167533      -2.35114618       2.78507283       0.35896204       1.27514646       0.44315598
H        0.77447408       1.89045052       2.51614025      -0.36969438      -1.43214811      -0.52848071
H        2.15160263      -2.52299758       0.69192481      -0.45471304       0.80731956      -0.19047634
H        2.84050298       1.14699964       1.61256149       0.20644698       0.24146710       0.04922991
H        3.29112316      -0.42677011       0.08745971       0.49670551       0.35304971      -0.83249429
