11
Properties=species:S:1:pos:R:3:forces:R:3 id=38190 bond=C-P smiles="[H:11][O:7][P:8]([C:9]([F:1])([F:2])[F:3])[C:10]([F:4])([F:5])[F:6]" dataset=PubChem energy=-29739.265736023575 pbc="F F F"
F       -2.07659621       0.23061488       1.45348204       1.68771427      -0.11637271       0.58851560
F       -0.35629792       0.57107083       2.85612393      -0.88558663      -0.95550762      -0.90819113
F       -0.43642301      -1.27159534       1.60449124      -0.52054399       1.40367597       0.72064878
F        2.38735174      -0.32877418       1.11996034      -0.08536554       0.21905433       0.08531462
F        2.83373021       1.53361300       0.05578569       0.03401032      -0.70619920      -0.52347244
F        2.24980473      -0.31376991      -1.01717945       0.61657006       0.50545202      -0.31537698
O       -0.36963285       2.03277436      -0.76620540       0.10703677       0.03465133       0.98347394
P        0.28968190       0.91525433       0.24890240      -1.27875143      -0.34200416       1.12538155
C       -0.73731596       0.06314255       1.65826715       0.51684154       0.16718126      -1.51490853
C        2.03768419       0.43634880       0.07723371      -0.17156986       0.03466247       0.49180412
H        0.09184425       2.02933493      -1.59737512      -0.01224004      -0.24074308      -0.74022095
