11
Properties=species:S:1:pos:R:3:forces:R:3 id=38190 bond=C-P smiles="[H:11][O:7][P:8]([C:9]([F:1])([F:2])[F:3])[C:10]([F:4])([F:5])[F:6]" dataset=PubChem energy=-29734.58596042261 pbc="F F F"
F       -1.92988223       0.35234513       1.25214422      -0.29691802      -0.10576190       1.11691893
F       -0.20958394       0.69280108       2.65478611      -1.10132781      -1.20293260       3.18137569
F       -0.28970903      -1.14986509       1.40315342      -0.45705219      -1.53883757       2.26722779
F        2.24063776      -0.45050443       1.32129816       0.11700151       0.30880079       0.00449409
F        2.68701623       1.41188275       0.25712351       0.01344736      -0.67477209      -0.49154535
F        2.10309075      -0.43550016      -0.81584163       0.53833023       0.48369336      -0.28819305
O       -0.51634683       1.91104411      -0.56486758       0.35100542       0.01691389       1.03636675
P        0.14296792       0.79352408       0.45024022      14.15317394      12.99242787     -22.07563153
C       -0.59060198       0.18487280       1.45692933     -13.25752432     -10.19249014      15.48458530
C        1.89097021       0.31461855       0.27857153      -0.09011750       0.08379570       0.44362494
H       -0.05486973       1.90760468      -1.39603730       0.00846231      -0.16417449      -0.68207667
