26
Properties=species:S:1:pos:R:3:forces:R:3 id=10520 bond=N-O smiles="[H:24][c:14]1[c:12]([c:15]([c:13]([c:16]([c:18]1[c:11]2[c:17]([c:10]([n:5][c:9]([n:6]2)[N:19]([H:25])[H:26])[Cl:1])/[C:8](=[N:4]/[O:7][H:20])/[H:21])[Cl:3])[H:23])[Cl:2])[H:22]" dataset=PubChem energy=-57104.54792120681 pbc="F F F"
Cl      -1.41945699       4.25795400       1.27859476       0.12331127      -1.37921048       0.20685754
Cl       5.14516325      -2.44200027      -0.40399417      -1.53677732       0.36176927      -0.13123758
Cl       2.07568058       0.63514701       2.86387375      -0.36069759      -1.40538710      -1.04153923
N        0.75558597       3.69380247      -0.89432761     -38.52504304     -21.27267282      31.50680515
N       -2.24940423       1.74109864       1.80163744       2.15737567       0.31658941      -1.09466702
N       -0.97628299      -0.24536217       1.21747198      -0.04945901       0.85088290      -0.66487218
O        1.50650140       3.99855344      -1.43752192      38.46124522      18.05311678     -29.47825082
C        0.98265393       2.63069307      -0.09671566      -3.41558808       0.66837431       0.43187255
C       -2.04842166       0.40442103       1.72370460      -0.63652849      -1.48707539      -0.13098936
C       -1.22026030       2.50099897       1.22729012      -2.24837057      -2.20401931       0.44704924
C       -0.07229523       0.49745030       0.55399914      -0.61702242      -0.65506695       3.48715623
C        2.53973230      -1.49552668      -1.14183220       1.28643192       0.00331416      -0.11909618
C        3.32519766      -1.15126300       1.16940007      -1.93397023       0.07998399      -1.87008598
C        1.44538071      -0.63509798      -0.99891493       1.52880821      -0.57541428       2.15346340
C        3.54323550      -1.66821325      -0.13847909      -1.04380912       0.35947443       0.87776989
C        2.11123713      -0.46119285       1.41665223       0.78834342       1.12753661      -1.52382925
C       -0.16096364       1.86883688       0.55980271       1.29906673       3.57851299      -1.08760581
C        1.21614458      -0.19840176       0.32503434      -0.13890323      -0.06244454      -0.60090726
N       -3.05670599      -0.52668679       2.18422797       1.21534346       2.97587547      -0.36054654
H        1.15338274       4.68039743      -2.00691341       1.38978896       1.75566772      -1.76483655
H        1.93957968       2.19934022       0.01168918       1.14988146      -0.13297199      -0.32102704
H        2.61201664      -2.00937236      -2.08192822       0.61940383       0.02963647      -0.30640523
H        4.00191661      -1.31752849       1.95520320       0.88733113       0.04110194       0.65744134
H        0.89871185      -0.24407989      -1.86486384      -0.14230196      -0.64483673       0.65970185
H       -2.86363724      -1.49326146       1.92765406      -0.52212371       0.76683639      -0.11443697
H       -3.96013097      -0.05547846       2.10067442       0.25934243      -1.15353416       0.18069023
