18
Properties=species:S:1:pos:R:3:forces:R:3 id=18678 bond=C-N smiles="[H:12][c:3]1[c:2]([c:4]([c:6]([n+:8]([c:5]1[H:13])[N-:1][H:10])[N:7]([H:14])[H:15])[C:9]([H:16])([H:17])[H:18])[H:11]" dataset=PubChem energy=-10844.004794807599 pbc="F F F"
N        3.14780797      -0.11784770       0.80068286       1.07212464       2.02839650      -0.86764171
C       -0.90141473      -0.19105615       0.90096807      -0.09501078      -1.56000797       0.15774732
C       -0.16122191      -1.35200949       1.27674019       0.84932531       1.24514026      -0.55133155
C       -0.29598658       0.94620620       0.40543593       0.39341028      -0.96191167       0.64003799
C        1.22723462      -1.26566573       1.18188315      -3.48176377      -0.51251679       0.46285013
C        1.11418565       0.97013925       0.34545339      -1.17593938       0.62149585      -0.71783527
N        1.77621641       2.08433246      -0.13120026       0.84869795      -0.35382731       0.07145105
N        1.80268909      -0.11687668       0.76991200       2.41719969      -1.26645154       1.03149956
C       -1.10509728       2.11776285      -0.03470880      -0.37712837       0.10491663       1.09422674
H        3.54632224      -0.78602774       1.46539819      -1.04290552       0.03617606      -0.36730779
H       -1.98266778      -0.27273400       0.92898013       0.09887181       0.26607627       0.01482870
H       -0.62150822      -2.29409345       1.56865990       0.02574223       0.45045347       0.00863363
H        1.83692683      -2.11240609       1.46796530       0.30141708       0.48381375      -0.28936782
H        2.78074374       1.96416294      -0.26725096      -0.53918112      -0.05408267       0.15703877
H        1.30715295       2.74629486      -0.75181228       0.19385931      -0.81239157       0.58094099
H       -2.18223010       1.94108336       0.13753756       0.62263965       0.05982275      -0.15294802
H       -0.93380175       2.26486163      -1.07355476      -0.03646568       0.44170760      -0.97142549
H       -0.81681882       3.02151815       0.52449392      -0.07517731      -0.21616450      -0.30212157
