18
Properties=species:S:1:pos:R:3:forces:R:3 id=18678 bond=C-N smiles="[H:12][c:3]1[c:2]([c:4]([c:6]([n+:8]([c:5]1[H:13])[N-:1][H:10])[N:7]([H:14])[H:15])[C:9]([H:16])([H:17])[H:18])[H:11]" dataset=PubChem energy=-10843.490693210913 pbc="F F F"
N        3.18518067      -0.05494969       0.77377499       1.37438396       2.12835100      -0.95636570
C       -0.86404203      -0.12815814       0.87406020      -0.01945521      -1.42665707       0.06675740
C       -0.12384921      -1.28911148       1.24983232       0.80427630       1.09757622      -0.47686743
C       -0.25861388       1.00910421       0.37852806      -0.31237966      -1.48640721       0.88687389
C        1.26460732      -1.20276772       1.15497528      -3.42907194      -0.33424858       0.37268033
C        1.15155835       1.03303726       0.31854552      -5.42212737      -6.32653283       2.52495247
N        1.73884371       2.02143445      -0.10429239       5.44038268       7.04587453      -3.64962582
N        1.84006179      -0.05397867       0.74300413       1.82254905      -2.10562247       1.36243576
C       -1.06772458       2.18066086      -0.06161667      -0.30081629       0.06583649       1.12847061
H        3.58369494      -0.72312973       1.43849032      -1.01802253       0.13936106      -0.35897991
H       -1.94529508      -0.20983599       0.90207226       0.08713428       0.25721928       0.02177597
H       -0.58413552      -2.23119544       1.54175203       0.02460607       0.45482789       0.00427144
H        1.87429953      -2.04950808       1.44105743       0.29633848       0.47216884      -0.28687872
H        2.74337104       1.90126493      -0.24034309      -0.18998538       0.15899944       0.18246320
H        1.26978025       2.68339685      -0.72490441       0.35623766      -0.50706010       0.65123121
H       -2.14485740       2.00398137       0.11062969       0.63856710       0.06330605      -0.16103980
H       -0.89642905       2.32775964      -1.10046263      -0.05912439       0.47106283      -1.01825800
H       -0.77944612       3.08441616       0.49758605      -0.09366647      -0.16902126      -0.29366301
