35
Properties=species:S:1:pos:R:3:forces:R:3 id=36904 bond=C-O smiles="[H:17][c:2]1[c:3]([c:5]([c:7]([c:6]([c:4]1[H:19])[H:21])[C:13]([H:34])([C:14]2([C:11]([C:15]2([C:10]([H:28])([H:29])[H:30])[C:12]([H:33])([C:8]([H:22])([H:23])[H:24])[O:1][H:16])([H:31])[H:32])[H:35])[C:9]([H:25])([H:26])[H:27])[H:20])[H:18]" dataset=PubChem energy=-16898.305315246336 pbc="F F F"
O       -2.90197190      -0.52893690       2.89166029       1.39869785       0.59469342      -2.36280183
C        1.95674063       0.99753660      -3.69240620       0.53881164      -0.51719740       0.74540771
C        0.99216122       1.90786751      -3.26523569       0.38931644      -0.16403892       0.83700746
C        2.76279391       0.31906911      -2.74142888      -0.73836904       1.01134744      -0.65731146
C        0.85630170       2.19618138      -1.88960603       0.75003674      -0.89148602       0.25197562
C        2.65131904       0.63471478      -1.38557973      -0.55803458      -0.21372648      -0.68549773
C        1.68943752       1.53775951      -0.92579499      -0.86759373       0.44137082      -2.27844474
C       -1.28378855      -0.32737068      -0.10221726      -1.64980176      -0.42119218       1.05509157
C        2.76136268       2.75477597       0.93108996      -1.00853900       0.58874099       0.15088362
C        0.47435234      -1.64474419       2.02030238      -0.31414278      -0.40925645      -0.14005046
C        0.96238956       0.78897495       2.87791869       0.72790848      -0.93193054      -0.64995216
C       -1.11619960       0.25098773       1.29811177       2.35365868       0.43596209      -0.55478555
C        1.54703547       1.86787411       0.50587508       1.01378834       0.12448994       1.49944012
C        1.52263827       0.65617952       1.44743368      -1.01898350       0.94942927       0.62652057
C        0.26366086      -0.13101241       1.84083590      -0.61500192      -0.28888689       1.54622523
H       -2.56898817      -0.46597646       3.78476293       0.58094616       0.22052998       0.22016292
H        2.11215545       0.80493963      -4.75717237      -0.22251559      -0.00633030       0.43274297
H        0.36086030       2.34813126      -4.01915767      -0.13763143       0.30573600       0.13840184
H        3.45569385      -0.42491701      -3.11525658       0.08549700       0.10860027       0.28139730
H        0.11069096       2.90496966      -1.51369909       0.25461079      -0.30240346      -0.32461026
H        3.27244891       0.11763498      -0.68423561       0.25930571      -0.16127128       0.27951514
H       -0.32563089      -0.22613421      -0.65166035      -0.64448608       0.16516248       0.35379933
H       -1.49552475      -1.38759068       0.03555833       0.07215976      -0.09115319      -0.35343772
H       -2.15690361       0.11577144      -0.61961660       0.76694913      -0.18581789       0.13886301
H        3.67901815       2.25274476       0.68039927       0.38427918      -0.20124831       0.06224198
H        2.70636154       2.96110483       2.00535902       0.16916914      -0.16753065      -0.18386822
H        2.76288534       3.73415753       0.42476122      -0.09206233      -0.49252091       0.00780582
H        0.46789758      -2.19469956       1.04965648       0.03350125       0.55912762       0.61175819
H       -0.35646652      -2.06660846       2.62422296       0.54791116       0.31977766      -0.28618306
H        1.43734510      -1.88246540       2.51092383      -0.52952719       0.31753031      -0.21141983
H        1.53940071       0.30868330       3.69144508      -0.47315477       0.13920035      -0.74216198
H        0.55855642       1.73948404       3.21370360      -0.34509844      -0.16798339      -0.49461575
H       -1.24148260       1.34070929       1.29359444      -0.78252983      -0.54401940       0.77314541
H        0.64063682       2.42402669       0.66543322      -0.37601581       0.34257779      -0.02117976
H        2.42509974       0.07877764       1.38195404       0.04647292      -0.46641994      -0.06531719
