35
Properties=species:S:1:pos:R:3:forces:R:3 id=36904 bond=C-O smiles="[H:17][c:2]1[c:3]([c:5]([c:7]([c:6]([c:4]1[H:19])[H:21])[C:13]([H:34])([C:14]2([C:11]([C:15]2([C:10]([H:28])([H:29])[H:30])[C:12]([H:33])([C:8]([H:22])([H:23])[H:24])[O:1][H:16])([H:31])[H:32])[H:35])[C:9]([H:25])([H:26])[H:27])[H:20])[H:18]" dataset=PubChem energy=-16897.937781409186 pbc="F F F"
O       -2.94776093      -0.54893496       2.93252051       1.23510912       0.52261280      -2.14035897
C        2.00252966       1.01753466      -3.73326642       0.53913046      -0.51679527       0.74625964
C        1.03795025       1.92786557      -3.30609591       0.38909171      -0.16409941       0.83599269
C        2.80858294       0.33906717      -2.78228910      -0.73787280       1.01064442      -0.65794876
C        0.90209073       2.21617944      -1.93046625       0.74800605      -0.89166267       0.25343114
C        2.69710807       0.65471284      -1.42643995      -0.55871233      -0.21473362      -0.68411344
C        1.73522655       1.55775757      -0.96665521      -0.86949607       0.43781394      -2.28244961
C       -1.23799952      -0.30737262      -0.14307748      -1.70113923      -0.42021044       1.08329619
C        2.80715171       2.77477403       0.89022974      -1.00699221       0.58458962       0.15557770
C        0.52014137      -1.62474613       1.97944216      -0.31010810      -0.42095472      -0.14885287
C        1.00817859       0.80897301       2.83705847       0.74551032      -0.92823840      -0.66641759
C       -1.07041057       0.27098579       1.25725155       2.73031191       0.53733014      -0.88892835
C        1.59282450       1.88787217       0.46501486       1.01214123       0.12661923       1.49479227
C        1.56842730       0.67617758       1.40657346      -0.98649901       1.01264535       0.64090010
C        0.30944989      -0.11101435       1.79997568      -0.74429732      -0.33328083       1.59822746
H       -2.61477720      -0.48597452       3.82562315       0.53993571       0.20233774       0.24182757
H        2.15794448       0.82493769      -4.79803259      -0.22259851      -0.00623051       0.43332936
H        0.40664933       2.36812932      -4.06001789      -0.13736642       0.30577690       0.13893652
H        3.50148288      -0.40491895      -3.15611680       0.08526145       0.10896690       0.28177276
H        0.15647999       2.92496772      -1.55455931       0.25460764      -0.30146362      -0.32509556
H        3.31823794       0.13763304      -0.72509583       0.26048524      -0.16163160       0.27899162
H       -0.27984186      -0.20613615      -0.69252057      -0.62849509       0.16314665       0.35784547
H       -1.44973572      -1.36759262      -0.00530189       0.07494196      -0.10012622      -0.36174085
H       -2.11111458       0.13576950      -0.66047682       0.76815309      -0.18711766       0.14075376
H        3.72480718       2.27274282       0.63953905       0.38426473      -0.20078489       0.06196502
H        2.75215057       2.98110289       1.96449880       0.16974600      -0.16656248      -0.18413893
H        2.80867437       3.75415559       0.38390100      -0.09379836      -0.49455514       0.00765365
H        0.51368661      -2.17470150       1.00879626       0.03558829       0.55867653       0.61167803
H       -0.31067749      -2.04661040       2.58336274       0.54638952       0.32274961      -0.28117990
H        1.48313413      -1.86246734       2.47006361      -0.53134254       0.31907862      -0.21211303
H        1.58518974       0.32868136       3.65058486      -0.47772797       0.13488994      -0.74559708
H        0.60434545       1.75948210       3.17284338      -0.34883690      -0.17006409      -0.49811185
H       -1.19569357       1.36070735       1.25273422      -0.82553608      -0.53488569       0.80592753
H        0.68642585       2.44402475       0.62457300      -0.37608702       0.34319245      -0.02034432
H        2.47088877       0.09877570       1.34109382       0.03792169      -0.47801174      -0.07106165
