35
Properties=species:S:1:pos:R:3:forces:R:3 id=36904 bond=C-O smiles="[H:17][c:2]1[c:3]([c:5]([c:7]([c:6]([c:4]1[H:19])[H:21])[C:13]([H:34])([C:14]2([C:11]([C:15]2([C:10]([H:28])([H:29])[H:30])[C:12]([H:33])([C:8]([H:22])([H:23])[H:24])[O:1][H:16])([H:31])[H:32])[H:35])[C:9]([H:25])([H:26])[H:27])[H:20])[H:18]" dataset=PubChem energy=-16900.329244972305 pbc="F F F"
O       -2.71118426      -0.44561162       2.72140938       2.14879332       0.89610717      -3.32482465
C        1.76595299       0.91421132      -3.52215529       0.53767469      -0.51928808       0.74155924
C        0.80137358       1.82454223      -3.09498478       0.39066791      -0.16345705       0.84270599
C        2.57200627       0.23574383      -2.57117797      -0.74080347       1.01419161      -0.65429707
C        0.66551406       2.11285610      -1.71935512       0.76009373      -0.88969263       0.24525138
C        2.46053140       0.55138950      -1.21532882      -0.55545885      -0.20793306      -0.69205380
C        1.49864988       1.45443423      -0.75554408      -0.85802533       0.45641593      -2.26090188
C       -1.47457619      -0.41069596       0.06803365      -1.27732336      -0.38176904       0.84690253
C        2.57057504       2.67145069       1.10134087      -1.01376158       0.60463348       0.13049525
C        0.28356470      -1.72806947       2.19055329      -0.32579144      -0.35490198      -0.10544730
C        0.77160192       0.70564967       3.04816960       0.65309844      -0.93434743      -0.55433189
C       -1.30698724       0.16766245       1.46836268       0.31815866      -0.07990502       1.24831680
C        1.35624783       1.78454883       0.67612599       1.01118488       0.11445893       1.52015387
C        1.33185063       0.57285424       1.61768459      -1.14496117       0.63928992       0.57671462
C        0.07287322      -0.21433769       2.01108681       0.06690376      -0.03196385       1.18318461
H       -2.37820053      -0.38265118       3.61451202       0.68775594       0.27482522       0.10075075
H        1.92136781       0.72161435      -4.58692146      -0.22211549      -0.00683444       0.43001517
H        0.17007266       2.26480598      -3.84890676      -0.13893646       0.30553889       0.13591746
H        3.26490621      -0.50824229      -2.94500567       0.08663130       0.10689617       0.27956951
H       -0.08009668       2.82164438      -1.34344818       0.25455442      -0.30742306      -0.32212459
H        3.08166127       0.03430970      -0.51398470       0.25436641      -0.15982626       0.28195885
H       -0.51641853      -0.30945949      -0.48140944      -0.74296146       0.16412739       0.30089686
H       -1.68631239      -1.47091596       0.20580924       0.05515686      -0.05366640      -0.31080173
H       -2.34769125       0.03244616      -0.44936569       0.75584414      -0.17858276       0.12407921
H        3.48823051       2.16941948       0.85065018       0.38490372      -0.20280914       0.06382896
H        2.51557390       2.87777955       2.17560993       0.16711767      -0.17124644      -0.18196577
H        2.57209770       3.65083225       0.59501213      -0.08486793      -0.48312630       0.00810192
H        0.27710994      -2.27802484       1.21990739       0.02081714       0.56325401       0.61467592
H       -0.54725416      -2.14993374       2.79447387       0.57346761       0.27677630      -0.30148776
H        1.24655746      -1.96579068       2.68117474      -0.52843250       0.30823197      -0.20264652
H        1.34861307       0.22535802       3.86169599      -0.44980220       0.15971860      -0.72465231
H        0.36776878       1.65615876       3.38395451      -0.32348743      -0.15276455      -0.47605060
H       -1.43227024       1.25738401       1.46384535      -0.43744086      -0.53256013       0.49458811
H        0.44984918       2.34070141       0.83568413      -0.37439419       0.33590031      -0.02545266
H        2.23431210      -0.00454764       1.55220495       0.09218583      -0.40854641      -0.03166905
