35
Properties=species:S:1:pos:R:3:forces:R:3 id=36904 bond=C-O smiles="[H:17][c:2]1[c:3]([c:5]([c:7]([c:6]([c:4]1[H:19])[H:21])[C:13]([H:34])([C:14]2([C:11]([C:15]2([C:10]([H:28])([H:29])[H:30])[C:12]([H:33])([C:8]([H:22])([H:23])[H:24])[O:1][H:16])([H:31])[H:32])[H:35])[C:9]([H:25])([H:26])[H:27])[H:20])[H:18]" dataset=PubChem energy=-16898.50551448668 pbc="F F F"
O       -2.87907738      -0.51893786       2.87123018       1.48787994       0.63385203      -2.48249954
C        1.93384611       0.98753756      -3.67197609       0.53860475      -0.51745923       0.74499794
C        0.96926670       1.89786847      -3.24480558       0.38950043      -0.16398979       0.83758260
C        2.73989939       0.30907007      -2.72099877      -0.73862148       1.01172021      -0.65697990
C        0.83340718       2.18618234      -1.86917592       0.75115542      -0.89149244       0.25120373
C        2.62842452       0.62471574      -1.36514962      -0.55790120      -0.21301911      -0.68615694
C        1.66654300       1.52776047      -0.90536488      -0.86647418       0.44336358      -2.27630223
C       -1.30668307      -0.33736972      -0.08178715      -1.61984932      -0.42078814       1.03874393
C        2.73846816       2.74477693       0.95152007      -1.00942823       0.59072431       0.14841980
C        0.45145782      -1.65474323       2.04073249      -0.31610049      -0.40296573      -0.13561300
C        0.93949504       0.77897591       2.89834880       0.71896877      -0.93349261      -0.64097074
C       -1.13909412       0.24098869       1.31854188       2.14562066       0.37988151      -0.36948795
C        1.52414095       1.85787507       0.52630519       1.01455899       0.12315236       1.50176643
C        1.49974375       0.64618048       1.46786379      -1.03561801       0.91596106       0.61950886
C        0.24076634      -0.14101145       1.86126601      -0.54559215      -0.26439524       1.51608084
H       -2.54609365      -0.45597742       3.76433282       0.60126424       0.22959069       0.20829339
H        2.08926093       0.79494059      -4.73674226      -0.22246394      -0.00638506       0.43239715
H        0.33796578       2.33813222      -3.99872756      -0.13779580       0.30572425       0.13808811
H        3.43279933      -0.43491605      -3.09482647       0.08565408       0.10837813       0.28117481
H        0.08779644       2.89497062      -1.49326898       0.25456525      -0.30287327      -0.32432976
H        3.24955439       0.10763594      -0.66380550       0.25874898      -0.16113619       0.27983800
H       -0.34852541      -0.23613325      -0.63123024      -0.65344426       0.16599514       0.35088440
H       -1.51841927      -1.39758972       0.05598844       0.07061830      -0.08658285      -0.34905786
H       -2.17979813       0.10577240      -0.59918649       0.76616461      -0.18509382       0.13766583
H        3.65612363       2.24274572       0.70082938       0.38437493      -0.20152644       0.06235864
H        2.68346702       2.95110579       2.02578913       0.16886787      -0.16801138      -0.18362914
H        2.73999082       3.72415849       0.44519133      -0.09118524      -0.49137594       0.00782598
H        0.44500306      -2.20469860       1.07008659       0.03231147       0.55938992       0.61180015
H       -0.37936104      -2.07660750       2.64465307       0.54940111       0.31733491      -0.28863359
H        1.41445058      -1.89246444       2.53135394      -0.52869784       0.31663735      -0.21088264
H        1.51650619       0.29868426       3.71187519      -0.47065543       0.14143544      -0.74026919
H        0.53566190       1.72948500       3.23413371      -0.34304019      -0.16668244      -0.49270959
H       -1.26437712       1.33071025       1.31402455      -0.75683275      -0.54791860       0.75332414
H        0.61774230       2.41402765       0.68586333      -0.37601203       0.34220427      -0.02159841
H        2.40220522       0.06877860       1.40238415       0.05118645      -0.46026832      -0.06215430
