35
Properties=species:S:1:pos:R:3:forces:R:3 id=36904 bond=C-O smiles="[H:17][c:2]1[c:3]([c:5]([c:7]([c:6]([c:4]1[H:19])[H:21])[C:13]([H:34])([C:14]2([C:11]([C:15]2([C:10]([H:28])([H:29])[H:30])[C:12]([H:33])([C:8]([H:22])([H:23])[H:24])[O:1][H:16])([H:31])[H:32])[H:35])[C:9]([H:25])([H:26])[H:27])[H:20])[H:18]" dataset=PubChem energy=-16897.509429228012 pbc="F F F"
O       -3.00881298      -0.57559905       2.98700080       1.04698880       0.44046474      -1.88140229
C        2.06358171       1.04419875      -3.78774671       0.53949107      -0.51633362       0.74733779
C        1.09900230       1.95452966      -3.36057620       0.38886972      -0.16416014       0.83480508
C        2.86963499       0.36573126      -2.83676939      -0.73728312       1.00974712      -0.65870089
C        0.96314278       2.24284353      -1.98494654       0.74554978      -0.89185472       0.25522678
C        2.75816012       0.68137693      -1.48092024      -0.55965367      -0.21585439      -0.68242626
C        1.79627860       1.58442166      -1.02113550      -0.87178612       0.43344038      -2.28723052
C       -1.17694747      -0.28070853      -0.19755777      -1.75511055      -0.41670201       1.11307059
C        2.86820376       2.80143812       0.83574945      -1.00497024       0.57927121       0.16147840
C        0.58119342      -1.59808204       1.92496187      -0.30498013      -0.43492489      -0.16017353
C        1.06923064       0.83563710       2.78257818       0.76776313      -0.92246676      -0.68491301
C       -1.00935852       0.29764988       1.20277126       3.15584977       0.65123148      -1.26309658
C        1.65387655       1.91453626       0.41053457       1.00942220       0.12902294       1.48882820
C        1.62947935       0.70284167       1.35209317      -0.94501100       1.08852790       0.65979249
C        0.37050194      -0.08435026       1.74549539      -0.89746354      -0.38341414       1.65289519
H       -2.67582925      -0.51263861       3.88010344       0.48717194       0.17897966       0.26675303
H        2.21899653       0.85160178      -4.85251288      -0.22267899      -0.00611769       0.43399983
H        0.46770138       2.39479341      -4.11449818      -0.13705624       0.30583431       0.13956512
H        3.56253493      -0.37825486      -3.21059709       0.08502258       0.10937844       0.28219085
H        0.21753204       2.95163181      -1.60903960       0.25457270      -0.30030956      -0.32567778
H        3.37928999       0.16429713      -0.77957612       0.26201344      -0.16210979       0.27837226
H       -0.21878981      -0.17947206      -0.74700086      -0.61083010       0.16006278       0.36044149
H       -1.38868367      -1.34092853      -0.05978218       0.07817137      -0.11138490      -0.37201321
H       -2.05006253       0.16243359      -0.71495711       0.76931899      -0.18865102       0.14241642
H        3.78585923       2.29940691       0.58505876       0.38427210      -0.20017871       0.06164674
H        2.81320262       3.00776698       1.91001851       0.17052085      -0.16530550      -0.18441717
H        2.86972642       3.78081968       0.32942071      -0.09599884      -0.49704490       0.00743153
H        0.57473866      -2.14803741       0.95431597       0.03783381       0.55826084       0.61184147
H       -0.24962544      -2.01994631       2.52888245       0.54685360       0.32367500      -0.27472236
H        1.54418618      -1.83580325       2.41558332      -0.53429319       0.32067713      -0.21246282
H        1.64624179       0.35534545       3.59610457      -0.48309050       0.12971580      -0.74964736
H        0.66539750       1.78614619       3.11836309      -0.35298697      -0.17215380      -0.50220164
H       -1.13464152       1.38737144       1.19825393      -0.86887278      -0.52145634       0.83845073
H        0.74747790       2.47068884       0.57009271      -0.37613457       0.34370677      -0.01931849
H        2.53194082       0.12543979       1.28661353       0.02800139      -0.49186012      -0.07745565
