35
Properties=species:S:1:pos:R:3:forces:R:3 id=36904 bond=C-O smiles="[H:17][c:2]1[c:3]([c:5]([c:7]([c:6]([c:4]1[H:19])[H:21])[C:13]([H:34])([C:14]2([C:11]([C:15]2([C:10]([H:28])([H:29])[H:30])[C:12]([H:33])([C:8]([H:22])([H:23])[H:24])[O:1][H:16])([H:31])[H:32])[H:35])[C:9]([H:25])([H:26])[H:27])[H:20])[H:18]" dataset=PubChem energy=-16894.07111330165 pbc="F F F"
O       -2.36013501      -0.29229310       2.40814770     -39.48279175     -19.17395313      35.76031528
C        1.41490374       0.76089280      -3.20889361       0.54023299      -0.52830392       0.73757806
C        0.45032433       1.67122371      -2.78172310       0.39882970      -0.15936201       0.86391453
C        2.22095702       0.08242531      -2.25791629      -0.74360902       1.01494970      -0.65621879
C        0.31446481       1.95953758      -1.40609344       0.77281633      -0.87022538       0.23290560
C        2.10948215       0.39807098      -0.90206714      -0.55977892      -0.19384138      -0.70555203
C        1.14760063       1.30111571      -0.44228240      -0.83811721       0.45932536      -2.22285223
C       -1.82562544      -0.56401448       0.38129533       0.68228191       0.14217890      -1.46052447
C        2.21952579       2.51813217       1.41460255      -0.99378658       0.57989578       0.09567124
C       -0.06748455      -1.88138799       2.50381497      -0.36263312      -0.21488947      -0.15131885
C        0.42055267       0.55233115       3.36143128       0.36120803      -0.80319072      -0.34590308
C       -1.65803649       0.01434393       1.78162436      35.97429653      16.56438941     -32.86044915
C        1.00519858       1.63123031       0.98938767       0.89484177       0.18370951       1.54406722
C        0.98080138       0.41953572       1.93094627      -1.07148287       0.00836771       0.70908436
C       -0.27817603      -0.36765621       2.32434849       3.95035516       0.56846695      -0.87634326
H       -2.02715128      -0.22933266       3.30125034      -1.25517160      -0.16929019       1.48411464
H        1.57031856       0.56829583      -4.27365978      -0.22051820      -0.00895508       0.42396713
H       -0.18097659       2.11148746      -3.53564508      -0.14187735       0.30559292       0.13147013
H        2.91385696      -0.66156081      -2.63174399       0.08989062       0.10333156       0.27462358
H       -0.43114593       2.66832586      -1.03018650       0.25403800      -0.32917562      -0.31151858
H        2.73061202      -0.11900882      -0.20072302       0.25079733      -0.15930726       0.28630102
H       -0.86746778      -0.46277801      -0.16814776      -0.94060484       0.04202432      -0.12693754
H       -2.03736164      -1.62423448       0.51907092       0.01666605      -0.07395722      -0.07884999
H       -2.69874050      -0.12087236      -0.13610401       0.66689687      -0.11521251       0.14196379
H        3.13718126       2.01610096       1.16391186       0.40132963      -0.19891763       0.07143555
H        2.16452465       2.72446103       2.48887161       0.16631879      -0.16906770      -0.17406925
H        2.22104845       3.49751373       0.90827381      -0.08083592      -0.47048503       0.00716918
H       -0.07393931      -2.43134336       1.53316907      -0.00447015       0.58999514       0.62972807
H       -0.89830341      -2.30325226       3.10773555       0.56989012       0.08324451      -0.21759992
H        0.89550821      -2.11910920       2.99443642      -0.58801784       0.28799966      -0.13578662
H        0.99756382       0.07203950       4.17495767      -0.44778594       0.16782914      -0.69135537
H        0.01671953       1.50284024       3.69721619      -0.26826148      -0.04862365      -0.44068152
H       -1.78331949       1.10406549       1.77710703       2.11959873       2.60522780      -1.96653242
H        0.09879993       2.18738289       1.14894581      -0.34901168       0.26218399      -0.04086132
H        1.88326285      -0.15786616       1.86546663       0.24010342      -0.28252531       0.06656461
