36
Properties=species:S:1:pos:R:3:forces:R:3 id=12530 bond=C-C smiles="[H:17][C:6]([H:18])([H:19])[N:4]([C:7]([H:20])([H:21])[H:22])[C:12]([H:31])([H:32])[C:10]([H:27])([H:28])[O:3][C:11]([H:29])([H:30])[C:14]([H:35])([H:36])[C:13]([H:33])([H:34])[N:5]([C:8]([H:23])([H:24])[O:1][H:15])[C:9]([H:25])([H:26])[O:2][H:16]" dataset=PubChem energy=-18822.19904114134 pbc="F F F"
O        3.71343381      -1.13238976       3.63128408       0.34945809      -0.48439556      -0.34074613
O        2.36768312       1.48612883       5.71099265       0.38038723       0.42798415      -0.55668544
O       -0.75026884       0.85587834      -0.36839429       0.45392412      -0.75506545      -0.20245097
N       -0.45923546       1.14974692      -3.56456211      -0.52470370      -1.46092150      -0.66084510
N        1.89900894       0.03085884       4.04630979      -1.91748896       0.64240763       0.22798811
C        0.91862485       1.12786319      -3.09938840       0.05200277       0.88562214      -0.38546204
C       -0.69503560       1.68295946      -4.90280703      -1.12771929      -0.12363721       0.90931927
C        2.68955381      -1.04425345       4.60810192       0.54384711       1.03988368       0.29374982
C        1.26172382       0.95528057       5.00202926       0.68363297       0.25514040      -0.97512242
C       -1.56246331       0.35099832      -1.48197666       1.58530686       1.56133960       1.03736853
C       -0.43065873      -0.15312324       0.58024612       2.01796123       2.90400668       1.48670839
C       -1.53107622       1.41455432      -2.57447032       0.98089721      -0.32167732      -1.09796829
C        1.02319593      -0.43321881       2.94257315      -0.18549212       0.41535122       0.12716686
C        0.80443313       0.61808289       1.85392400      -2.57862448      -1.51756839      -1.10782638
H        3.48229749      -0.36273829       3.06821163       0.67372270      -0.76155412       0.47915579
H        3.07034285       1.52299204       5.00819524      -0.95785831       0.13577276       1.17799016
H        1.15114061       0.26075505      -2.49747518      -0.21826467      -0.13850348       0.44436182
H        1.14695612       2.04753926      -2.53429822       0.17611515      -0.25153759       0.09312791
H        1.65243313       1.07562997      -3.93019799      -0.77976744       0.12441860       0.18853630
H        0.04977623       1.36340424      -5.61781243       0.33864799       0.02980335       0.09906446
H       -1.67603138       1.31225719      -5.29512337       0.70328005       0.35646195       0.40629877
H       -0.74087277       2.76882615      -4.82230595       0.03354432       0.36994498      -0.62501206
H        2.10261090      -1.95770369       4.71644242       0.23946299      -0.29527268      -0.22018985
H        3.12992007      -0.76487897       5.60691388      -0.64539376      -0.19501366      -1.03979087
H        0.76248467       1.77042737       4.38619049       0.27891142      -1.09329455       0.86187595
H        0.54552815       0.48636914       5.72068866       0.56648667       0.35940716      -0.47073129
H       -2.53900959       0.29756989      -1.07869879      -1.21783366      -0.59486277       0.15786168
H       -1.15525105      -0.60196350      -1.81138257      -0.23140477      -0.05800516      -0.19394513
H       -1.34572079      -0.46478096       1.05979880      -0.06016639      -0.19393826       0.70502026
H        0.06826023      -0.99254987       0.12448569       0.37582848      -0.30104444      -0.10337194
H       -1.34574130       2.41489270      -2.15570096      -0.43466430      -0.16787138       0.36619021
H       -2.52258017       1.40377047      -3.07759432       0.81546971       0.09306820       0.06483605
H        0.05617482      -0.71553168       3.36822136      -0.02612567      -0.32820434      -0.18002424
H        1.51481880      -1.28482852       2.47574314      -0.20766067      -0.16404177       0.22894699
H        0.38821251       1.53670635       2.28789349      -0.24748504      -0.35637926      -0.53607548
H        1.74753649       0.86364218       1.39808222       0.10718160      -0.03833494      -0.66159557
