36
Properties=species:S:1:pos:R:3:forces:R:3 id=12530 bond=C-C smiles="[H:17][C:6]([H:18])([H:19])[N:4]([C:7]([H:20])([H:21])[H:22])[C:12]([H:31])([H:32])[C:10]([H:27])([H:28])[O:3][C:11]([H:29])([H:30])[C:14]([H:35])([H:36])[C:13]([H:33])([H:34])[N:5]([C:8]([H:23])([H:24])[O:1][H:15])[C:9]([H:25])([H:26])[O:2][H:16]" dataset=PubChem energy=-18823.141197735855 pbc="F F F"
O        3.63991644      -1.17829489       3.55546992       0.34843078      -0.48723620      -0.34485120
O        2.29416575       1.44022370       5.63517849       0.38008910       0.42457494      -0.55686273
O       -0.67675147       0.90178347      -0.29258013       0.25843332      -0.74311739      -0.53141219
N       -0.38571809       1.19565205      -3.48874795      -0.51974149      -1.45856447      -0.66267181
N        1.82549157      -0.01504629       3.97049563      -1.92461677       0.58616189       0.23138487
C        0.99214222       1.17376832      -3.02357424       0.04711034       0.88623143      -0.38915111
C       -0.62151823       1.72886459      -4.82699287      -1.12527083      -0.12452488       0.90968457
C        2.61603644      -1.09015858       4.53228776       0.53660722       1.04846501       0.30776187
C        1.18820645       0.90937544       4.92621510       0.68394984       0.25380979      -0.98029641
C       -1.48894594       0.39690345      -1.40616250       1.61796711       1.62518336       1.07180106
C       -0.35714136      -0.10721811       0.65606028       1.86509252       2.69615599       1.33926773
C       -1.45755885       1.46045945      -2.49865616       0.96370139      -0.33381066      -1.09772932
C        0.94967856      -0.47912394       2.86675899       0.02917253       0.54463222       0.34687273
C        0.73091576       0.57217776       1.77810984      -2.36793358      -1.33633402      -0.83425352
H        3.40878012      -0.40864342       2.99239747       0.67241349      -0.75754026       0.48103837
H        2.99682548       1.47708691       4.93238108      -0.95804717       0.13596001       1.17713786
H        1.22465798       0.30666018      -2.42166102      -0.21851027      -0.14105501       0.44447610
H        1.22047349       2.09344439      -2.45848406       0.17657549      -0.24982699       0.09332079
H        1.72595050       1.12153510      -3.85438383      -0.77892551       0.12438406       0.18896701
H        0.12329360       1.40930937      -5.54199827       0.33890147       0.03002202       0.09827213
H       -1.60251401       1.35816232      -5.21930921       0.70358612       0.35642748       0.40679790
H       -0.66735540       2.81473128      -4.74649179       0.03321918       0.37038535      -0.62489868
H        2.02909353      -2.00360882       4.64062826       0.24067443      -0.29752445      -0.21895864
H        3.05640270      -0.81078410       5.53109972      -0.64367543      -0.19753497      -1.03992063
H        0.68896730       1.72452224       4.31037633       0.28023638      -1.09463738       0.86125525
H        0.47201078       0.44046401       5.64487450       0.56597633       0.35959055      -0.46864651
H       -2.46549222       0.34347502      -1.00288463      -1.22116837      -0.59569428       0.15641403
H       -1.08173368      -0.55605837      -1.73556841      -0.23051359      -0.05426796      -0.18862039
H       -1.27220342      -0.41887583       1.13561296      -0.16518614      -0.30011400       0.52778296
H        0.14177760      -0.94664474       0.20029985       0.17897016      -0.41394537      -0.26015609
H       -1.27222393       2.46079783      -2.07988680      -0.43388586      -0.16633589       0.36481491
H       -2.44906280       1.44967560      -3.00178016       0.81685267       0.09696895       0.06035349
H       -0.01734255      -0.76143681       3.29240720      -0.03571695      -0.32806388      -0.18117759
H        1.44130143      -1.33073365       2.39992898      -0.20476078      -0.17283960       0.22045297
H        0.31469514       1.49080122       2.21207933      -0.10170341      -0.31344302      -0.40697804
H        1.67401912       0.81773705       1.32226806       0.18585738       0.02593733      -0.50416407
