36
Properties=species:S:1:pos:R:3:forces:R:3 id=9939 bond=C-N smiles="[H:16][C:4]([H:17])([H:18])[C:10]([H:34])([C:5]([H:19])([H:20])[H:21])[N:1]([C:3]([H:13])([H:14])[H:15])[N:2]([C:11]([H:35])([C:6]([H:22])([H:23])[H:24])[C:7]([H:25])([H:26])[H:27])[C:12]([H:36])([C:8]([H:28])([H:29])[H:30])[C:9]([H:31])([H:32])[H:33]" dataset=PubChem energy=-13731.186582382985 pbc="F F F"
N        0.73286282       0.11746742      -0.21906428      -0.54992622       2.52034257      -1.58471354
N        0.08767211       0.04206215       1.04855438      15.13197326      93.53764028     -49.85828647
C       -0.13038978      -0.02674560      -1.42157433       1.07704560       0.07944152       1.02657091
C        2.95666757       0.57798727       0.92166742       0.70212240       0.14863754       0.33384460
C        2.35348287       1.64302046      -1.19957123       0.45233960      -0.56907239      -0.94867826
C        0.54554036      -0.72048500       2.85517385      -0.58405103      -2.22992012       4.01500771
C        0.52423502      -1.90965632       0.68694153      -0.14538757      -3.62363226       0.92215623
C       -2.20817170       1.14714070       0.82364818       0.16171167      -0.24242372      -0.08172662
C       -0.25450727       2.55503805       1.13340475       0.13042868       0.11772015       1.45052794
C        2.17222002       0.36034169      -0.36752544      -0.53631081       1.54601963      -0.12542396
C       -0.04321609      -0.74410429       1.44671216     -14.54841443     -88.97294762      45.92263504
C       -0.81070683       1.17806311       1.46635504       0.34551590       2.49349702      -1.52416924
H        0.36920900      -0.63272451      -2.20044778      -0.13170793       0.19411364       0.41076683
H       -1.04348788      -0.51722137      -1.11295722      -0.11224876      -0.24564920      -0.01941297
H       -0.42253080       0.92169614      -1.84037421      -0.00376347       0.46473559      -0.35041988
H        4.05671849       0.73794563       0.70298729      -1.33121424      -0.16404138      -0.05919414
H        2.91055741      -0.32313918       1.54276283       0.02828366       0.60036925       0.05803465
H        2.60424819       1.49883230       1.44650211       0.17558579      -0.99957010      -0.17663547
H        3.41103759       1.78413208      -1.33788786       0.57611194       0.04001289      -0.37819947
H        2.02859953       2.57592709      -0.74103497      -0.44629603      -0.39742013       0.27314754
H        1.90040865       1.53198726      -2.19696925       0.10744618       0.21359115       0.38466197
H        0.30527367      -1.64779594       3.35874154       0.09728170      -0.27568547       0.68918916
H        0.16095318       0.11438652       3.47326257       0.31231356      -0.60722331      -0.44599369
H        1.59871175      -0.63272503       2.76846554       0.81800178       0.09199068       0.05340697
H        0.40144995      -2.84729031       1.27081885      -0.07600826       0.41874614      -0.49419692
H        0.09505596      -1.98934129      -0.31041566      -0.14607597      -0.47271769       0.50142296
H        1.56795539      -1.74091223       0.53881901       0.66828033      -0.26379682       0.18332215
H       -2.64656553       0.15797172       0.89151004      -0.20641117      -0.13474828      -0.11936423
H       -2.17472634       1.47860857      -0.23668877      -0.03010407      -0.19811035       0.77956650
H       -2.84113202       1.83537252       1.40425487       0.16071499      -0.29082139      -0.35182657
H       -0.99314115       3.28252228       1.51622625       0.48621583      -0.14717439      -0.20498733
H       -0.13940272       2.71533926       0.08145203       0.20630549      -0.00719404      -0.51680291
H        0.69090609       2.70032628       1.68044557      -0.26943416       0.18160016      -0.45939378
H        2.63448944      -0.51254325      -0.86747525      -0.27191728       0.29058060      -0.16280472
H       -1.13267122      -0.92844108       1.56751337      -2.15088919      -2.61489408       1.20142121
H       -0.89933786       1.17030247       2.55110897      -0.09485191      -0.47852162      -0.34437320
