36
Properties=species:S:1:pos:R:3:forces:R:3 id=9939 bond=C-N smiles="[H:16][C:4]([H:17])([H:18])[C:10]([H:34])([C:5]([H:19])([H:20])[H:21])[N:1]([C:3]([H:13])([H:14])[H:15])[N:2]([C:11]([H:35])([C:6]([H:22])([H:23])[H:24])[C:7]([H:25])([H:26])[H:27])[C:12]([H:36])([C:8]([H:28])([H:29])[H:30])[C:9]([H:31])([H:32])[H:33]" dataset=PubChem energy=-13746.756126178525 pbc="F F F"
N        0.75249605       0.23539238      -0.27878795      -1.32530936       0.38409264       0.31512016
N        0.10730534       0.15998711       0.98883071       3.54009615      20.13135172     -10.98381869
C       -0.11075655       0.09117936      -1.48129800       1.16185406      -0.26730518       0.98104818
C        2.97630080       0.69591223       0.86194375       0.61211625       0.16282151       0.35261917
C        2.37311610       1.76094542      -1.25929490       0.42313772      -0.57354631      -0.94740862
C        0.52590713      -0.83840996       2.91489752      -1.00339914      -0.76629299       1.44699259
C        0.50460179      -2.02758128       0.74666520      -0.26363122      -1.58435788       0.36713865
C       -2.18853847       1.26506566       0.76392451       0.01337903      -0.04155909       0.12017913
C       -0.23487404       2.67296301       1.07368108       0.20028689       0.04465576       1.44328153
C        2.19185325       0.47826665      -0.42724911      -0.46187509       1.26930545      -0.07229359
C       -0.06284932      -0.86202925       1.50643583      -3.55069416     -16.89959958       9.29082629
C       -0.79107360       1.29598807       1.40663137       0.52237084       0.51239944      -1.41918751
H        0.38884223      -0.51479955      -2.26017145      -0.16600196       0.22806111       0.34804106
H       -1.02385465      -0.39929641      -1.17268089      -0.06324878      -0.25372214      -0.00418081
H       -0.40289757       1.03962110      -1.90009788       0.00677242       0.49032842      -0.33837305
H        4.07635172       0.85587059       0.64326362      -1.32072845      -0.17423133      -0.05258060
H        2.93019064      -0.20521422       1.48303916      -0.07220690       0.54027805       0.13582484
H        2.62388142       1.61675726       1.38677844       0.17214042      -1.00699076      -0.17876710
H        3.43067082       1.90205704      -1.39761153       0.57273287       0.03467592      -0.37478799
H        2.04823276       2.69385205      -0.80075864      -0.45113802      -0.39137918       0.27433504
H        1.92004188       1.64991222      -2.25669292       0.10771682       0.21740743       0.37989323
H        0.28564044      -1.76572090       3.41846521       0.03880092      -0.21941625       0.43877238
H        0.14131995      -0.00353844       3.53298624       0.24178364      -0.49993466      -0.43584341
H        1.57907852      -0.75064999       2.82818921       0.94476405       0.11300415       0.08547764
H        0.38181672      -2.96521527       1.33054252      -0.05344171       0.54596852      -0.54268493
H        0.07542273      -2.10726625      -0.25069199      -0.13627324      -0.29076592       0.24449073
H        1.54832216      -1.85883719       0.59854268       0.79120054      -0.09312573       0.00638182
H       -2.62693230       0.27589668       0.83178637      -0.19198691      -0.13840455      -0.13251401
H       -2.15509311       1.59653353      -0.29641244      -0.03790970      -0.24345447       0.77257670
H       -2.82149879       1.95329748       1.34453120       0.06552773      -0.24239022      -0.39122687
H       -0.97350792       3.40044724       1.45650258       0.47240648      -0.16629700      -0.21070769
H       -0.11976949       2.83326422       0.02172836       0.20724713      -0.01234686      -0.52029640
H        0.71053932       2.81825124       1.62072190      -0.27047241       0.17252038      -0.46666525
H        2.65412267      -0.39461829      -0.92719892      -0.22000088       0.35699421      -0.16982120
H       -1.15230445      -1.04636604       1.62723704      -0.41388874      -0.89474293       0.36081740
H       -0.87970463       1.28822743       2.49138530      -0.09257180      -0.44383827      -0.12347191
