36
Properties=species:S:1:pos:R:3:forces:R:3 id=9939 bond=C-N smiles="[H:16][C:4]([H:17])([H:18])[C:10]([H:34])([C:5]([H:19])([H:20])[H:21])[N:1]([C:3]([H:13])([H:14])[H:15])[N:2]([C:11]([H:35])([C:6]([H:22])([H:23])[H:24])[C:7]([H:25])([H:26])[H:27])[C:12]([H:36])([C:8]([H:28])([H:29])[H:30])[C:9]([H:31])([H:32])[H:33]" dataset=PubChem energy=-13746.687919813428 pbc="F F F"
N        0.82775676       0.68743808      -0.50772868      -2.58158900      -0.66419144       2.05921847
N        0.18256605       0.61203281       0.75988998       1.78530374      -0.98204593       0.14058937
C       -0.03549584       0.54322506      -1.71023873       1.15907119      -0.52402835       0.73596120
C        3.05156151       1.14795793       0.63300302       0.57555480       0.16003288       0.40383781
C        2.44837681       2.21299112      -1.48823563       0.27031389      -0.55486524      -0.95264932
C        0.45064642      -1.29045566       3.14383825      -0.82898739       1.59509733      -0.52489708
C        0.42934108      -2.47962698       0.97560593      -0.12242546       0.56097888      -0.59675907
C       -2.11327776       1.71711136       0.53498378      -0.11904183       0.18437328       0.25550947
C       -0.15961333       3.12500871       0.84474035       0.37681301       0.05328074       1.37374981
C        2.26711396       0.93031235      -0.65618984      -0.16955600       0.82491247       0.02518837
C       -0.13811003      -1.31407495       1.73537656      -1.19879298       0.68503689       0.30221348
C       -0.71581289       1.74803377       1.17769064      -0.18698869      -0.89912748      -1.34214730
H        0.46410294      -0.06275385      -2.48911218      -0.17504664       0.27135289       0.29941105
H       -0.94859394       0.05274929      -1.40162162       0.02167980      -0.24913017       0.06924224
H       -0.32763686       1.49166680      -2.12903861       0.04610799       0.51636496      -0.29472918
H        4.15161243       1.30791629       0.41432289      -1.29825405      -0.17111999      -0.07781945
H        3.00545135       0.24683148       1.25409843      -0.20236077       0.48315690       0.21253413
H        2.69914213       2.06880296       1.15783771       0.17240171      -1.02645984      -0.18514322
H        3.50593153       2.35410274      -1.62655226       0.55997483       0.00173694      -0.34171036
H        2.12349347       3.14589775      -1.02969937      -0.45177651      -0.38626941       0.27081759
H        1.99530259       2.10195792      -2.48563365       0.11219731       0.22623910       0.37430713
H        0.21037973      -2.21776660       3.64740594      -0.11297472      -0.27889729       0.04811700
H        0.06605924      -0.45558414       3.76192697       0.21954970      -0.44189878      -0.40302015
H        1.50381781      -1.20269569       3.05712994       1.07324723       0.10659851       0.19525510
H        0.30655601      -3.41726097       1.55948325      -0.08648676       0.58758276      -0.41883369
H        0.00016202      -2.55931195      -0.02175126      -0.17862750      -0.25380509       0.11763151
H        1.47306145      -2.31088289       0.82748341       0.91770364      -0.07849316      -0.05814125
H       -2.55167159       0.72794238       0.60284564      -0.07757085      -0.14240047      -0.10720666
H       -2.07983240       2.04857923      -0.52535317      -0.06098920      -0.25078970       0.73915662
H       -2.74623808       2.40534318       1.11559047      -0.01825815      -0.15097018      -0.40996624
H       -0.89824721       3.85249294       1.22756185       0.43766682      -0.19190056      -0.19412381
H       -0.04450878       3.28530992      -0.20721237       0.19774492      -0.00081744      -0.52496660
H        0.78580003       3.27029694       1.39178117      -0.27207797       0.16719430      -0.47042189
H        2.72938338       0.05742741      -1.15613965      -0.19868177       0.43851621      -0.17999888
H       -1.22756516      -1.49841174       1.85617777       0.45318571       0.95395280      -0.57146435
H       -0.80444392       1.74027313       2.26244457      -0.03545843      -0.56998798       0.03081183
