23
Properties=species:S:1:pos:R:3:forces:R:3 id=7973 bond=C-C smiles="[H:19][C:6]1([C:8]([S:2][C:9]([O:1]1)([C:5]([H:16])([H:17])[H:18])[C:7]([H:21])([H:22])[C:3]([H:10])([H:11])[H:12])([H:23])[C:4]([H:13])([H:14])[H:15])[H:20]" dataset=PubChem energy=-20373.311124591386 pbc="F F F"
O       -0.01986478       0.03553769       2.31694435      -0.48426120       0.18570968      -2.33403716
S       -0.26939689      -1.16136181      -0.03874362       0.52722745       0.55341740       0.43530266
C        0.26990960       3.26940195      -1.28941066      -1.06289221      -1.01606643      -0.36226106
C        2.20782138      -2.29765451       0.52819722       0.15072019      -1.57377836       0.51491976
C       -2.12764429       0.41185260       1.15305065       0.66482721       0.78791410       1.11591124
C        1.14072837      -0.79780245       2.19080697       0.02106695       0.86171122       0.22170765
C        0.78637638       2.73498647       0.01489692       0.11378799       0.17716668      -0.49277833
C        0.89509768      -1.88972675       1.18228980       0.15343067       0.05648139      -0.74623985
C       -0.61043977       0.27864492       1.00432296       0.64800660      -0.79938062       1.79247357
H        0.33206526       2.53771130      -2.09812636       0.10865644       0.07277600      -0.00454042
H       -0.78430923       3.54095976      -1.20612401       0.04999646       0.10383735      -0.04213028
H        0.81193377       4.15989272      -1.60551364       0.19860172       0.12716665       0.06253195
H        2.55688453      -1.55623161      -0.16661877       0.07076310       0.27463329      -0.26491163
H        2.95322419      -2.40296256       1.33655655      -0.12580530      -0.05127530      -0.40345216
H        2.13479556      -3.29823935       0.02495055       0.04227990       1.02978188       0.33592964
H       -2.38038157       1.17650890       1.90183734       0.13392347      -0.06961265      -0.43294280
H       -2.53226756      -0.53520244       1.52868228       0.28099083       0.08003082      -0.10064223
H       -2.60378360       0.62325508       0.22148793      -0.18558049       0.27268110      -0.59923955
H        1.34268738      -1.25091660       3.16413783      -0.13772201       0.27230242      -0.02468364
H        2.02427603      -0.19832929       1.90186643      -0.47258037      -0.05033368       0.01581417
H        0.65872306       3.54477493       0.71445751      -0.28225305      -0.41518412       1.04550226
H        1.85540572       2.54474000      -0.10107542      -0.19909261      -0.81423740       0.46245823
H        0.43671648      -2.73704588       1.68276923      -0.21475410      -0.06541033      -0.19256121
