23
Properties=species:S:1:pos:R:3:forces:R:3 id=7973 bond=C-C smiles="[H:19][C:6]1([C:8]([S:2][C:9]([O:1]1)([C:5]([H:16])([H:17])[H:18])[C:7]([H:21])([H:22])[C:3]([H:10])([H:11])[H:12])([H:23])[C:4]([H:13])([H:14])[H:15])[H:20]" dataset=PubChem energy=-20367.833984739515 pbc="F F F"
O        0.44215902       0.84801989       1.98967266       0.05306742      -2.66619376       1.58639320
S        0.19262691      -0.34887961      -0.36601531       0.25371546      -2.48389155      -0.23246565
C       -0.19211420       2.45691975      -0.96213897      -0.13587318       1.53348638      -1.83970064
C        2.66984518      -1.48517231       0.20092553       0.10748600      -1.58285758       0.52204843
C       -1.66562049       1.22433480       0.82577896      -0.98183474      -1.61525095       1.98453773
C        1.60275217       0.01467975       1.86353528      -0.32610388       0.80401568       0.40613128
C        0.32435258       1.92250427       0.34216861      27.19229521      48.48197813     -20.97751452
C        1.35712148      -1.07724455       0.85501811      -0.01497788       0.01262332      -0.68586387
C       -0.14841597       1.09112712       0.67705127     -27.07665118     -46.15218724      20.28694674
H       -0.12995854       1.72522910      -1.77085467       0.11283633       0.02736004       0.14831061
H       -1.24633303       2.72847756      -0.87885232       0.48096627       0.25794956      -0.11377758
H        0.34990997       3.34741052      -1.27824195       0.05652425      -0.07146301       0.00556643
H        3.01890833      -0.74374941      -0.49389046       0.07401016       0.27172646      -0.28135844
H        3.41524799      -1.59048036       1.00928486      -0.12502826      -0.05516875      -0.39387299
H        2.59681936      -2.48575715      -0.30232114       0.04651853       1.03110369       0.32428911
H       -1.91835777       1.98899110       1.57456565       0.22115989      -0.00304440      -0.36743012
H       -2.07024376       0.27727976       1.20141059       0.03840620       0.27761839      -0.06146256
H       -2.14175980       1.43573728      -0.10578376      -0.31431695      -0.08169441      -0.25811933
H        1.80471118      -0.43843440       2.83686614      -0.03206452       0.27321793      -0.04079459
H        2.48629983       0.61415291       1.57459474      -0.30240697      -0.15353476       0.08034826
H        0.19669926       2.73229273       1.04172920       0.32046827       0.96341165       0.24670595
H        1.39338192       1.73225780       0.22619627       0.50272686       0.98837582      -0.19410372
H        0.89874028      -1.92456368       1.35549754      -0.14748287      -0.05624130      -0.14198307
