30
Properties=species:S:1:pos:R:3:forces:R:3 id=45096 bond=C-C smiles="[H:22][c:7]1[c:11]([c:15]2[c:12]([c:8]([c:10]([c:14]3[c:16]2[c:13]([c:9]1[H:24])[N:17]([C:19]([N:18]3[H:29])([H:30])[C:6]4=[C:5]([C:4](=[C:3]([O:2]4)[Br:1])[H:20])[H:21])[H:28])[H:25])[H:23])[H:27])[H:26]" dataset=PubChem energy=-90816.3353468583 pbc="F F F"
Br      -4.70858441      -4.58495248       0.16785459       1.25281197       0.65234216       0.01964372
O       -2.13513384      -3.12522854       0.24009351      -1.16246597      -0.07597708      -0.22360557
C       -3.50513849      -3.09262813       0.41657821      -0.95001585       1.07668722       0.41847383
C       -3.93915329      -1.83642448       0.79851303       0.99534443      -1.27504246      -0.33797248
C       -2.73556314      -1.05369748       0.87114797       0.60006681      -0.19796037      -0.35829551
C       -1.68875251      -1.84692014       0.46970867       1.00606752       0.61364599       0.46348035
C        2.85566440       3.06941217      -1.82571795      -0.27518169       0.36842392       0.29512079
C        2.99634924       2.66985970       2.95817611       0.12415906       0.63668039      -1.12624171
C        2.21924867       1.82865220      -1.92851927       0.16075594      -0.00010953       0.54871529
C        2.42300823       1.39832729       2.84667346      -0.17706135      -0.41867190      -0.04515759
C        3.14725401       3.62989872      -0.60202720       0.09464466      -0.22484016      -1.45381507
C        3.26608672       3.40657752       1.80430970      -0.11847096      -0.15872563       1.77035867
C        1.95756915       1.10205709      -0.77595367      -0.44116723       0.73551413      -2.51240612
C        2.10664984       0.86837938       1.59932289      -0.51024405      -0.57251694       2.79225572
C        2.90651097       2.89288633       0.55925771       0.22358299      -0.05919742      -0.04696482
C        2.32491090       1.60150617       0.45985960       0.48603403       0.94308473      -0.10933618
N        1.31569735      -0.10077757      -0.89574196      -1.66068030      -3.44213962       2.83024139
N        1.58507725      -0.43383295       1.54449377      -1.49183058      -1.01279636      -3.10846709
C        1.10866133      -1.01498706       0.27709023       2.58459574       2.39177595      -0.16331701
H       -4.96170292      -1.53006435       0.98186363       0.29650988      -0.18247735      -0.00849943
H       -2.62032518      -0.03019081       1.18122185      -0.15377657       0.05509436      -0.11151779
H        3.03839102       3.58210152      -2.75710013       0.15575401       0.26896653       0.08983762
H        3.20108881       3.09814995       3.92840812       0.10815195      -0.13898845       0.01313495
H        1.95709874       1.49204451      -2.91809847      -0.12892858      -0.37407230       0.06908923
H        2.24029806       0.80276478       3.74107930       0.00718359       0.16617566      -0.24759546
H        3.59203352       4.60715407      -0.55210688       0.09250265       0.13381362       0.13665553
H        3.73929514       4.38890212       1.86741457      -0.23450127      -0.37093020      -0.03092284
H        0.71691101      -0.31372827      -1.70086791       0.78123449       0.15957521       0.61471523
H        1.18007096      -0.84327740       2.38206193       0.40931077       0.09023588      -0.39435162
H        1.68941399      -1.96185476       0.08923966      -2.07322351       0.21663897       0.21720563
