5
Properties=species:S:1:pos:R:3:forces:R:3 id=19086 bond=N-O smiles="[H:5][N:3]([O:2][H:4])[Cl:1]" dataset=PubChem energy=-16079.465784059674 pbc="F F F"
Cl       0.14552821       1.96126264       0.10108655       0.62320715       6.26175853      -0.95533971
O        0.67997298      -0.03851736       1.13867616      31.70994244     -19.43173776      81.18298004
N        0.39689216       0.17620390       0.31986513     -30.91627087      12.96278022     -80.94674303
H        0.52662695       0.72583124       1.75521564      -2.07234969       0.34324969       2.84601632
H        0.97742627      -0.24000079      -0.43593628       0.65723171      -0.13511737      -2.12676913
