5
Properties=species:S:1:pos:R:3:forces:R:3 id=19086 bond=N-O smiles="[H:5][N:3]([O:2][H:4])[Cl:1]" dataset=PubChem energy=-16088.933390575425 pbc="F F F"
Cl      -0.14084424       2.17848067      -0.72724555       1.08933030      -3.34250424       0.04090511
O        0.96634543      -0.25573539       1.96700826      -0.33558347       1.05276650      -0.84498343
N        0.11051971       0.39342193      -0.50846697      -1.41251288       1.82686284       1.53837514
H        0.81299940       0.50861321       2.58354774       0.07126881      -0.68488575      -1.07899225
H        0.69105382      -0.02278276      -1.26426838       0.58648035       1.14510222       0.34400910
