33
Properties=species:S:1:pos:R:3:forces:R:3 id=24774 bond=N-N smiles="[H:27][C:12]1([C:11]([S:8][C:13]([N:9]1[N:2]=[O:1])([H:29])[C:15]([H:31])([C:17]([H:33])([C:16]([H:32])([C:14]([H:30])([C:10]([H:23])([H:24])[O:3][H:18])[O:4][H:19])[O:6][H:21])[O:7][H:22])[O:5][H:20])([H:25])[H:26])[H:28]" dataset=PubChem energy=-34663.51696519101 pbc="F F F"
O       -0.57555157       0.61677624      -4.63276350      -0.95634934       0.56782442       9.47316237
N       -0.71772265       0.70251766      -3.41000568       1.86777926      -1.49920102      -8.61055808
O       -0.36062535       1.34883982       5.72842566       0.06479101       2.24972774      -2.60539089
O       -1.27897235       1.27784973       3.09951059       1.54605933      -0.15753752      -1.11596036
O        1.71773855       1.93101650      -1.23894961      -0.19775014      -2.87317468       1.25791844
O        2.52269737       0.99351233       2.76888565      -0.21448737      -0.30790227       0.60577987
O        1.04911478       2.81971055       1.25861467       0.27053136      -0.82820187      -1.49582529
S        2.23824648      -1.97192043      -0.04451640       0.90697074      -0.40741986       0.45548163
N        1.27667410      -0.69318330      -2.12214597       1.22282182       1.67719648      -1.45176958
C        0.31079338       0.61397230       4.73438398       0.90513263      -0.48399318       0.83797639
C        1.71105210      -2.91380376      -1.51102336       1.65941401       0.13404425      -0.10469282
C        1.94867555      -1.93950695      -2.69945891      -2.05238071      -0.44951645       3.66302543
C        1.32977665      -0.54731375      -0.61304649      -2.80479726      -0.88368825      -2.44979606
C        0.13864361       1.34195190       3.47894947      -0.36885245       0.96230185       0.36838066
C        1.66922657       0.83530479      -0.11944099       1.99463731       2.75226383      -0.54242018
C        1.14194499       0.79457181       2.45409326      -0.45449935      -0.53033996      -1.95064134
C        0.82065084       1.40571195       1.06416300      -1.80381780       0.11125381      -0.68521042
H       -0.34303709       0.91360074       6.51421086       0.08440095      -1.89047359       3.34881246
H       -1.86816855       1.34833795       3.85352151       0.62689240       0.11604868       0.35469318
H        1.96559809       1.38631969      -2.02897986      -0.50170763       0.52292356       0.84084036
H        2.91093425       1.86855262       2.61443762      -1.12543759      -0.15313792      -0.17889848
H        1.14067927       3.13937360       0.33902977       0.01331055       0.14412270       0.71324564
H       -0.18409784      -0.29194546       4.60443274      -0.94842369      -1.97726070      -0.18906037
H        1.36437456       0.32817787       4.92257563      -0.33883665       0.81202110       0.25687019
H        0.66203318      -3.02147454      -1.38033064      -0.77640465      -0.93495519      -0.12381386
H        2.34980086      -3.82395285      -1.55681332      -0.91502300       0.37841430       0.10873870
H        1.54433707      -2.40268821      -3.58944829      -0.63553363       0.74917637      -0.33404964
H        3.01230244      -1.94910139      -2.80482777       0.82343541       1.13262879      -0.23356121
H        0.29408000      -0.64398188      -0.23589440      -0.00220190      -0.49281288      -0.40820671
H        0.42696999       2.35873920       3.72568242      -0.17246914       0.45305680      -0.47936342
H        2.69395772       0.77158099       0.23337464       0.23884108       0.28381406       0.05101394
H        1.03041917      -0.31825930       2.41734139       0.07866279       0.81391476      -0.07555057
H       -0.31154175       1.26852852       0.78779107       1.96479841       0.00957117       0.69354660
