33
Properties=species:S:1:pos:R:3:forces:R:3 id=24774 bond=N-N smiles="[H:27][C:12]1([C:11]([S:8][C:13]([N:9]1[N:2]=[O:1])([H:29])[C:15]([H:31])([C:17]([H:33])([C:16]([H:32])([C:14]([H:30])([C:10]([H:23])([H:24])[O:3][H:18])[O:4][H:19])[O:6][H:21])[O:7][H:22])[O:5][H:20])([H:25])[H:26])[H:28]" dataset=PubChem energy=-34650.0177015911 pbc="F F F"
O        0.11781293       0.13155208      -4.18503102      -3.33892351       1.82594596     -10.03102455
N       -0.02435815       0.21729350      -2.96227320     -84.28523808      61.68903163     -56.54109325
O       -1.05398985       1.83406398       5.28069318       0.08558032       2.23491860      -2.65376765
O       -1.97233685       1.76307389       2.65177811       1.59979909      -0.16569329      -1.13548142
O        1.02437405       2.41624066      -1.68668209      -0.02223727      -3.27218671       0.93678306
O        1.82933287       1.47873649       2.32115317      -0.22212128      -0.32734471       0.54254556
O        0.35575028       3.30493471       0.81088219       0.32916664      -0.95912085      -1.58396589
S        1.54488198      -1.48669627      -0.49224888       0.92504470       0.00295199       0.69022572
N        0.58330960      -0.20795914      -2.56987845      84.41718765     -61.26847941      63.52117118
C       -0.38257112       1.09919646       4.28665150       0.90404679      -0.48103726       0.87328837
C        1.01768760      -2.42857960      -1.95875584       1.34624384       0.95790504       0.03956553
C        1.25531105      -1.45428279      -3.14719139       1.74836258      -3.33714525       1.42203407
C        0.63641215      -0.06208959      -1.06077897      -1.32280435      -1.12447887       2.29125111
C       -0.55472089       1.82717606       3.03121699      -0.42515113       0.97831445       0.36795570
C        0.97586207       1.32052895      -0.56717347       2.14920158       2.54788831      -0.43198092
C        0.44858049       1.27979597       2.00636078      -0.42587156      -0.52740388      -1.90855758
C        0.12728634       1.89093611       0.61643052      -1.92212941       0.14858697      -0.58987277
H       -1.03640159       1.39882490       6.06647838       0.08195472      -1.88991778       3.35523549
H       -2.56153305       1.83356211       3.40578903       0.61349655       0.11943705       0.35654519
H        1.27223359       1.87154385      -2.47671234      -0.28832515       1.56782559       0.88648375
H        2.21756975       2.35377678       2.16670514      -1.11544735      -0.13956131      -0.15188132
H        0.44731477       3.62459776      -0.10870271      -0.03532102       0.22289026       0.73963213
H       -0.87746234       0.19327870       4.15670026      -0.94861143      -1.97898165      -0.19017666
H        0.67101006       0.81340203       4.47484315      -0.33688752       0.80846744       0.26100697
H       -0.03133132      -2.53625038      -1.82806312      -0.81723425      -1.04919734      -0.08205019
H        1.65643636      -3.33872869      -2.00454580      -0.95526695       0.59640336      -0.06729639
H        0.85097257      -1.91746405      -4.03718077      -0.48599310       0.80049664       0.00889154
H        2.31893794      -1.46387723      -3.25256025       0.55197145       0.95529157      -0.22593852
H       -0.39928450      -0.15875772      -0.68362688       0.10791094      -0.52107183      -0.89569772
H       -0.26639451       2.84396336       3.27794994      -0.16748593       0.45098176      -0.48055235
H        2.00059322       1.25680515      -0.21435784       0.21119335       0.31467697       0.06103584
H        0.33705467       0.16696486       1.96960891       0.07497549       0.80461228      -0.06396748
H       -1.00490625       1.75375268       0.34005859       1.96760283       0.01327438       0.67768712
