33
Properties=species:S:1:pos:R:3:forces:R:3 id=24774 bond=N-N smiles="[H:27][C:12]1([C:11]([S:8][C:13]([N:9]1[N:2]=[O:1])([H:29])[C:15]([H:31])([C:17]([H:33])([C:16]([H:32])([C:14]([H:30])([C:10]([H:23])([H:24])[O:3][H:18])[O:4][H:19])[O:6][H:21])[O:7][H:22])[O:5][H:20])([H:25])[H:26])[H:28]" dataset=PubChem energy=-34667.35123679076 pbc="F F F"
O       -0.10811483       0.28965883      -4.33092138      -0.85981863       0.12371644       2.96675450
N       -0.25028591       0.37540025      -3.10816356       2.99094952      -1.94129594      -2.05109074
O       -0.82806209       1.67595723       5.42658354       0.07712100       2.23888255      -2.63187402
O       -1.74640909       1.60496714       2.79766847       1.58361419      -0.16376568      -1.12290181
O        1.25030181       2.25813391      -1.54079173      -0.09363415      -3.13094951       1.14932631
O        2.05526063       1.32062974       2.46704353      -0.20771038      -0.32497636       0.57809426
O        0.58167804       3.14682796       0.95677255       0.30452532      -0.90100746      -1.53252947
S        1.77080974      -1.64480302      -0.34635852       0.82813815      -0.06038829       0.28086525
N        0.80923736      -0.36606589      -2.42398809      -0.61129849       0.78252456      -1.09521036
C       -0.15664336       0.94108971       4.43254186       0.90265722      -0.47984709       0.85860793
C        1.24361536      -2.58668635      -1.81286548       1.37321406       0.58624555      -0.10660738
C        1.48123881      -1.61238954      -3.00130103      -1.03204870      -0.62379090       2.36117694
C        0.86233991      -0.22019634      -0.91488861      -3.26034783      -0.15758393      -1.41245603
C       -0.32879313       1.66906931       3.17710735      -0.40771748       0.96788104       0.36735791
C        1.20178983       1.16242220      -0.42128311       2.22400504       2.73690393      -0.40679033
C        0.67450825       1.12168922       2.15225114      -0.44052456      -0.51188285      -1.93601956
C        0.35321410       1.73282936       0.76232088      -1.88264847       0.12329335      -0.64599639
H       -0.81047383       1.24071815       6.21236874       0.08251472      -1.88973266       3.35251867
H       -2.33560529       1.67545536       3.55167939       0.61856359       0.11909165       0.35499569
H        1.49816135       1.71343710      -2.33082198      -0.31456648       1.00543406       0.97823511
H        2.44349751       2.19567003       2.31259550      -1.12249262      -0.14512110      -0.16705636
H        0.67324253       3.46649101       0.03718765      -0.01845772       0.18478016       0.72724098
H       -0.65153458       0.03517195       4.30259062      -0.94984948      -1.97874286      -0.18988570
H        0.89693782       0.65529528       4.62073351      -0.33663187       0.81034994       0.26024373
H        0.19459644      -2.69435713      -1.68217276      -0.77155880      -0.95583988      -0.11969349
H        1.88236412      -3.49683544      -1.85865544      -0.91179182       0.50739238      -0.01471957
H        1.07690033      -2.07557080      -3.89129041      -0.67428143       0.84809680      -0.23519193
H        2.54486570      -1.62198398      -3.10666989       0.65560624       1.10641781      -0.27411624
H       -0.17335674      -0.31686447      -0.53773652       0.13305900      -0.48321114      -0.50626169
H       -0.04046675       2.68585661       3.42384030      -0.16790925       0.45098868      -0.48171912
H        2.22652098       1.09869840      -0.06846748       0.23795058       0.33780733       0.07110689
H        0.56298243       0.00885811       2.11549927       0.07279624       0.80471048      -0.06453167
H       -0.77897849       1.59564593       0.48594895       1.97385637       0.01040424       0.68464984
