17
Properties=species:S:1:pos:R:3:forces:R:3 id=2976 bond=C-C smiles="[H:11][C:4]([H:12])([H:13])[N:2]([H:7])[C:6]([H:16])([H:17])[C:5]([H:14])([H:15])[S:1][C:3]([H:8])([H:9])[H:10]" dataset="DES370K Monomers" energy=-16655.646055247627 pbc="F F F"
S        1.09565020      -1.69144424       1.22510585      -0.72026947       0.05601166      -0.21985792
N        0.39940816       1.72644266      -0.11292570      -1.16179518      -1.19044866       0.54092850
C        0.44735039      -3.18531330       2.06785772      -0.49808683       0.36050878      -0.82796066
C        0.79567736       2.80577501      -0.99928985       0.10621059      -0.17302091       0.49885934
C       -0.47127503      -1.17821451       0.43851847       0.22325214       2.19443345      -1.18914930
C       -0.20707017       0.59110223      -0.82105592       0.47166563      -1.38137665       0.96187682
H        1.16154348       1.36157258       0.42183616       0.48132081       0.12963743       0.22110093
H        1.07875229      -3.48293622       2.87003658       0.70332419      -0.04397175       0.52337606
H       -0.54985547      -3.04194459       2.47364661      -0.03930486       0.33496040       0.01013106
H        0.39037908      -3.98232062       1.34304092       0.01723969      -0.28915816      -0.13880952
H       -0.04466097       3.04692467      -1.62416444      -0.33034726       0.26788082      -0.30778995
H        1.62600195       2.52383455      -1.62575636       0.43643830      -0.06069622      -0.54459982
H        1.08669602       3.69725069      -0.43423094      -0.16608845      -0.23824978      -0.00573091
H       -0.98001402      -1.97475358      -0.11313718       0.67206729       0.27277064      -0.59814157
H       -1.18474197      -0.94388296       1.22251937       0.12240893       0.75632265       0.01316839
H        0.44475555       0.29594594      -1.67274258      -0.42483557      -0.58499334       0.59820816
H       -1.18899882       0.87257835      -1.22087619       0.10371057      -0.41349338       0.46415021
