17
Properties=species:S:1:pos:R:3:forces:R:3 id=2976 bond=C-C smiles="[H:11][C:4]([H:12])([H:13])[N:2]([H:7])[C:6]([H:16])([H:17])[C:5]([H:14])([H:15])[S:1][C:3]([H:8])([H:9])[H:10]" dataset="DES370K Monomers" energy=-16650.678990587763 pbc="F F F"
S        1.16378724      -1.23514677       0.90026824      -0.13219307      -1.91734394       0.97064625
N        0.33127112       1.27014519       0.21191191      -0.90281721       1.11154840      -0.64058922
C        0.51548743      -2.72901583       1.74302011      -0.26380814       0.28403440      -0.76921244
C        0.72754032       2.34947754      -0.67445224       0.17872398       0.00177438       0.71130533
C       -0.40313799      -0.72191704       0.11368086      -6.87754213     -36.52413874      26.41575299
C       -0.27520721       0.13480476      -0.49621831       6.32984708      36.25656702     -26.76614479
H        1.09340644       0.90527511       0.74667377       0.35741488       0.31455782       0.27348676
H        1.14688933      -3.02663875       2.54519897       0.65601637      -0.09280201       0.51455303
H       -0.48171843      -2.58564712       2.14880900      -0.01213478       0.37993888      -0.02896775
H        0.45851612      -3.52602315       1.01820331       0.02647898      -0.30183682      -0.12232583
H       -0.11279801       2.59062720      -1.29932683      -0.31157522       0.26298962      -0.30383947
H        1.55786491       2.06753708      -1.30091875       0.42386550      -0.04858650      -0.50740958
H        1.01855898       3.24095322      -0.10939333      -0.14007864      -0.19063534      -0.05737780
H       -0.91187698      -1.51845611      -0.43797479       0.48978947      -0.82204376       0.43829653
H       -1.11660493      -0.48758549       0.89768176      -0.07189959      -0.57892672       1.23579713
H        0.37661851      -0.16035153      -1.34790497      -0.01346676       0.95508637      -0.74805562
H       -1.25713586       0.41628088      -0.89603858       0.26095157       0.90654355      -0.61526256
