17
Properties=species:S:1:pos:R:3:forces:R:3 id=2976 bond=C-C smiles="[H:11][C:4]([H:12])([H:13])[N:2]([H:7])[C:6]([H:16])([H:17])[C:5]([H:14])([H:15])[S:1][C:3]([H:8])([H:9])[H:10]" dataset="DES370K Monomers" energy=-16657.89411307664 pbc="F F F"
S        1.14292896      -1.37482967       0.99970833      -0.62013944      -0.74559245       0.25465404
N        0.35212940       1.40982809       0.11247182      -1.05333178      -0.23635565      -0.08821721
C        0.49462915      -2.86869873       1.84246020      -0.36404228       0.36609732      -0.76667583
C        0.74839860       2.48916044      -0.77389233       0.15438374      -0.12187924       0.70445524
C       -0.42399627      -0.86159994       0.21312095      -1.05463786      -2.76283742       2.60826923
C       -0.25434893       0.27448766      -0.59565840       1.23171774       2.97956204      -2.74984659
H        1.11426472       1.04495801       0.64723368       0.45749646       0.19137483       0.28084673
H        1.12603105      -3.16632165       2.64463906       0.67715885      -0.07010486       0.50825599
H       -0.50257671      -2.72533002       2.24824909      -0.02067031       0.36002486      -0.01376668
H        0.43765784      -3.66570605       1.11764340       0.02500640      -0.28422906      -0.13784548
H       -0.09193973       2.73031010      -1.39876692      -0.32295471       0.25261245      -0.29960535
H        1.57872319       2.20721998      -1.40035884       0.43431091      -0.06326033      -0.53452390
H        1.03941726       3.38063612      -0.20883342      -0.14517859      -0.20912383      -0.04406451
H       -0.93273526      -1.65813901      -0.33853470       0.61385016      -0.18192234      -0.08549238
H       -1.13746321      -0.62726839       0.99712185       0.06858299       0.04393029       0.49151242
H        0.39747679      -0.02066863      -1.44734506      -0.34582363       0.26286439      -0.05650232
H       -1.23627758       0.55596378      -0.99547867       0.26162163       0.21582626      -0.07186748
