33
Properties=species:S:1:pos:R:3:forces:R:3 id=49004 bond=C-O smiles="[H:22][C:9]([H:23])([H:24])[C:11]([H:28])([H:29])[O:5][P:15](=[S:2])([C:13]([H:32])([H:33])[C:10]([H:25])([H:26])[H:27])[O:6][C:12]([H:30])([H:31])[P:14](=[S:1])([O:3][C:7]([H:16])([H:17])[H:18])[O:4][C:8]([H:19])([H:20])[H:21]" dataset=PubChem energy=-56006.02919619919 pbc="F F F"
S        2.10568731       2.31530598       3.78772538      -0.44364867      -0.03079030      -0.16152621
S       -1.62063808      -1.41599497       0.66542023      -0.23905644       0.50725283       0.35147091
O        1.08455639      -0.20168140       2.52426403      -0.04508433       1.31939952      -0.81899093
O        2.85450940       1.17965034       1.24553483      -1.97258914      -0.14734129      -0.26031574
O        0.49433027       0.18369124      -0.49222124      -3.63960771      18.99643769      17.87010225
O       -1.12254567       1.48029402       1.22637158       2.08279517      -0.71829757      -1.64549275
C        0.16195427      -0.35843464       3.60449784      -0.90681961      -0.25408419       1.04498825
C        3.87416391       0.35363500       1.79684179       1.59692059       0.13889774       0.16510780
C        1.98956382      -1.28282594      -1.14203705       0.16157176      -0.44669526      -1.26342170
C       -1.52157230       2.00456718      -2.14558560      -0.55890803       0.31658829      -0.28513507
C        0.60933255      -0.63240575      -1.24882318       4.52136230     -16.26419344     -16.91381981
C        0.12763022       2.21463076       1.41190474      -0.21731080       0.18767481      -0.17106461
C       -2.13437171       0.85635078      -1.31936771       1.25175527       1.06276340      -0.11150798
P        1.54692082       1.32318071       2.21217721       1.28212059      -0.02982516       1.69532994
P       -1.01862354       0.31918268       0.03509873      -3.46994409      -1.06387760       2.34625609
H        0.58489027       0.01437509       4.53681748       0.14418749       0.11795562      -0.19330677
H       -0.84717960       0.09640059       3.48342913       0.93752335      -0.07047326      -0.49064938
H        0.00030850      -1.41799232       3.71982353       0.03490343      -0.28495993      -0.17496354
H        3.75583105       0.28421699       2.87437218       0.12950343      -0.07966842       0.02134303
H        3.85620169      -0.62708267       1.35083633      -0.27833004      -0.30859955      -0.14450984
H        4.88893227       0.78072084       1.58809834      -1.11737814      -0.02523316       0.09199027
H        2.04735231      -1.78410171      -0.20302214       0.08731495      -0.47140030       0.73065278
H        2.77275896      -0.51478349      -1.15835477      -0.23570872      -0.14328081      -0.13026863
H        2.15268897      -2.01351427      -1.95694459       0.00948866       0.41117479       0.45522407
H       -2.23289175       2.27240924      -2.93463189       0.28110632      -0.11795500      -0.02668242
H       -1.38846416       2.93047026      -1.58127458       0.09928153      -0.25046925       0.19363440
H       -0.56770129       1.73571876      -2.60873705      -0.22817969      -0.00758539       0.10937716
H       -0.17377937      -1.36381339      -1.21686913      -0.10005419      -1.39664465      -0.26596810
H        0.50438428      -0.18952047      -2.22682537       0.25041860      -0.36579932      -1.86010323
H       -0.07826431       3.08135727       2.06283003       0.07276018      -0.65302241      -0.33970775
H        0.47772890       2.55564169       0.44899661       0.15357667       0.37990223      -0.23274523
H       -2.34813113       0.01299164      -1.96890360       0.16893255      -0.20331170       0.24018799
H       -3.07576723       1.16296009      -0.86221916       0.18400787      -0.10203142       0.16602568
