33
Properties=species:S:1:pos:R:3:forces:R:3 id=49004 bond=C-O smiles="[H:22][C:9]([H:23])([H:24])[C:11]([H:28])([H:29])[O:5][P:15](=[S:2])([C:13]([H:32])([H:33])[C:10]([H:25])([H:26])[H:27])[O:6][C:12]([H:30])([H:31])[P:14](=[S:1])([O:3][C:7]([H:16])([H:17])[H:18])[O:4][C:8]([H:19])([H:20])[H:21]" dataset=PubChem energy=-56005.96792211808 pbc="F F F"
S        2.04155142       2.77043699       4.20967646      -0.36329982       0.00541808      -0.05697472
S       -1.68477397      -0.96086396       1.08737131      -0.42518111      -0.04265011       0.28437234
O        1.02042050       0.25344961       2.94621511      -0.00356395       1.32307384      -0.66790511
O        2.79037351       1.63478135       1.66748591      -1.75548055      -0.19042859      -0.17394813
O        0.43019438       0.63882225      -0.07027016      -0.85634517      -0.52234867      -1.46669491
O       -1.18668156       1.93542503       1.64832266       1.86924763      -0.39731805      -1.20968144
C        0.09781838       0.09669637       4.02644892      -0.86955465      -0.22598619       0.99080445
C        3.81002802       0.80876601       2.21879287       1.47184808       0.25621353       0.11934166
C        2.05369971      -1.73795695      -1.56398813      -0.55572747       1.92358602       1.13560330
C       -1.58570819       2.45969819      -1.72363452      -0.61004374       0.23248246      -0.32375210
C        0.67346844      -1.08753676      -1.67077426       1.55081822      -1.24998572      -1.42097129
C        0.06349433       2.66976177       1.83385582      -0.36596619       0.10928171      -0.19258119
C       -2.19850760       1.31148179      -0.89741663       0.95040101       1.17498146       0.18246050
P        1.48278493       1.77831172       2.63412829       0.99235118      -0.15105509       1.36158704
P       -1.08275943       0.77431369       0.45704981       0.03095337      -2.24991487      -0.34138213
H        0.52075438       0.46950610       4.95876856       0.14526997       0.12156028      -0.17573421
H       -0.91131549       0.55153160       3.90538021       0.93778318      -0.07592972      -0.49794965
H       -0.06382739      -0.96286131       4.14177461       0.02601363      -0.28839344      -0.17851900
H        3.69169516       0.73934800       3.29632326       0.13848957      -0.09429529       0.03103826
H        3.79206580      -0.17195166       1.77278741      -0.28122565      -0.33609597      -0.13633512
H        4.82479638       1.23585185       2.01004942      -1.09357604      -0.02576649       0.09718126
H        2.11148820      -2.23923272      -0.62497322       0.19844057      -0.57217715       0.56932348
H        2.83689485      -0.96991450      -1.58030585      -0.15071240      -0.31591520      -0.23838512
H        2.21682486      -2.46864528      -2.37889567      -0.53003690       0.48533721       0.11876078
H       -2.29702764       2.72754025      -2.51268081       0.23895379      -0.08714276      -0.04351109
H       -1.45260005       3.38560127      -1.15932350       0.12240878      -0.25518368       0.19054987
H       -0.63183718       2.19084977      -2.18678597      -0.20634077      -0.02067086       0.18407309
H       -0.10964348      -1.81894440      -1.63882021      -0.93522821       0.33008138       1.67475719
H        0.56852017      -0.64465148      -2.64877645      -0.15572221       1.74271323       0.44895812
H       -0.14240020       3.53648828       2.48478111       0.06461303      -0.64906503      -0.31586884
H        0.41359301       3.01077270       0.87094769       0.17052318       0.31762222      -0.23462016
H       -2.41226702       0.46812265      -1.54695252       0.15884004      -0.21813848       0.24641918
H       -3.13990312       1.61809110      -0.44026808       0.09306892      -0.05228782       0.03259009
