7
Properties=species:S:1:pos:R:3:forces:R:3 id=27516 bond=C-S smiles="[H:7][S:3][C:5](=[S:1])[S:4][S:2][H:6]" dataset=PubChem energy=-44416.04495495349 pbc="F F F"
S        1.02166790       1.01523384       2.89009868      -0.16480180      -1.07081364      -3.34595481
S       -2.10097258       0.97034179       0.01356911       2.12538305       0.51017357       0.14841540
S        2.73997495      -0.31832603       0.78236088      -2.12216724       1.38983655      -1.33993010
S       -0.06217776       1.72321983      -0.25798798       0.03664351      -2.27913753       1.70394910
C        1.17022452       0.61980906       1.26540172       0.76116269       1.64962808       1.31922082
H       -1.73577158      -0.29818813      -0.21197344      -0.20556222      -0.01554831      -0.19836307
H        2.79432580      -0.11800346      -0.62514830      -0.43204070      -0.18373993       1.70684581
