7
Properties=species:S:1:pos:R:3:forces:R:3 id=27516 bond=C-S smiles="[H:7][S:3][C:5](=[S:1])[S:4][S:2][H:6]" dataset=PubChem energy=-44415.961068087774 pbc="F F F"
S        1.02918255       1.00850572       2.89938765      -0.17253872      -1.06900647      -3.39701612
S       -2.10848723       0.97706991       0.00428014       2.14357823       0.51792894       0.14510930
S        2.74748960      -0.32505415       0.79164985      -2.12860951       1.39525439      -1.34464756
S       -0.06969241       1.72994795      -0.26727695       0.00220057      -2.27148454       1.70824639
C        1.17773917       0.61308094       1.27469069       0.79355541       1.62693323       1.37620062
H       -1.74328623      -0.29146001      -0.22126241      -0.20700924      -0.01555333      -0.20046688
H        2.80184045      -0.12473158      -0.61585933      -0.43252471      -0.18388659       1.70691717
