48
Properties=species:S:1:pos:R:3:forces:R:3 id=38307 bond=C-N smiles="[H:24][c:5]1[c:6]([c:8]([c:10]2[c:9]([c:7]1[H:26])[C:16]([O:2][C:22]23[C:20]([C:17]([N:11]([C:18]([C:21]3([H:47])[H:48])([H:41])[H:42])[C:14]([H:34])([H:35])[C:4](=[C:3]([C:12]([H:28])([H:29])[H:30])[C:13]([H:31])([H:32])[H:33])[H:23])([H:39])[H:40])([H:45])[H:46])([H:38])[C:19]([H:43])([H:44])[C:15]([H:36])([H:37])[F:1])[H:27])[H:25]" dataset=PubChem energy=-26393.5131313772 pbc="F F F"
F        4.46655842      -3.11279231       1.30037398       0.78768976       0.07133351      -0.00022303
O        1.96275875      -0.59679490       1.79575454       0.60761001      -0.10980065       0.28110877
C       -0.82242482       2.91645752      -4.31373399       0.35630617      -0.51990478       3.41187792
C       -0.46068560       2.50823556      -3.01702779      -2.17067772       1.24664193      -2.41181163
C        1.53715488      -1.26966328       6.43468378       0.42999320      -0.78624458      -0.93903645
C        0.66759293      -0.19965029       6.29336546      -0.37429132       0.56552813      -0.45884758
C        2.18620655      -1.78020865       5.28108452       0.41569447      -0.42298258       0.66002959
C        0.39799583       0.33925133       5.02716539       0.06600773      -0.17435819      -0.90723836
C        1.90319690      -1.25546831       4.01380895       0.46720776      -0.35662716       1.61776108
C        1.01304075      -0.22331083       3.88965080      -0.38142182       0.28591138       0.88463191
N       -0.40966406       1.69304949       0.40380339      -1.34197022       0.49494030       0.15569630
C       -1.96000282       3.89783989      -4.62995046       0.44798805      -1.13878938       0.01180106
C       -0.11108680       2.29340242      -5.46173661       0.48259484      -0.77075042      -0.34226176
C       -1.29058401       2.86722051      -1.80305224       1.40880019      -0.05189435      -0.71822512
C        3.14417740      -3.29274398       0.98218360      -1.13007811       0.13576378       0.09803865
C        2.53889916      -1.56576544       2.70853840      -0.13323430       0.22033829      -0.55211096
C        0.94767110       2.07848936       0.83821687       0.20701379      -0.22007148      -1.45390078
C       -0.63612798       0.20558119       0.43678425       1.43387519       1.42550408      -0.91629563
C        2.30003831      -2.97746426       2.20735858      -0.23234098      -0.20894919      -0.30414335
C        1.17271945       1.63578015       2.30385743      -0.82342850       0.86024865      -1.10569554
C       -0.41407195      -0.30617792       1.85018227       0.36636975       0.48374811       0.40061441
C        0.93286771       0.16737891       2.43816827      -0.79563989      -0.94733544       0.72648704
H        0.34254452       1.82050882      -2.93042653       0.53144560      -0.52861281       0.12585049
H        1.67013779      -1.76024920       7.40794514       0.17140212       0.44550507      -0.51490884
H        0.21095326       0.25112944       7.16769741      -0.04126876      -0.14544316      -0.11034721
H        2.97146675      -2.56433898       5.40845106      -0.89844996       0.63651216      -0.18783001
H       -0.29092839       1.17910301       4.85044287       0.36938753      -0.44576605       0.49458448
H       -2.46752803       4.23458134      -3.74362105      -0.00359625       0.29242612       0.38285867
H       -1.62704365       4.75595652      -5.21523040       0.08002171      -0.09959243       0.05499906
H       -2.71758167       3.36112438      -5.21162790       0.13844332       0.13440569      -0.11985189
H        0.74259241       2.88192831      -5.79323333       0.05598009       0.09624487      -0.05650559
H        0.25983983       1.27328308      -5.20009034      -0.25368637       0.85228172      -0.23445141
H       -0.77820318       2.19823967      -6.32026761       0.02256705      -0.05564521       0.03281247
H       -2.32349484       2.59781979      -1.97473949      -0.14135287      -0.69293430       0.85730823
H       -1.25495379       3.94397627      -1.64669913       0.32277564      -0.19718655       1.05120729
H        2.87549516      -2.63649470       0.15777550       0.15542002       0.10677097      -0.06852165
H        3.00697109      -4.32084924       0.67391340      -0.00372289      -0.25238998      -0.08288206
H        3.62578103      -1.41644734       2.77218483      -0.27893760       0.12681759      -0.14848099
H        1.11185238       3.17151135       0.75559042      -0.43590621      -0.61934154      -0.01540713
H        1.70597652       1.59404677       0.18414519      -0.09490590       0.18490881       0.43390278
H       -1.65488008      -0.01862491       0.21944271      -0.69501581       0.13205433      -0.63047491
H        0.02834663      -0.29107005      -0.29507496      -0.21523932      -0.08326911       0.36042423
H        1.22920773      -3.19102126       2.01678513       0.57415506       0.31541540       0.02259527
H        2.61268529      -3.64438301       2.99302195       0.10358043      -0.38603245       0.38543548
H        2.16986295       1.89031320       2.64390324       0.17936008      -0.00067310      -0.07770767
H        0.45360926       2.20050352       2.91306899       0.16628462      -0.31455372      -0.05029658
H       -1.22905996       0.07745185       2.47011421       0.11875621      -0.05950314       0.02549554
H       -0.43979028      -1.40786082       1.88667892      -0.01990687       0.47826733      -0.07566038
