48
Properties=species:S:1:pos:R:3:forces:R:3 id=38307 bond=C-N smiles="[H:24][c:5]1[c:6]([c:8]([c:10]2[c:9]([c:7]1[H:26])[C:16]([O:2][C:22]23[C:20]([C:17]([N:11]([C:18]([C:21]3([H:47])[H:48])([H:41])[H:42])[C:14]([H:34])([H:35])[C:4](=[C:3]([C:12]([H:28])([H:29])[H:30])[C:13]([H:31])([H:32])[H:33])[H:23])([H:39])[H:40])([H:45])[H:46])([H:38])[C:19]([H:43])([H:44])[C:15]([H:36])([H:37])[F:1])[H:27])[H:25]" dataset=PubChem energy=-26397.654835661437 pbc="F F F"
F        4.29999793      -2.89078518       0.88311136       0.78846672       0.07109842      -0.00279690
O        1.79619826      -0.37478777       1.37849192       0.61853064      -0.11932828       0.27127454
C       -0.65586433       2.69445039      -3.89647137       0.52609720      -0.64439683       3.44988321
C       -0.29412511       2.28622843      -2.59976517      -2.41474388       1.62038328      -3.24830775
C        1.37059439      -1.04765615       6.01742116       0.43055384      -0.78637318      -0.93696842
C        0.50103244       0.02235684       5.87610284      -0.37436532       0.56537648      -0.45932759
C        2.01964606      -1.55820152       4.86382190       0.41661910      -0.42326366       0.65867840
C        0.23143534       0.56125846       4.60990277       0.06744817      -0.17768849      -0.90699364
C        1.73663641      -1.03346118       3.59654633       0.46469892      -0.35693788       1.62144491
C        0.84648026      -0.00130370       3.47238818      -0.38658153       0.28728471       0.86569233
N       -0.57622455       1.91505662      -0.01345923      -1.74106541       0.94637986      -1.69633378
C       -1.79344233       3.67583276      -4.21268784       0.45202107      -1.14281575       0.03942036
C        0.05547369       2.07139529      -5.04447399       0.43564986      -0.73999900      -0.37381679
C       -1.12402352       2.64521338      -1.38578962       2.40483567      -1.32019747       2.12345056
C        2.97761691      -3.07073685       0.56492098      -1.13089170       0.13503298       0.10255510
C        2.37233867      -1.34375831       2.29127578      -0.13651543       0.22435303      -0.55677914
C        0.78111061       2.30049649       0.42095425       0.09768048      -0.20323695      -0.66485269
C       -0.80268847       0.42758832       0.01952163       1.31754236       1.37991790      -0.21656599
C        2.13347782      -2.75545713       1.79009596      -0.23359052      -0.21044263      -0.30514193
C        1.00615896       1.85778728       1.88659481      -0.65324528       1.04077398      -1.34331764
C       -0.58063244      -0.08417079       1.43291965       0.27159759       0.35507861       0.12955907
C        0.76630722       0.38938604       2.02090565      -0.81243376      -0.91991109       0.74895892
H        0.50910501       1.59850169      -2.51316391       0.50533101      -0.52784283       0.18542060
H        1.50357730      -1.53824207       6.99068252       0.17139686       0.44521767      -0.51460956
H        0.04439277       0.47313657       6.75043479      -0.04128905      -0.14560544      -0.10915014
H        2.80490626      -2.34233185       4.99118844      -0.89790306       0.63602537      -0.18712163
H       -0.45748888       1.40111014       4.43318025       0.37048417      -0.44582365       0.49259516
H       -2.30096754       4.01257421      -3.32635843       0.00118724       0.29046306       0.37248466
H       -1.46048316       4.53394939      -4.79796778       0.07838861      -0.09742826       0.05230712
H       -2.55102118       3.13911725      -4.79436528       0.13645946       0.13385626      -0.12508234
H        0.90915290       2.65992118      -5.37597071       0.06050439       0.09501602      -0.06379005
H        0.42640032       1.05127595      -4.78282772      -0.25118589       0.84892067      -0.23136093
H       -0.61164269       1.97623254      -5.90300499       0.03361273      -0.06373301       0.01470561
H       -2.15693435       2.37581266      -1.55747687      -0.15667305      -0.32031525       0.40392872
H       -1.08839330       3.72196914      -1.22943651       0.04366494      -0.07080778       0.44168638
H        2.70893467      -2.41448757      -0.25948712       0.15551534       0.10726493      -0.06898419
H        2.84041060      -4.09884211       0.25665078      -0.00336736      -0.25262250      -0.08358421
H        3.45922054      -1.19444021       2.35492221      -0.27846806       0.12668011      -0.14803719
H        0.94529189       3.39351848       0.33832780      -0.40895977      -0.59250788      -0.05378136
H        1.53941603       1.81605390      -0.23311743      -0.11626113       0.21626630       0.36037608
H       -1.82144057       0.20338222      -0.19781991      -0.71931252       0.10531668      -0.64369073
H       -0.13821386      -0.06906292      -0.71233758      -0.23219187      -0.06395795       0.29199186
H        1.06264724      -2.96901413       1.59952251       0.57523931       0.31667321       0.02306106
H        2.44612480      -3.42237588       2.57575933       0.10430656      -0.38650836       0.38501854
H        2.00330246       2.11232033       2.22664062       0.17529890      -0.05239190      -0.02378762
H        0.28704877       2.42251065       2.49580637       0.15965342      -0.31056786      -0.06793138
H       -1.39562045       0.29945898       2.05285159       0.11613515      -0.04951081       0.01345113
H       -0.60635077      -1.18585369       1.46941630       0.01080362       0.47940276      -0.02319334
