48
Properties=species:S:1:pos:R:3:forces:R:3 id=38307 bond=C-N smiles="[H:24][c:5]1[c:6]([c:8]([c:10]2[c:9]([c:7]1[H:26])[C:16]([O:2][C:22]23[C:20]([C:17]([N:11]([C:18]([C:21]3([H:47])[H:48])([H:41])[H:42])[C:14]([H:34])([H:35])[C:4](=[C:3]([C:12]([H:28])([H:29])[H:30])[C:13]([H:31])([H:32])[H:33])[H:23])([H:39])[H:40])([H:45])[H:46])([H:38])[C:19]([H:43])([H:44])[C:15]([H:36])([H:37])[F:1])[H:27])[H:25]" dataset=PubChem energy=-26389.389312401294 pbc="F F F"
F        4.19265894      -2.74771393       0.61420878       0.77567654       0.07488547      -0.00221509
O        1.68885927      -0.23171652       1.10958934       0.58279974      -0.07324898       0.23811288
C       -0.54852534       2.55137914      -3.62756879       0.83473486      -0.89249819       3.31562108
C       -0.18678612       2.14315718      -2.33086259      -2.37127744       2.51458095      -6.84588063
C        1.26325540      -0.90458490       5.74851858       0.42835977      -0.78615914      -0.94100022
C        0.39369345       0.16542809       5.60720026      -0.37519411       0.56731451      -0.45722970
C        1.91230707      -1.41513027       4.59491932       0.41820556      -0.42279419       0.65837193
C        0.12409635       0.70432971       4.34100019       0.06910010      -0.17866204      -0.91307394
C        1.62929742      -0.89038993       3.32764375       0.46200440      -0.34908507       1.61066944
C        0.73914127       0.14176755       3.20348560      -0.39075602       0.28517217       0.87860625
N       -0.68356354       2.05812787      -0.28236181      18.46534526     -26.06184771      47.63236325
C       -1.68610334       3.53276151      -3.94378526       0.43212830      -1.10718680       0.07596802
C        0.16281268       1.92832404      -4.77557141       0.34213722      -0.70776863      -0.48783959
C       -1.01668453       2.50214213      -1.11688704     -17.27755203      24.31187254     -43.63046049
C        2.87027792      -2.92766560       0.29601840      -1.11799863       0.12870283       0.10245591
C        2.26499968      -1.20068706       2.02237320      -0.11540183       0.19177017      -0.53615032
C        0.67377162       2.44356774       0.15205167       1.06922340      -0.86870871       1.42347112
C       -0.91002746       0.57065957      -0.24938095       1.85926766      -0.11710537       1.56063599
C        2.02613883      -2.61238588       1.52119338      -0.23348157      -0.20645728      -0.30641618
C        0.89881997       2.00085853       1.61769223      -0.51610212       1.06822486      -1.34833265
C       -0.68797143       0.05890046       1.16401707       0.26698802       0.18503175       0.09256866
C        0.65896823       0.53245729       1.75200307      -0.80187942      -0.92530694       0.73661880
H        0.61644400       1.45543044      -2.24426133       0.42321170      -0.47548497      -0.01426846
H        1.39623831      -1.39517082       6.72177994       0.17134625       0.44632437      -0.51635337
H       -0.06294622       0.61620782       6.48153221      -0.04065216      -0.14596327      -0.11102123
H        2.69756727      -2.19926060       4.72228586      -0.89942164       0.63765349      -0.18796430
H       -0.56482787       1.54418139       4.16427767       0.36883198      -0.44452606       0.49742583
H       -2.19362855       3.86950296      -3.05745585       0.03335595       0.26605264       0.36270533
H       -1.35314417       4.39087814      -4.52906520       0.08168334      -0.09030996       0.03501072
H       -2.44368219       2.99604600      -4.52546270       0.13268186       0.12571230      -0.14387201
H        1.01649189       2.51684993      -5.10706813       0.07393204       0.09779157      -0.07467159
H        0.53373931       0.90820470      -4.51392514      -0.24525597       0.83538214      -0.22620576
H       -0.50430370       1.83316129      -5.63410241       0.04280979      -0.08112024      -0.04148081
H       -2.04959536       2.23274141      -1.28857429      -1.27869239       0.49275954      -1.30434073
H       -0.98105431       3.57889789      -0.96053393      -0.58686947       1.56707115      -1.18556900
H        2.60159568      -2.27141632      -0.52838970       0.15728754       0.10487414      -0.07287971
H        2.73307161      -3.95577086      -0.01225180      -0.00497958      -0.24896700      -0.08390531
H        3.35188155      -1.05136896       2.08601963      -0.28184254       0.12932177      -0.15148217
H        0.83795290       3.53658973       0.06942522      -0.59791283      -0.57606342      -0.17267025
H        1.43207704       1.95912515      -0.50202001      -0.37098698       0.33209161       0.44025566
H       -1.92877956       0.34645347      -0.46672249      -0.75043963       0.32853143      -0.70182150
H       -0.24555285       0.07400833      -0.98124016      -0.38667985       0.10460906       0.36584239
H        0.95530825      -2.82594288       1.33061993       0.57404903       0.31399565       0.02459641
H        2.33878581      -3.27930463       2.30685675       0.10258034      -0.38300721       0.38438581
H        1.89596347       2.25539158       1.95773804       0.16326897      -0.06323471       0.01194814
H        0.17970978       2.56558190       2.22690379       0.18457725      -0.30925651      -0.04445676
H       -1.50295944       0.44253023       1.78394901       0.11514264      -0.07171060       0.02675791
H       -0.71368976      -1.04278244       1.20051372       0.01246442       0.47896422       0.02144012
