42
Properties=species:S:1:pos:R:3:forces:R:3 id=41853 bond=C-O smiles="[H:34][C:13]1([C:7]2=[C:8]([C:14]([C:17]3([C:15]([C:20]([C:16]([C:18]3([C:19]1([C:10]([H:25])([H:26])[H:27])[O:5][H:23])[H:42])([H:39])[H:40])([C:11]([H:28])([H:29])[H:30])[C:12]([H:31])([H:32])[H:33])([H:37])[H:38])[H:41])([H:36])[O:4][H:22])[C:9]([O:3][C:6]2=[O:1])([H:24])[O:2][H:21])[H:35]" dataset=PubChem energy=-26160.5907990065 pbc="F F F"
O       -2.02841999      -2.45967224      -2.11281946       5.88613400       3.41769204      -1.54816993
O        2.06611655      -1.93602922      -3.31313612       0.77096222       0.17731543       4.14617082
O       -0.10992374      -1.48719397      -3.22589567      -1.75326067       0.13268001       1.13790332
O        3.36613819      -0.38080826      -0.98726847      -0.11824781       0.56516647       0.73289842
O       -2.27990549       1.03297825       0.80906315       2.04450409      -1.10950575       0.71503226
C       -0.85358574      -1.85107675      -2.15952613      -6.58540564      -4.11943519       2.44949796
C       -0.14440312      -1.65316275      -0.86383357       2.81131933       1.90612654      -1.56856740
C        1.09477690      -1.17358497      -1.23838451      -1.89345400      -1.56776349       2.98158484
C        1.11710076      -1.07957676      -2.69639471       2.65348548       2.09665231      -1.92300393
C       -1.16308715      -1.32126489       2.82813737      -1.31005843       1.92195138      -0.81488715
C        2.96476910       2.75296828       3.20840690      -2.56476920      -0.59583020      -0.95552955
C        1.24832407       3.29630992       1.34890190      -3.41485833      -0.66680867       2.39880962
C       -0.63729074      -1.89060738       0.54874276      -2.26237737       3.30066311      -2.60388512
C        2.18660042      -0.70970985      -0.23474952      -0.43743514      -1.37376265      -2.55908749
C        2.61974356       1.35886594       1.04695240       2.27026917       1.38755880      -0.03085346
C        0.93403025       1.17143771       2.70834705      -2.67893262       1.56282327      -2.35227582
C        1.59915439       0.43010488       0.58219028      -0.72319859      -1.06666009      -2.54627193
C        0.90726127      -0.09123003       1.82464299      -1.74535056       1.22085438      -1.40044800
C       -0.51277223      -0.71882573       1.57441750       0.18292562      -2.35756625       0.61109060
C        1.95888207       2.19468901       2.12536034       0.66767495      -1.44413413      -0.18367322
H        1.95423875      -1.87992027      -4.21068051      -0.38801363       0.26575763      -3.37566724
H        3.52693388      -0.96295240      -1.74150470      -0.46338626      -0.11889779       0.42812754
H       -3.12078063       0.58548118       0.67101298       0.19262992      -0.44917990       0.07704900
H        1.38766608       0.03502322      -2.94016268      -0.88761181      -1.85315680      -0.10696642
H       -0.44525745      -1.86623052       3.41831705       0.27534398      -0.85719124      -0.30293553
H       -2.14919569      -1.79727176       2.59450528       1.30982955      -0.02414977       0.28216277
H       -1.39520576      -0.52581200       3.49878690      -0.34957793       0.84791848       0.50791455
H        3.62304423       3.43016788       2.68072590       0.20422416       0.30102537       0.44138846
H        3.49520061       1.97849414       3.78518173      -0.27071706       0.32132533      -0.43483406
H        2.17271135       3.22960994       3.81038329       1.25197542       0.50703413       0.54108627
H        0.50249133       2.86638114       0.59512465       0.73768789       0.63751180       1.43701101
H        0.73982527       3.96180722       2.13754150       0.27114923      -0.79766097      -1.51827001
H        1.88463918       3.87305900       0.80019723       1.99187286       1.64053351      -1.25983361
H       -0.01227411      -2.63898256       0.88329372       0.97983193      -1.89856503       1.37452973
H       -1.71787646      -2.17618301       0.45755268       1.21085993      -0.05375050       0.35253395
H        2.37104843      -1.52971366       0.46910121       0.34634970      -0.18146337      -0.29888966
H        3.53639123       0.81322572       1.39622960      -0.72604392       0.51378300      -0.28875828
H        2.87416646       2.08469471       0.25409192       0.58519920      -0.86243412       0.16273372
H        1.17415145       0.93773458       3.65638206       0.60641877      -0.71621116       3.40515008
H       -0.12659778       1.62895796       2.66990182       1.63363659      -0.73069732       0.27616740
H        0.88104423       0.87981638      -0.12264135       0.15004334       0.38781305       0.76605231
H        1.57727907      -0.89951864       2.11696729      -0.46311421      -0.26890134       0.84653916
