42
Properties=species:S:1:pos:R:3:forces:R:3 id=41853 bond=C-O smiles="[H:34][C:13]1([C:7]2=[C:8]([C:14]([C:17]3([C:15]([C:20]([C:16]([C:18]3([C:19]1([C:10]([H:25])([H:26])[H:27])[O:5][H:23])[H:42])([H:39])[H:40])([C:11]([H:28])([H:29])[H:30])[C:12]([H:31])([H:32])[H:33])([H:37])[H:38])[H:41])([H:36])[O:4][H:22])[C:9]([O:3][C:6]2=[O:1])([H:24])[O:2][H:21])[H:35]" dataset=PubChem energy=-26153.412466798636 pbc="F F F"
O       -2.59068966      -1.90228006      -2.35634130       5.69885925       3.42887166      -1.58303447
O        1.50384688      -1.37863704      -3.55665796       0.76294447       0.17482319       4.07936191
O       -0.67219341      -0.92980179      -3.46941751      -1.80920498       0.12256248       1.00693770
O        2.80386852       0.17658392      -1.23079031      -0.04382524       0.59357152       0.64151278
O       -1.71763582       0.47558607       1.05258499     -47.28582882      50.58598587     -22.50840833
C       -1.41585541      -1.29368457      -2.40304797      -6.27852865      -4.04482966       2.47795912
C       -0.70667279      -1.09577057      -1.10735541       2.47870385       1.80683203      -1.14883203
C        0.53250723      -0.61619279      -1.48190635      -1.79425566      -1.42816077       2.82938907
C        0.55483109      -0.52218458      -2.93991655       2.70051821       2.05925182      -1.79039624
C       -1.72535682      -0.76387271       2.58461553       1.52492198      -2.48751668       3.37678733
C        2.40249943       3.31036046       2.96488506      -2.57092241      -0.56595617      -0.96574199
C        0.68605440       3.85370210       1.10538006      -3.35645857      -0.63987310       2.43919031
C       -1.19956041      -1.33321520       0.30522092       1.37701992      -1.67892420      -2.96327278
C        1.62433075      -0.15231767      -0.47827136      -0.55302978      -1.42385574      -2.49307495
C        2.05747389       1.91625812       0.80343056       2.23807060       1.43009364      -0.08551971
C        0.37176058       1.72882989       2.46482521      -2.64827205       1.29633744      -2.57270980
C        1.03688472       0.98749706       0.33866844      -0.86600613      -1.20345305      -2.32566376
C        0.34499160       0.46616215       1.58112115       0.99578273      -0.59372998      -0.25231351
C       -1.07504190      -0.16143355       1.33089566      43.25963823     -44.36460392      19.76499162
C        1.39661240       2.75208119       1.88183850       0.61474839      -1.47271918      -0.16005623
H        1.39196908      -1.32252809      -4.45420235      -0.38345406       0.25936636      -3.37152165
H        2.96466421      -0.40556022      -1.98502654      -0.46604659      -0.11466610       0.45019306
H       -2.55851096       0.02808900       0.91453482      -1.51215943       1.53252949      -0.57505536
H        0.82539641       0.59241540      -3.18368452      -0.87334951      -1.84885678      -0.13243310
H       -1.00752712      -1.30883834       3.17479521      -0.35737896      -1.37481241       0.38510992
H       -2.71146536      -1.23987958       2.35098344       1.10297299      -0.11577492       0.04531123
H       -1.95747543       0.03158018       3.25526506      -0.21980032       1.10006472       0.22064429
H        3.06077456       3.98756006       2.43720406       0.21514706       0.30413233       0.44203725
H        2.93293094       2.53588632       3.54165989      -0.28501392       0.31973583      -0.44762988
H        1.61044168       3.78700212       3.56686145       1.24901807       0.50875581       0.55147427
H       -0.05977834       3.42377332       0.35160281       0.77915623       0.62083419       1.39779088
H        0.17755560       4.51919940       1.89401966       0.27096381      -0.77857999      -1.49576209
H        1.32236951       4.43045118       0.55667539       1.96141100       1.64389897      -1.28218752
H       -0.57454378      -2.08159038       0.63977188       0.72500237      -2.50964526       0.74505971
H       -2.28014613      -1.61879083       0.21403084       0.93809676       0.04550483       0.46095724
H        1.80877876      -0.97232148       0.22557937       0.30787870      -0.13078282      -0.29893811
H        2.97412156       1.37061790       1.15270776      -0.76465535       0.51690965      -0.29866861
H        2.31189679       2.64208689       0.01057008       0.61404676      -0.82452489       0.15441864
H        0.61188178       1.49512676       3.41286022       0.56140175      -0.71431383       3.39149146
H       -0.68886745       2.18635014       2.42637998       1.58977548      -0.63118655       0.34323237
H        0.31877456       1.43720856      -0.36616319       0.15802772       0.43347152       0.62776956
H        1.01500940      -0.34212646       1.87344545      -0.05510146       0.15926810       0.92113559
