27
Properties=species:S:1:pos:R:3:forces:R:3 id=49795 bond=C-C smiles="[H:21][C:8]1([C:9]([N:5]2[C:11]([C:2](=[O:1])[N:4]([C:12]2([C:6]([H:15])([H:16])[H:17])[C:7]([H:18])([H:19])[H:20])[H:14])([C:10]([N:3]1[H:13])([H:25])[H:26])[H:27])([H:23])[H:24])[H:22]" dataset=PubChem energy=-15065.576350205205 pbc="F F F"
O        0.53592658       0.56740525      -2.87220883      -0.78653544       1.97148656       4.33031130
C        0.54820755       0.93461940      -1.64207196       2.27370244      -3.01163935      -3.70700873
N       -2.23582331      -0.65568337       0.53114024      -0.14938987       0.85742846       0.18858775
N        1.74838289       1.32811025      -1.03644586       0.30683886      -0.05846712      -0.23372548
N        0.47117695       0.46188524       0.62910613      -0.56282414      -0.16161807      -0.17823369
C        2.36489911       2.40407814       1.46096973      -0.15653271      -3.36559590      -0.56494410
C        2.82005557      -0.17185518       0.47142535       2.45630986      -0.61508446       1.88194381
C       -1.41286222      -0.79910740       1.71179593       0.54089894      -0.59188757       1.21864229
C       -0.31232748       0.33870362       1.85683131      -1.42731280       0.36147418      -0.41973980
C       -1.32520346      -0.59111694      -0.61314440      -3.31286284       1.95226815      -1.97630429
C       -0.43576184       0.60588731      -0.53009492       0.97432777       1.74499664       0.97791299
C        1.84242054       0.94849691       0.37714573      -0.89965787       2.84391600       1.52088405
H       -2.83688632       0.22774420       0.55620303       1.29862740      -1.67658149       0.12233883
H        2.64447506       1.14133969      -1.55306459      -1.85522944       0.48810679       0.38738568
H        3.37958451       2.69532134       1.11804493      -0.79289868      -0.17477348       0.41154603
H        1.64387246       3.15712692       1.36464618      -0.86951367       1.20390847      -0.96114159
H        2.28045448       2.20911802       2.57607524       0.65995408      -0.54190825      -1.40774110
H        2.19880732      -1.07725116       0.42790377       0.85106663       0.04187956      -0.14293662
H        3.46588620      -0.14258870       1.42783737      -1.44962117      -0.21767404      -1.09373056
H        3.64004573      -0.13345590      -0.28453529      -0.95382410      -0.12471963       0.15825783
H       -2.08922664      -0.89001688       2.61253762       0.92578304       0.52613373      -0.75787499
H       -0.87030009      -1.80096599       1.67321491      -0.65552542       1.19964702      -0.21051934
H        0.21864432       0.13606471       2.76735043       0.76616385       0.04583664       0.10359587
H       -0.89142469       1.28613201       1.98700404       0.33600995      -0.36824615       0.23162752
H       -2.06226936      -0.34668156      -1.45576299       1.44856482      -0.98050815       0.46131468
H       -0.78691271      -1.49104294      -0.71398008       0.43517811      -1.04810837      -0.32632046
H       -1.14358226       1.47294703      -0.40121138       0.59700235      -0.29947654      -0.01197335
