27
Properties=species:S:1:pos:R:3:forces:R:3 id=49795 bond=C-C smiles="[H:21][C:8]1([C:9]([N:5]2[C:11]([C:2](=[O:1])[N:4]([C:12]2([C:6]([H:15])([H:16])[H:17])[C:7]([H:18])([H:19])[H:20])[H:14])([C:10]([N:3]1[H:13])([H:25])[H:26])[H:27])([H:23])[H:24])[H:22]" dataset=PubChem energy=-15066.099003242434 pbc="F F F"
O        0.55504165       0.62065822      -2.83255673      -0.79977984       1.97038268       4.31199156
C        0.56732262       0.98787237      -1.60241986       2.32160585      -3.02927131      -3.69858313
N       -2.21670824      -0.60243040       0.57079234      -0.14850884       0.85727953       0.19404776
N        1.76749796       1.38136322      -0.99679376       0.24721514      -0.05821515      -0.41172263
N        0.49029202       0.51513821       0.66875823      -0.74748365      -0.28150108      -0.22176755
C        2.34578404       2.35082517       1.42131763      -0.16083495      -3.13384481      -0.48055021
C        2.83917064      -0.11860221       0.51107745       2.39179353      -0.78871376       1.75346900
C       -1.39374715      -0.74585443       1.75144803       0.53740971      -0.59187735       1.22244507
C       -0.29321241       0.39195659       1.89648341      -1.41636687       0.37739111      -0.44367496
C       -1.30608839      -0.53786397      -0.57349230      -3.31456436       1.96227353      -1.99150636
C       -0.41664677       0.65914028      -0.49044282       0.98099591       1.69939973       0.99717551
C        1.86153561       1.00174988       0.41679783      -0.73606753       2.72854735       1.62703619
H       -2.81777125       0.28099717       0.59585513       1.29917525      -1.67570612       0.12222463
H        2.66359013       1.19459266      -1.51341249      -1.86380220       0.47379203       0.37779700
H        3.36046944       2.64206837       1.07839283      -0.76402198      -0.06914699       0.49270620
H        1.62475739       3.10387395       1.32499408      -0.80872439       1.29462444      -0.88380723
H        2.26133941       2.15586505       2.53642314       0.68256345      -0.48770931      -1.39650381
H        2.21792239      -1.02399819       0.46755587       0.87223574       0.02558971      -0.14657623
H        3.48500127      -0.08933573       1.46748947      -1.45111724      -0.20917730      -1.08587847
H        3.65916080      -0.08020293      -0.24488319      -0.94658846      -0.13866491       0.15468018
H       -2.07011157      -0.83676391       2.65218972       0.92336668       0.52573345      -0.75709558
H       -0.85118502      -1.74771302       1.71286701      -0.65323968       1.20096974      -0.21133948
H        0.23775939       0.18931768       2.80700253       0.76282254       0.04080959       0.11153295
H       -0.87230962       1.33938498       2.02665614       0.32108209      -0.36679654       0.24225720
H       -2.04315429      -0.29342859      -1.41611089       1.44372750      -0.98243709       0.46061544
H       -0.76779764      -1.43778997      -0.67432798       0.43700641      -1.04692510      -0.32542280
H       -1.12446719       1.52620000      -0.36155928       0.58872315      -0.29641742      -0.01132968
