35
Properties=species:S:1:pos:R:3:forces:R:3 id=760 bond=C-N smiles="[H:28][C:9]1([C:11]([C:13]2([C:12]([C:10]1([H:30])[H:31])([O:2][C:4]([O:1][C:5]([N:3]2[C:14]([C:6]([H:19])([H:20])[H:21])([C:7]([H:22])([H:23])[H:24])[C:8]([H:25])([H:26])[H:27])([H:17])[H:18])([H:15])[H:16])[H:34])[H:35])([H:32])[H:33])[H:29]" dataset=PubChem energy=-17342.970890080436 pbc="F F F"
O        1.68119186      -1.41671483      -0.64666096      -0.20554864      -1.33066859       0.29126743
O       -0.59477133      -1.66977660      -1.16526274      -0.16178350      -0.62284560      -0.31810283
N        1.03203493       0.35654803       0.80605652       3.11769655      -0.90590752       0.88835096
C        0.64693357      -2.36060778      -1.06664995       0.73715838       2.13142050       0.04158608
C        1.61047572      -1.02672605       0.74717366      -1.76308789       1.22236504       0.02028649
C        3.59490822       1.34964338       0.57225636      -1.51262175       0.55073008      -1.23856910
C        1.71845589       2.91683909       0.30927279      -0.03192386       1.26464818       1.46119640
C        2.03731321       1.93944618       2.53426882       1.91533155      -0.73360521       0.20050880
C       -2.68250364       0.90112926       0.53236821       0.05650730      -2.38180706       1.33467340
C       -2.57533186      -0.37106005      -0.35218821       1.37761630      -0.33262879       0.04106587
C       -1.31202656       1.18761261       1.09613474       1.18810445       0.38785918      -0.28538699
C       -1.10009080      -0.88178651      -0.06621114       0.63736309      -0.31013454      -0.53931402
C       -0.28767538       0.40675528       0.18796941      -0.87540280       2.17411405       0.85437727
C        2.11489091       1.60977992       1.02342984      -1.77651642      -0.10651082      -0.39869250
H        0.68217648      -3.16237585      -0.32572911      -0.55490781      -0.15495555      -0.12209203
H        0.92344493      -2.71173731      -2.11255530      -0.49305636       0.49429360       1.51250532
H        0.92378711      -1.68894927       1.36332204       0.59878909       0.42894359      -1.13071284
H        2.56888872      -1.15648405       1.26050093       0.03956694       0.61485881      -0.55754762
H        4.08404110       2.32434317       0.71410280       0.03670695      -0.45842071      -0.20677939
H        3.67487930       1.02278178      -0.49681810      -0.29361305       0.52354314       0.87957520
H        4.12121151       0.63139355       1.12792995       0.48069594      -0.97629545       1.02424106
H        2.37909029       3.74015590       0.73314082      -0.60949927      -1.08337220      -0.41825879
H        0.70497096       3.32939430       0.49105843       0.41796006      -0.79334588      -0.12136554
H        1.93284152       2.91373917      -0.71972886       0.00030651      -0.19852828      -1.43674993
H        1.03958405       2.21858272       2.83743318      -0.26011392      -0.28239568       0.01323540
H        2.72848557       2.79793783       2.87533887      -0.81362359      -1.41333575      -0.79229753
H        2.38413821       0.97432518       2.98477920      -0.53846967       1.05977875       0.40885716
H       -3.31691879       0.65999365       1.40842135      -0.22215765       0.60115595      -0.86862336
H       -2.94147819       1.75618739       0.01373025      -1.38625041       1.36755364      -1.06211871
H       -2.72797364      -0.23145406      -1.43194644       0.32911193       0.27448647       0.38245464
H       -3.29631179      -1.12837283      -0.06731264       0.01543993      -0.11292103       0.14131930
H       -1.24535400       0.90872960       2.15445920       0.32240228      -0.03959166      -0.34189635
H       -1.13367921       2.27069898       0.99698993       0.20138578      -0.46987214       0.42615458
H       -1.08796793      -1.50066105       0.84003957      -0.15605964       0.12744674      -0.04848951
H       -0.28790122       1.00146206      -0.74379019       0.18157699      -0.51788251      -0.03663136
