35
Properties=species:S:1:pos:R:3:forces:R:3 id=760 bond=C-N smiles="[H:28][C:9]1([C:11]([C:13]2([C:12]([C:10]1([H:30])[H:31])([O:2][C:4]([O:1][C:5]([N:3]2[C:14]([C:6]([H:19])([H:20])[H:21])([C:7]([H:22])([H:23])[H:24])[C:8]([H:25])([H:26])[H:27])([H:17])[H:18])([H:15])[H:16])[H:34])[H:35])([H:32])[H:33])[H:29]" dataset=PubChem energy=-17339.96369114131 pbc="F F F"
O        1.45740163      -1.67571609      -0.69158477      -0.21305473      -1.54594203       0.18100112
O       -0.81856156      -1.92877786      -1.21018655      -0.19094975      -0.62386207      -0.31741849
N        0.80824470       0.09754677       0.76113271       2.06325327      -1.12850812       1.88276621
C        0.42314334      -2.61960904      -1.11157376       0.80234870       2.17538898       0.05633044
C        1.38668549      -1.28572731       0.70224985      -1.46167592       1.70010278      -0.34310087
C        3.81869845       1.60864464       0.61718017      -1.78459347      -0.10656713      -1.37563684
C        1.94224612       3.17584035       0.35419660      -0.55370843       0.70516662       1.21466914
C        2.26110344       2.19844744       2.57919263       1.10336892      -1.74886250      -0.05465036
C       -2.90629387       0.64212800       0.48744440       0.06209141      -2.36613338       1.33704744
C       -2.79912209      -0.63006131      -0.39711202       1.37337472      -0.35467227       0.03830772
C       -1.53581679       0.92861135       1.05121093       1.24736142       0.39685763      -0.27044361
C       -1.32388103      -1.14078777      -0.11113495       0.52813902      -0.38483419      -0.65065999
C       -0.51146561       0.14775402       0.14304560      -0.62870555       2.08471164       0.71125735
C        2.33868114       1.86878118       1.06835365       0.43406660       2.05198564      -0.18780820
H        0.45838625      -3.42137711      -0.37065292      -0.56271986      -0.16728232      -0.11914330
H        0.69965470      -2.97073857      -2.15747911      -0.50109891       0.48547828       1.50506395
H        0.69999688      -1.94795053       1.31839823       0.48293143       0.46931060      -1.04132689
H        2.34509849      -1.41548531       1.21557712       0.08077041       0.60313068      -0.54979609
H        4.30783133       2.58334443       0.75902661      -0.06681282      -0.36129136      -0.17873929
H        3.89866953       1.28178304      -0.45189429      -0.25347775       0.56812411       0.89433832
H        4.34500174       0.89039481       1.17285376       0.44744488      -0.99115238       1.01959165
H        2.60288052       3.99915716       0.77806463      -0.53665406      -1.12715544      -0.30310386
H        0.92876119       3.58839556       0.53598224       0.39007025      -0.79824730      -0.10927430
H        2.15663175       3.17274043      -0.67480505       0.00374001      -0.18405892      -1.40501674
H        1.26337428       2.47758398       2.88235699      -0.24539704      -0.26731028       0.06872571
H        2.95227580       3.05693909       2.92026268      -0.77844935      -1.42988624      -1.00410875
H        2.60792844       1.23332644       3.02970301      -0.54372775       1.08236990       0.46185900
H       -3.54070902       0.40099239       1.36349754      -0.22773838       0.59734840      -0.86558204
H       -3.16526842       1.49718613      -0.03119356      -1.39036732       1.36864836      -1.06731666
H       -2.95176387      -0.49045532      -1.47687025       0.33002855       0.27428604       0.37894824
H       -3.52010202      -1.38737409      -0.11223645       0.00331919      -0.11664112       0.14314470
H       -1.46914423       0.64972834       2.10953539       0.33877543      -0.03684221      -0.34978474
H       -1.35746944       2.01169772       0.95206612       0.26237522      -0.41757972       0.40523221
H       -1.31175816      -1.75966231       0.79511576      -0.14118087       0.13257396      -0.04197813
H       -0.51169145       0.74246080      -0.78871400       0.12725144      -0.53627024      -0.06431587
