35
Properties=species:S:1:pos:R:3:forces:R:3 id=760 bond=C-N smiles="[H:28][C:9]1([C:11]([C:13]2([C:12]([C:10]1([H:30])[H:31])([O:2][C:4]([O:1][C:5]([N:3]2[C:14]([C:6]([H:19])([H:20])[H:21])([C:7]([H:22])([H:23])[H:24])[C:8]([H:25])([H:26])[H:27])([H:17])[H:18])([H:15])[H:16])[H:34])[H:35])([H:32])[H:33])[H:29]" dataset=PubChem energy=-17327.35597233163 pbc="F F F"
O        1.92663922      -1.13264894      -0.59738967      -0.21588403      -0.88990785       0.65057779
O       -0.34932397      -1.38571071      -1.11599145      -0.06264610      -0.60021529      -0.30908145
N        1.27748229       0.64061392       0.85532781     -58.49355276     -73.66869910     -16.67930118
C        0.89238093      -2.07654189      -1.01737866       0.49045996       2.02342300       0.00470349
C        1.85592308      -0.74266016       0.79644495      -3.24011526      -2.68192681       0.50231448
C        3.34946086       1.06557749       0.52298507       1.76033228       3.31813655      -1.27132409
C        1.47300853       2.63277320       0.26000150       1.48278826       4.47101084       1.52716453
C        1.79186585       1.65538029       2.48499753       4.28675556       3.06290424       3.86234462
C       -2.43705628       1.18519515       0.58163950       0.08480442      -2.49961983       1.31601735
C       -2.32988450      -0.08699416      -0.30291692       1.33593076      -0.35136017       0.02353981
C       -1.06657920       1.47167850       1.14540603       0.77407644       0.26337621      -0.11822295
C       -0.85464344      -0.59772062      -0.01693985       0.52015536      -0.25568233      -0.45188907
C       -0.04222802       0.69082117       0.23724070      -2.56184623       0.31661097       0.84447049
C        1.86944355       1.32571403       0.97415855      56.11880418      68.28407386      12.28343476
H        0.92762384      -2.87830996      -0.27645782      -0.52960095      -0.12823474      -0.12950613
H        1.16889229      -2.42767142      -2.06328401      -0.47105368       0.51696826       1.51997405
H        1.16923447      -1.40488338       1.41259333       0.55765076       0.33767186      -1.16452075
H        2.81433608      -0.87241816       1.30977222      -0.73989883       0.35932618      -0.61954873
H        3.83859374       2.04027728       0.66483151       0.37102500      -0.45311782      -0.35831463
H        3.42943194       0.73871589      -0.54608939      -0.37216283       0.50106015       0.87677390
H        3.87576415       0.34732766       1.07865866       0.71762549      -0.34089784       0.89901856
H        2.13364293       3.45609001       0.68386953      -0.62688169      -0.95639706      -0.56589320
H        0.45952360       3.04532841       0.44178714       1.14800027      -0.60184872      -0.28215243
H        1.68739416       2.62967328      -0.76900015       0.12328964      -0.26509096      -1.46648674
H        0.79413669       1.93451683       2.78816189      -0.17114677      -0.25927198      -0.16003848
H        2.48303821       2.51387194       2.82606758      -0.78644075      -1.19099005       0.14889897
H        2.13869085       0.69025929       2.93550791      -0.45304019       0.91690520       0.16667037
H       -3.07147143       0.94405954       1.45769264      -0.20967384       0.60813169      -0.87705357
H       -2.69603083       2.04025328       0.06300154      -1.37055899       1.37185792      -1.05202553
H       -2.48252628       0.05261183      -1.38267515       0.32224148       0.27092486       0.38268479
H       -3.05086443      -0.84430694      -0.01804135       0.01776863      -0.10624345       0.13054147
H       -0.99990664       1.19279549       2.20373049       0.17048800      -0.03059936      -0.40816398
H       -0.88823185       2.55476487       1.04626122      -0.23524105      -0.77372184       0.64210356
H       -0.84252057      -1.21659516       0.88931086      -0.16610536       0.12351668      -0.06589299
H       -0.04245386       1.28552795      -0.69451890       0.41715752      -0.69036221       0.20200668
