35
Properties=species:S:1:pos:R:3:forces:R:3 id=760 bond=C-N smiles="[H:28][C:9]1([C:11]([C:13]2([C:12]([C:10]1([H:30])[H:31])([O:2][C:4]([O:1][C:5]([N:3]2[C:14]([C:6]([H:19])([H:20])[H:21])([C:7]([H:22])([H:23])[H:24])[C:8]([H:25])([H:26])[H:27])([H:17])[H:18])([H:15])[H:16])[H:34])[H:35])([H:32])[H:33])[H:29]" dataset=PubChem energy=-17337.85022478901 pbc="F F F"
O        1.87610594      -1.19113309      -0.60753376      -0.19071212      -1.06269937       0.49688757
O       -0.39985725      -1.44419486      -1.12613554      -0.09304745      -0.60642640      -0.30802154
N        1.22694901       0.58212977       0.84518372     -22.88758042     -32.14827605      -7.52985825
C        0.84184765      -2.13502604      -1.02752275       0.58792189       2.06294901       0.01298198
C        1.80538980      -0.80114431       0.78630086      -2.73301553      -1.00084153       0.31056520
C        3.39999414       1.12406164       0.53312916       0.30596107       2.37443597      -1.15010344
C        1.52354181       2.69125735       0.27014559       1.00562384       3.17686049       1.59431500
C        1.84239913       1.71386444       2.49514162       3.63733997       1.82008901       2.18580844
C       -2.48758956       1.12671100       0.57149541       0.07634122      -2.46020601       1.32602027
C       -2.38041778      -0.14547831      -0.31306101       1.35252667      -0.34185769       0.03219353
C       -1.11711248       1.41319435       1.13526194       0.92861436       0.33294810      -0.20377145
C       -0.90517672      -0.65620477      -0.02708394       0.58826148      -0.25017181      -0.47839552
C       -0.09276130       0.63233702       0.22709661      -1.72173382       1.11665141       0.92352055
C        1.91997683       1.38419818       0.98430264      21.61668808      27.89434676       5.08534897
H        0.87709056      -2.93679411      -0.28660191      -0.53835201      -0.13687970      -0.12631107
H        1.11835901      -2.48615557      -2.07342810      -0.48029295       0.50821790       1.51823622
H        1.11870119      -1.46336753       1.40244924       0.59857046       0.37556971      -1.16390633
H        2.76380280      -0.93090231       1.29962813      -0.42461259       0.47646136      -0.61681657
H        3.88912702       2.09876143       0.67497560       0.27575630      -0.48470895      -0.30635914
H        3.47996522       0.79720004      -0.53594530      -0.35971698       0.48566170       0.86744307
H        3.92629743       0.40581181       1.08880275       0.60796115      -0.62932331       0.96018730
H        2.18417621       3.51457416       0.69401362      -0.64123110      -0.98926441      -0.53996311
H        0.51005688       3.10381256       0.45193123       0.85962147      -0.67689382      -0.22031643
H        1.73792744       2.68815743      -0.75885606       0.06194920      -0.23523041      -1.46709823
H        0.84466997       1.99300098       2.79830598      -0.22514491      -0.26609733      -0.11706578
H        2.53357149       2.57235609       2.83621167      -0.80062960      -1.25640009      -0.14629446
H        2.18922413       0.74874344       2.94565200      -0.47740833       0.97213619       0.25362610
H       -3.12200471       0.88557539       1.44754855      -0.21458642       0.60581999      -0.87436603
H       -2.74656411       1.98176913       0.05285745      -1.37446655       1.37007817      -1.05474223
H       -2.53305956      -0.00587232      -1.39281924       0.32502107       0.27207768       0.38344493
H       -3.10139771      -0.90279109      -0.02818544       0.01843183      -0.10845029       0.13422982
H       -1.05043992       1.13431134       2.19358640       0.23332617      -0.03776208      -0.37347508
H       -0.93876513       2.49628072       1.03611713      -0.08205564      -0.68882580       0.55722719
H       -0.89305385      -1.27507931       0.87916677      -0.16164213       0.12543772      -0.05838960
H       -0.09298714       1.22704380      -0.70466299       0.32767694      -0.58913175       0.09608914
