39
Properties=species:S:1:pos:R:3:forces:R:3 id=7827 bond=C-S smiles="[H:15][C:2]([H:16])([H:17])[C:7]([H:30])([H:31])[C:8]([H:32])([H:33])[C:12]([H:39])([C:5]([H:24])([H:25])[H:26])[C:10]([H:36])([H:37])[C:13]([C:6]([H:27])([H:28])[H:29])([C:9]([H:34])([H:35])[C:11]([H:38])([C:3]([H:18])([H:19])[H:20])[C:4]([H:21])([H:22])[H:23])[S:1][H:14]" dataset=PubChem energy=-23713.228251377626 pbc="F F F"
S        0.84343801       2.43829203       2.70995021      -0.06777925       0.32134726      -0.02376921
C       -3.67391923       1.33780883      -1.82785054       0.23616387       1.65594687       0.23467527
C        4.17260811       0.22972418      -0.03950455      -2.96871569      -0.79607117       1.63846632
C        4.58576485       0.48908671       2.44561390       0.29380611       1.30730792      -0.22210457
C       -0.70481017      -1.90524145       0.60702225      -0.44286804      -0.02871345       1.59111676
C        1.04399899       2.13734869      -0.04492530       0.38322337       0.64508423       0.95530884
C       -2.41376474       1.21454767      -0.91869565      -3.42374017      -1.71917508       1.47485451
C       -2.28913501      -0.23807540      -0.32975574       0.25985960       1.72213794       0.14305872
C        2.07486961       0.35623141       1.61542920       0.95775986       0.74972953      -0.75175798
C       -0.47885921       0.41849118       1.39855031      -1.17349590       2.34878903      -1.36860209
C        3.56263444       0.83403317       1.28126696       0.88027236      -0.52452177       0.84373052
C       -0.83853986      -0.48243530       0.15373377      -0.87253144      -0.03765317       1.68751793
C        0.81107593       1.27972053       1.24901740       1.45435393      -0.48407334       0.67672608
H        1.77756030       1.77106309       3.42403317      -0.39647242       0.43724050      -0.19731089
H       -4.67550757       1.30482737      -1.34388562       0.98532737       0.12327088       0.51563082
H       -3.55007508       2.37188856      -2.20647713      -0.62734958      -0.62475119      -0.45390457
H       -3.82572272       0.62894189      -2.60853882       0.66976240      -0.47795012      -0.90539551
H        5.04266259       0.76072059      -0.35338195       0.67528862      -0.13720908      -0.13591264
H        4.23820492      -0.85557231       0.20603509       0.81859011       0.70596670      -0.55456315
H        3.37508890       0.27257288      -0.78365298       0.32697466       0.20577971      -0.35164092
H        4.32955334       1.06802908       3.37361673       0.23521205      -0.62133994      -0.78330857
H        5.68358085       0.74217013       2.18254665      -1.87592840      -0.26096050       0.19054525
H        4.56367299      -0.56760283       2.66377381      -0.06764673      -0.34751364       0.15950094
H        0.29409474      -2.18796726       0.86013520       0.73077294      -0.23743351      -0.14747093
H       -1.14609554      -2.55219336      -0.07658138      -0.28118520      -1.37305056      -1.55566648
H       -1.28833845      -2.11766048       1.52080790       0.13978103       0.51271645      -0.16592350
H        1.92457804       2.78297022       0.22727326      -0.61758836      -0.85936268      -0.83669555
H        1.15101609       1.62445072      -1.02260144       0.20374031      -0.05923033       0.90967865
H        0.25221700       2.87571982      -0.19099655      -0.22828410      -0.24903739       0.19824609
H       -2.74460795       1.88747994      -0.13079788       0.67306710       0.09724543       0.45925593
H       -1.50768378       1.60226337      -1.29192634       0.84294278       0.16359706      -0.94495281
H       -3.07851127      -0.39613619       0.44571938       0.90181121       0.23874218      -0.19457043
H       -2.59040883      -0.91241559      -1.10978504       0.33572850      -0.55649927      -0.50314496
H        2.01438746      -0.54545959       1.07348213      -0.50751596      -1.30392917      -0.70995842
H        2.00702366       0.08009202       2.67410997      -0.04375798       0.02975729      -0.36415911
H       -0.32228747      -0.10732546       2.32964543      -0.28398993      -0.52597749      -0.03046006
H       -1.39561370       1.12710021       1.57704238       1.82375173      -1.14487870      -0.21563976
H        3.57909390       1.89699153       1.22775815      -0.10967106       0.89614081      -0.21244156
H       -0.17319515      -0.30804266      -0.68422576       0.16108159       0.20458894      -0.04979422
