39
Properties=species:S:1:pos:R:3:forces:R:3 id=7827 bond=C-S smiles="[H:15][C:2]([H:16])([H:17])[C:7]([H:30])([H:31])[C:8]([H:32])([H:33])[C:12]([H:39])([C:5]([H:24])([H:25])[H:26])[C:10]([H:36])([H:37])[C:13]([C:6]([H:27])([H:28])[H:29])([C:9]([H:34])([H:35])[C:11]([H:38])([C:3]([H:18])([H:19])[H:20])[C:4]([H:21])([H:22])[H:23])[S:1][H:14]" dataset=PubChem energy=-23713.034027378504 pbc="F F F"
S        0.84510370       2.49792438       2.78514528      -0.10102551      -0.97631439      -1.56225353
C       -3.67558492       1.27817648      -1.90304561       0.23520236       1.65470890       0.23422731
C        4.17094242       0.17009183      -0.11469962      -2.96529545      -0.79295504       1.64110673
C        4.58409916       0.42945436       2.37041883       0.29408068       1.31050179      -0.21882287
C       -0.70647586      -1.96487380       0.53182718      -0.43338806      -0.02135048       1.60796777
C        1.04233330       2.07771634      -0.12012037       0.33551737       0.84618248       1.29209235
C       -2.41543043       1.15491532      -0.99389072      -3.42489527      -1.71771528       1.47496583
C       -2.29080070      -0.29770775      -0.40495081       0.25303250       1.73987253       0.15030382
C        2.07320392       0.29659906       1.54023413       0.84291093       1.21149662      -0.37995478
C       -0.48052490       0.35885883       1.32335524      -1.11020887       2.66358366      -0.98262074
C        3.56096875       0.77440082       1.20607189       0.87868468      -0.53197642       0.85209727
C       -0.84020555      -0.54206765       0.07853870      -0.82259518      -0.02690273       1.62130146
C        0.80941024       1.22008818       1.17382233       1.50321263       0.03592679       1.28279673
H        1.77922599       1.83069544       3.49922824      -0.31215065       0.20351598      -0.33261783
H       -4.67717326       1.24519502      -1.41908069       0.98626914       0.12369928       0.51571945
H       -3.55174077       2.31225621      -2.28167220      -0.62693675      -0.62592406      -0.45287185
H       -3.82738841       0.56930954      -2.68373389       0.66988522      -0.47761055      -0.90545139
H        5.04099690       0.70108824      -0.42857702       0.67508145      -0.13936567      -0.13712848
H        4.23653923      -0.91520466       0.13084002       0.81998649       0.70421709      -0.55530616
H        3.37342321       0.21294053      -0.85884805       0.32687145       0.20532942      -0.35595038
H        4.32788765       1.00839673       3.29842166       0.23363211      -0.62314979      -0.78894030
H        5.68191516       0.68253778       2.10735158      -1.87471522      -0.26110845       0.18958525
H        4.56200730      -0.62723518       2.58857874      -0.06691348      -0.34802800       0.15907082
H        0.29242905      -2.24759961       0.78494013       0.72935096      -0.23786533      -0.14786991
H       -1.14776123      -2.61182571      -0.15177645      -0.28172190      -1.36380351      -1.55707421
H       -1.29000414      -2.17729283       1.44561283       0.14132464       0.51396175      -0.16840204
H        1.92291235       2.72333787       0.15207819      -0.61593452      -0.85921665      -0.83555965
H        1.14935040       1.56481837      -1.09779651       0.21409091      -0.10385689       0.93966052
H        0.25055131       2.81608747      -0.26619162      -0.22049917      -0.25949767       0.18469289
H       -2.74627364       1.82784759      -0.20599295       0.67421577       0.09608282       0.45887542
H       -1.50934947       1.54263102      -1.36712141       0.84251536       0.16394392      -0.94520430
H       -3.08017696      -0.45576854       0.37052431       0.90494021       0.23838010      -0.19523795
H       -2.59207452      -0.97204794      -1.18498011       0.34382926      -0.55754874      -0.50023395
H        2.01272177      -0.60509194       0.99828706      -0.57603155      -1.28371871      -0.72762630
H        2.00535797       0.02045967       2.59891490      -0.04271345       0.09616705      -0.32641801
H       -0.32395316      -0.16695781       2.25445036      -0.28934569      -0.52719178      -0.04064103
H       -1.39727939       1.06746786       1.50184731       1.82273802      -1.16542434      -0.22281341
H        3.57742821       1.83735918       1.15256308      -0.11744851       0.89546831      -0.20928793
H       -0.17486084      -0.36767501      -0.75942083       0.15573844       0.19544688      -0.05573118
