49
Properties=species:S:1:pos:R:3:forces:R:3 id=23219 bond=C-O smiles="[H:22][c:4]1[c:5]([c:7]([c:9]([c:8]([c:6]1[H:24])[H:26])[C:12]([H:30])(/[C:3](=[N:1][C:14]([H:34])([H:35])[C:17]([H:40])([H:41])[C:13]([H:31])([H:32])[H:33])/[N:10]2[C:15]([C:18]([C:20]([C:21]([C:19]([C:16]2([H:38])[H:39])([H:44])[H:45])([H:48])[H:49])([H:46])[H:47])([H:42])[H:43])([H:36])[H:37])[O:2][C:11]([H:27])([H:28])[H:29])[H:25])[H:23]" dataset=PubChem energy=-24161.179544055296 pbc="F F F"
N       -0.39651607       1.51604109       0.96561601       4.01788974      -2.08935226      -0.57938281
O        1.91335464       0.07378756       2.52962716      -2.47046246      -2.96037541      -0.87213787
C        0.62834868       0.75868575       0.41371743      -6.43378464       2.05657771       1.04113084
C        4.40689373       3.96136241       0.75234200      -0.55789325       2.15079489      -1.00988193
C        3.43036462       3.70109253      -0.26303617       1.89209778      -0.37332196      -0.30689811
C        4.50203538       3.14336114       1.85261782       1.00377149      -0.13975890       0.81458293
C        2.75400592       2.50930147      -0.19907777      -1.08099544      -0.39847152       0.77464327
C        3.83096362       1.91438298       1.92654880      -0.86545805       2.15561525      -2.15635632
C        2.86427642       1.69533776       0.93996670       0.16560119      -1.87522743       0.47743520
N        0.21942441       0.25637357      -0.87852065       1.05292406      -0.81644963      -0.16874526
C        1.13512156      -1.62805069       2.81739613       3.25595704       1.42548177       1.03010371
C        1.94850005       0.42904903       1.09246548       1.38300610      -1.02139127       0.24910313
C       -1.93261503       4.13741403       1.75443443       1.46158122       0.71408315      -1.84683218
C       -0.34396147       2.28177612       2.28712471      -0.13509443      -1.17234893      -0.22498372
C       -1.20264315       0.20431440      -1.40125648      -0.23667146       2.19601178       1.42605075
C        1.08464355      -0.59044559      -1.73708502       0.74391296      -0.66481131       1.10836902
C       -1.85382151       2.78666048       2.42534800       1.92525603       1.18238085       1.30949680
C       -2.03613280      -0.87849874      -0.82630376       0.62202880      -1.00026886       2.71289402
C        1.13470466      -2.14223499      -1.42722396      -1.40952564       1.75297801      -2.23193466
C       -1.27136849      -2.12369627      -0.42265038       1.05196808      -0.63340480      -1.10182248
C       -0.28762179      -2.70781965      -1.50893585       0.30341633      -0.78367246       0.82727446
H        5.06062985       4.90172510       0.70547225      -1.22882201      -1.48712071       0.05444110
H        3.34516144       4.24335127      -1.21620838       0.23029138       0.17989349       0.83913220
H        5.14719344       3.48600583       2.68612583      -0.22131317      -0.57241577      -0.71615889
H        2.05848552       2.19765883      -0.98596315       0.22040803       0.34797978       0.35522561
H        4.07973004       1.19407167       2.62971147      -0.08902742      -0.94322474       1.42894922
H        0.17705149      -1.81128931       2.41712924      -1.07210798       0.90113563      -0.63035569
H        1.13505665      -1.74079323       3.94357916       0.13210462       0.75011045      -1.49169742
H        1.82614521      -2.39788414       2.38858315      -0.21743104       1.22966305       0.22212745
H        2.42679621      -0.49588401       0.66013037      -0.46463210       1.18063702      -0.25722805
H       -2.77064322       4.72258143       2.08583959      -0.51400078       0.20203384      -0.11873475
H       -0.99567329       4.72171287       2.02833398      -1.22868833      -0.57112348      -0.27301061
H       -1.90738439       4.06386762       0.61930840      -0.19124284       0.12617051       1.36477425
H        0.00192643       1.65713255       3.20573814      -0.57006782       0.91759504      -1.77244460
H        0.37612165       3.16867380       2.17183383      -1.08840005      -1.27428414       0.28967420
H       -1.77346038       1.13370328      -1.06951980       1.30741282      -0.72953082      -1.05205469
H       -1.22467886       0.03128629      -2.47642223       0.65618493       0.69415401       0.01325809
H        0.78166910      -0.39507241      -2.76654831      -0.09720125      -0.33105468       0.10022950
H        2.14437712      -0.34471769      -1.71822945      -0.01974749       0.86034267       0.34132839
H       -2.57735442       2.07116036       2.08805223      -0.03402082      -0.42978861      -0.40640159
H       -2.13103293       3.05900602       3.45797237       0.46021244      -0.73016741       0.03659084
H       -2.41004728      -0.58262630       0.15424397      -0.32860595       0.53804280      -0.11977020
H       -2.89694093      -1.14306755      -1.37889056      -0.72539572       0.00046086      -1.10998246
H        1.55898518      -2.33067937      -0.48608837       0.64003375      -0.12533446       1.31014690
H        1.82177902      -2.50757069      -2.21770112      -0.51223492      -0.30031836       0.48642343
H       -0.74148439      -1.88816972       0.51645662      -0.12381324      -0.45600728      -0.48888896
H       -2.01929616      -2.88239974      -0.26933197      -0.13575508      -0.39648819       0.56021612
H       -0.65990602      -2.48232217      -2.50834028      -0.23452317      -0.22394166       0.00198069
H       -0.22626423      -3.82201690      -1.38367013      -0.23791949       0.93519148      -0.23811452
