49
Properties=species:S:1:pos:R:3:forces:R:3 id=23219 bond=C-O smiles="[H:22][c:4]1[c:5]([c:7]([c:9]([c:8]([c:6]1[H:24])[H:26])[C:12]([H:30])(/[C:3](=[N:1][C:14]([H:34])([H:35])[C:17]([H:40])([H:41])[C:13]([H:31])([H:32])[H:33])/[N:10]2[C:15]([C:18]([C:20]([C:21]([C:19]([C:16]2([H:38])[H:39])([H:44])[H:45])([H:48])[H:49])([H:46])[H:47])([H:42])[H:43])([H:36])[H:37])[O:2][C:11]([H:27])([H:28])[H:29])[H:25])[H:23]" dataset=PubChem energy=-24158.252250981666 pbc="F F F"
N       -0.24617559       1.84480529       0.91002427       4.01109008      -2.08814193      -0.61343091
O        2.06369512       0.40255176       2.47403542      -1.61327399      -1.25293022      -1.68726431
C        0.77868916       1.08744995       0.35812569      -6.41642919       2.12874580       1.11762372
C        4.55723421       4.29012661       0.69675026      -0.54905145       2.15180710      -0.99848521
C        3.58070510       4.02985673      -0.31862791       1.88829215      -0.37652923      -0.30212091
C        4.65237586       3.47212534       1.79702608       1.00581806      -0.13031454       0.80558395
C        2.90434640       2.83806567      -0.25466951      -1.10808492      -0.38502237       0.76336057
C        3.98130410       2.24314718       1.87095706      -0.86152164       2.15611164      -2.13362647
C        3.01461690       2.02410196       0.88437496       0.26807273      -1.76713221       0.44534611
N        0.36976489       0.58513777      -0.93411239       1.03641343      -0.82439055      -0.21721589
C        0.98478108      -1.95681489       2.87298787       2.04855599      -1.16971241       1.59145847
C        2.09884053       0.75781323       1.03687374       1.27628683      -1.24332348       0.68005922
C       -1.78227455       4.46617823       1.69884269       1.45679442       0.71460174      -1.84479095
C       -0.19362099       2.61054032       2.23153297      -0.12158513      -1.18681665      -0.21305337
C       -1.05230267       0.53307860      -1.45684822      -0.21220045       2.19006079       1.43518399
C        1.23498403      -0.26168139      -1.79267676       0.73212479      -0.64928211       1.11921794
C       -1.70348103       3.11542468       2.36975626       1.93137146       1.18595977       1.30366822
C       -1.88579232      -0.54973454      -0.88189550       0.61096756      -1.00028175       2.71395657
C        1.28504514      -1.81347079      -1.48281570      -1.40473409       1.74962604      -2.23012021
C       -1.12102801      -1.79493207      -0.47824212       1.06214686      -0.63606680      -1.08938692
C       -0.13728131      -2.37905545      -1.56452759       0.30473149      -0.77743605       0.82600318
H        5.21097033       5.23048930       0.64988051      -1.22847127      -1.48586731       0.05440651
H        3.49550192       4.57211547      -1.27180012       0.23247556       0.17670167       0.83507566
H        5.29753392       3.81477003       2.63053409      -0.22250972      -0.57150006      -0.71459693
H        2.20882600       2.52642303      -1.04155489       0.22176689       0.34658934       0.35766518
H        4.23007052       1.52283587       2.57411973      -0.09165206      -0.95877323       1.42366975
H        0.02671101      -2.14005351       2.47272098      -1.10545876       1.07950340      -0.76048996
H        0.98471617      -2.06955743       3.99917090       0.27237792       1.14645636      -1.40634341
H        1.67580473      -2.72664834       2.44417489       0.00468252       1.54010918       0.06091934
H        2.57713669      -0.16711981       0.60453863      -0.44638381       1.20657543      -0.22433407
H       -2.62030274       5.05134563       2.03024785      -0.51667465       0.20545447      -0.11888698
H       -0.84533281       5.05047707       1.97274224      -1.22839130      -0.57210581      -0.27314010
H       -1.75704391       4.39263182       0.56371666      -0.19033513       0.12562782       1.36371742
H        0.15226691       1.98589675       3.15014640      -0.57091202       0.90817903      -1.78810064
H        0.52646213       3.49743800       2.11624209      -1.09140763      -1.26611353       0.28715166
H       -1.62311990       1.46246748      -1.12511154       1.30698857      -0.72973451      -1.04812282
H       -1.07433838       0.36005049      -2.53201397       0.65331150       0.69219706       0.01041834
H        0.93200958      -0.06630821      -2.82214005      -0.09904751      -0.33435268       0.09571058
H        2.29471760      -0.01595349      -1.77382119      -0.02163152       0.85651094       0.34246988
H       -2.42701394       2.39992456       2.03246049      -0.03482479      -0.42979569      -0.40764236
H       -1.98069245       3.38777022       3.40238063       0.45832535      -0.72834116       0.03911747
H       -2.25970680      -0.25386210       0.09865223      -0.32483882       0.54081443      -0.11880524
H       -2.74660045      -0.81430335      -1.43448230      -0.72751301      -0.00263507      -1.11055794
H        1.70932566      -2.00191517      -0.54168011       0.64373498      -0.11532751       1.31831039
H        1.97211950      -2.17880649      -2.27329286      -0.51291614      -0.30280938       0.48407285
H       -0.59114391      -1.55940552       0.46086488      -0.10342465      -0.41500557      -0.48674397
H       -1.86895568      -2.55363554      -0.32492371      -0.15011308      -0.40477266       0.55130411
H       -0.50956554      -2.15355797      -2.56393202      -0.23542167      -0.22611493       0.00352111
H       -0.07592375      -3.49325270      -1.43926187      -0.23842618       0.92592649      -0.24134118
