49
Properties=species:S:1:pos:R:3:forces:R:3 id=23219 bond=C-O smiles="[H:22][c:4]1[c:5]([c:7]([c:9]([c:8]([c:6]1[H:24])[H:26])[C:12]([H:30])(/[C:3](=[N:1][C:14]([H:34])([H:35])[C:17]([H:40])([H:41])[C:13]([H:31])([H:32])[H:33])/[N:10]2[C:15]([C:18]([C:20]([C:21]([C:19]([C:16]2([H:38])[H:39])([H:44])[H:45])([H:48])[H:49])([H:46])[H:47])([H:42])[H:43])([H:36])[H:37])[O:2][C:11]([H:27])([H:28])[H:29])[H:25])[H:23]" dataset=PubChem energy=-24158.513370589935 pbc="F F F"
N       -0.26386270       1.80612715       0.91656448       4.01050333      -2.08866403      -0.61014294
O        2.04600801       0.36387362       2.48057563      -1.70451734      -1.45874628      -1.57631285
C        0.76100205       1.04877181       0.36466590      -6.41357241       2.12125860       1.11041867
C        4.53954710       4.25144847       0.70329047      -0.54979922       2.15153346      -0.99911813
C        3.56301799       3.99117859      -0.31208770       1.88825547      -0.37715891      -0.30318572
C        4.63468875       3.43344720       1.80356629       1.00587434      -0.13079366       0.80709736
C        2.88665929       2.79938753      -0.24812930      -1.10485728      -0.38448044       0.76374734
C        3.96361699       2.20446904       1.87749727      -0.86180675       2.15658116      -2.13613700
C        2.99692979       1.98542382       0.89091517       0.25268016      -1.78274658       0.45518562
N        0.35207778       0.54645963      -0.92757218       1.03629723      -0.82424173      -0.21342971
C        1.00246819      -1.91813675       2.86644766       2.16574970      -0.91168131       1.53528445
C        2.08115342       0.71913509       1.04341395       1.28425231      -1.23374445       0.61742436
C       -1.79996166       4.42750009       1.70538290       1.45708981       0.71464217      -1.84497697
C       -0.21130810       2.57186218       2.23807318      -0.12273830      -1.18552915      -0.21412691
C       -1.06998978       0.49440046      -1.45030801      -0.21368965       2.19063955       1.43413750
C        1.21729692      -0.30035953      -1.78613655       0.73347976      -0.65001521       1.11853315
C       -1.72116814       3.07674654       2.37629647       1.93099926       1.18568911       1.30411586
C       -1.90347943      -0.58841268      -0.87535529       0.61216293      -0.99976305       2.71395290
C        1.26735803      -1.85214893      -1.47627549      -1.40550410       1.75007217      -2.23079043
C       -1.13871512      -1.83361021      -0.47170191       1.06019874      -0.63647410      -1.09123796
C       -0.15496842      -2.41773359      -1.55798738       0.30495207      -0.77845935       0.82619417
H        5.19328322       5.19181116       0.65642072      -1.22843211      -1.48597708       0.05440831
H        3.47781481       4.53343733      -1.26525991       0.23225789       0.17712485       0.83549130
H        5.27984681       3.77609189       2.63707430      -0.22222436      -0.57146720      -0.71480132
H        2.19113889       2.48774489      -1.03501468       0.22154342       0.34670487       0.35755210
H        4.21238341       1.48415773       2.58065994      -0.09113361      -0.95757969       1.42424921
H        0.04439812      -2.10137537       2.46618077      -1.09863329       1.07279003      -0.74980567
H        1.00240328      -2.03087929       3.99263069       0.26558389       1.12462284      -1.41698554
H        1.69349184      -2.68797020       2.43763468      -0.01018735       1.52684694       0.07329921
H        2.55944958      -0.20579795       0.61107884      -0.45068113       1.20974325      -0.23032337
H       -2.63798985       5.01266749       2.03678806      -0.51644005       0.20517884      -0.11889650
H       -0.86301992       5.01179893       1.97928245      -1.22844087      -0.57208115      -0.27314100
H       -1.77473102       4.35395368       0.57025687      -0.19039717       0.12566087       1.36387166
H        0.13457980       1.94721861       3.15668661      -0.57053877       0.90893025      -1.78708847
H        0.50877502       3.45875986       2.12278230      -1.09118355      -1.26685726       0.28747568
H       -1.64080701       1.42378934      -1.11857133       1.30701628      -0.72978771      -1.04844778
H       -1.09202549       0.32137235      -2.52547376       0.65337252       0.69235156       0.01070282
H        0.91432247      -0.10498635      -2.81559984      -0.09889791      -0.33428720       0.09610035
H        2.27703049      -0.05463163      -1.76728098      -0.02176206       0.85677950       0.34249608
H       -2.44470105       2.36124642       2.03900070      -0.03483652      -0.42974831      -0.40757566
H       -1.99837956       3.34909208       3.40892084       0.45842148      -0.72843160       0.03893972
H       -2.27739391      -0.29254024       0.10519244      -0.32531801       0.54067890      -0.11894408
H       -2.76428756      -0.85298149      -1.42794209      -0.72722663      -0.00263918      -1.11023372
H        1.69163855      -2.04059331      -0.53513990       0.64376781      -0.11612946       1.31719881
H        1.95443239      -2.21748463      -2.26675265      -0.51287972      -0.30270718       0.48456148
H       -0.60883102      -1.59808366       0.46740509      -0.10712929      -0.41790662      -0.49128995
H       -1.88664279      -2.59231368      -0.31838350      -0.14835731      -0.40380149       0.55234166
H       -0.52725265      -2.19223611      -2.55739181      -0.23536165      -0.22581210       0.00371093
H       -0.09361086      -3.53193084      -1.43272166      -0.23852441       0.92688507      -0.24101580
