49
Properties=species:S:1:pos:R:3:forces:R:3 id=23219 bond=C-O smiles="[H:22][c:4]1[c:5]([c:7]([c:9]([c:8]([c:6]1[H:24])[H:26])[C:12]([H:30])(/[C:3](=[N:1][C:14]([H:34])([H:35])[C:17]([H:40])([H:41])[C:13]([H:31])([H:32])[H:33])/[N:10]2[C:15]([C:18]([C:20]([C:21]([C:19]([C:16]2([H:38])[H:39])([H:44])[H:45])([H:48])[H:49])([H:46])[H:47])([H:42])[H:43])([H:36])[H:37])[O:2][C:11]([H:27])([H:28])[H:29])[H:25])[H:23]" dataset=PubChem energy=-24162.96951118009 pbc="F F F"
N       -0.50263876       1.28397223       1.00485723       4.06020600      -2.07336786      -0.54259471
O        1.80723195      -0.15828130       2.56886838      -0.64766630       2.16631354      -2.24150480
C        0.52222599       0.52661689       0.45295865      -6.53068225       1.97644868       0.98373510
C        4.30077104       3.72929355       0.79158322      -0.56818859       2.15133078      -1.02451965
C        3.32424193       3.46902367      -0.22379495       1.90185937      -0.36228184      -0.30359278
C        4.39591269       2.91129228       1.89185904       1.00119683      -0.15524185       0.81951818
C        2.64788323       2.27723261      -0.15983655      -1.07076598      -0.42526707       0.78785978
C        3.72484093       1.68231412       1.96579002      -0.87083902       2.15331116      -2.17373039
C        2.75815373       1.46326890       0.97920792       0.14978264      -1.86789858       0.40408151
N        0.11330172       0.02430471      -0.83927943       1.10865339      -0.79560933      -0.09775429
C        1.24124425      -1.39598183       2.77815491       2.02254386      -1.57029716       1.90250473
C        1.84237736       0.19698017       1.13170670       1.70576020      -0.31395482       0.17638756
C       -2.03873772       3.90534517       1.79367565       1.47074622       0.71245237      -1.85010661
C       -0.45008416       2.04970726       2.32636593      -0.14701038      -1.15772090      -0.24312401
C       -1.30876584      -0.02775446      -1.36201526      -0.27764685       2.20155502       1.42084816
C        0.97852086      -0.82251445      -1.69784380       0.75363279      -0.69747737       1.09093407
C       -1.95994420       2.55459162       2.46458922       1.91372964       1.17505352       1.32032868
C       -2.14225549      -1.11056760      -0.78706254       0.62845589      -1.00825438       2.71217749
C        1.02858197      -2.37430385      -1.38798274      -1.40730424       1.75116593      -2.21925265
C       -1.37749118      -2.35576513      -0.38340916       1.06193704      -0.62461500      -1.08928210
C       -0.39374448      -2.93988851      -1.46969463       0.29491375      -0.78194767       0.82330559
H        4.95450716       4.66965624       0.74471347      -1.23004014      -1.48952253       0.05464475
H        3.23903875       4.01128241      -1.17696716       0.22855471       0.18040640       0.84264634
H        5.04107075       3.25393697       2.72536705      -0.22297260      -0.57541974      -0.71760490
H        1.95236283       1.96558997      -0.94672193       0.22149060       0.34979330       0.35293093
H        3.97360735       0.96200281       2.66895269      -0.08225621      -0.92607468       1.43327006
H        0.28317418      -1.57922045       2.37788802      -1.30848665       0.26107862      -0.44449420
H        1.24117934      -1.50872437       3.90433794      -0.23299812      -0.16551001      -1.31978366
H        1.93226790      -2.16581528       2.34934193      -0.52315209       0.15410825       0.33961191
H        2.32067352      -0.72795287       0.69937159      -0.45513073       1.05265396      -0.17950747
H       -2.87676591       4.49051257       2.12508081      -0.51025583       0.19685992      -0.11822527
H       -1.10179598       4.48964401       2.06757520      -1.22889699      -0.56864216      -0.27267416
H       -2.01350708       3.83179876       0.65854962      -0.19273653       0.12726179       1.36552509
H       -0.10419626       1.42506369       3.24497936      -0.57916298       0.92480259      -1.74283740
H        0.26999896       2.93660494       2.21107505      -1.08462995      -1.28261720       0.28969116
H       -1.87958307       0.90163442      -1.03027858       1.30807826      -0.72891879      -1.05734023
H       -1.33080155      -0.20078257      -2.43718101       0.66381334       0.69699545       0.01747822
H        0.67554641      -0.62714127      -2.72730709      -0.09473712      -0.32261840       0.10623635
H        2.03825443      -0.57678655      -1.67898823      -0.01246370       0.86540195       0.33857290
H       -2.68347711       1.83909150       2.12729345      -0.03026597      -0.43040228      -0.40350231
H       -2.23715562       2.82693716       3.49721359       0.46400620      -0.73399322       0.03200364
H       -2.51616997      -0.81469516       0.19348519      -0.32925078       0.53301751      -0.12033678
H       -3.00306362      -1.37513641      -1.33964934      -0.72397544       0.00936032      -1.11424328
H        1.45286249      -2.56274823      -0.44684715       0.63221598      -0.13277433       1.31014379
H        1.71565633      -2.73963955      -2.17845990      -0.51183032      -0.29524145       0.48357178
H       -0.84760708      -2.12023858       0.55569784      -0.11804233      -0.48334680      -0.45339859
H       -2.12541885      -3.11446860      -0.23009075      -0.12961382      -0.39137722       0.56180976
H       -0.76602871      -2.71439103      -2.46909906      -0.23361438      -0.22462441      -0.00509973
H       -0.33238692      -4.05408576      -1.34442891      -0.23489592       0.94345492      -0.23552596
