49
Properties=species:S:1:pos:R:3:forces:R:3 id=23219 bond=C-O smiles="[H:22][c:4]1[c:5]([c:7]([c:9]([c:8]([c:6]1[H:24])[H:26])[C:12]([H:30])(/[C:3](=[N:1][C:14]([H:34])([H:35])[C:17]([H:40])([H:41])[C:13]([H:31])([H:32])[H:33])/[N:10]2[C:15]([C:18]([C:20]([C:21]([C:19]([C:16]2([H:38])[H:39])([H:44])[H:45])([H:48])[H:49])([H:46])[H:47])([H:42])[H:43])([H:36])[H:37])[O:2][C:11]([H:27])([H:28])[H:29])[H:25])[H:23]" dataset=PubChem energy=-24160.866127261677 pbc="F F F"
N       -0.38325073       1.54504969       0.96071085       4.01587274      -2.08987697      -0.58300274
O        1.92661998       0.10279616       2.52472200      -2.42815752      -2.91860989      -0.89843362
C        0.64161402       0.78769435       0.40881227      -6.42676710       2.06320891       1.04944135
C        4.42015907       3.99037101       0.74743684      -0.55696352       2.15077045      -1.00830307
C        3.44362996       3.73010113      -0.26794133       1.89140126      -0.37442283      -0.30693580
C        4.51530072       3.17236974       1.84771266       1.00415723      -0.13842287       0.81409208
C        2.76727126       2.53831007      -0.20398293      -1.08330751      -0.39577989       0.77331758
C        3.84422896       1.94339158       1.92164364      -0.86521595       2.15594546      -2.15435959
C        2.87754176       1.72434636       0.93506154       0.17119779      -1.86992064       0.48106767
N        0.23268975       0.28538217      -0.88342581       1.04917101      -0.81809719      -0.17484574
C        1.12185622      -1.65705929       2.82230129       3.16782009       1.24642685       1.06505912
C        1.96176539       0.45805763       1.08756032       1.36473236      -1.06088294       0.27168011
C       -1.91934969       4.16642263       1.74952927       1.46087776       0.71406836      -1.84651189
C       -0.33069613       2.31078472       2.28221955      -0.13363217      -1.17406395      -0.22365893
C       -1.18937781       0.23332300      -1.40616164      -0.23315747       2.19522830       1.42696229
C        1.09790889      -0.56143699      -1.74199018       0.74262062      -0.66232463       1.11018068
C       -1.84055617       2.81566908       2.42044284       1.92624664       1.18296621       1.30863344
C       -2.02286746      -0.84949014      -0.83120892       0.62133999      -0.99980992       2.71300195
C        1.14797000      -2.11322639      -1.43212912      -1.40945343       1.75297767      -2.23242422
C       -1.25810315      -2.09468767      -0.42755554       1.05207672      -0.63404807      -1.10170378
C       -0.27435645      -2.67881105      -1.51384101       0.30398639      -0.78334188       0.82750013
H        5.07389519       4.93073370       0.70056709      -1.22871973      -1.48694361       0.05443626
H        3.35842678       4.27235987      -1.22111354       0.23050141       0.17969115       0.83869231
H        5.16045878       3.51501443       2.68122067      -0.22127141      -0.57219403      -0.71601002
H        2.07175086       2.22666743      -0.99086831       0.22042346       0.34776916       0.35550449
H        4.09299538       1.22308027       2.62480631      -0.08925406      -0.94518949       1.42848989
H        0.16378615      -1.84029791       2.42203440      -1.06942378       0.93533513      -0.64686357
H        1.12179131      -1.76980183       3.94848432       0.15592803       0.81345017      -1.48945408
H        1.81287987      -2.42689274       2.39348831      -0.18735644       1.28739516       0.20323406
H        2.44006155      -0.46687541       0.65522521      -0.46463735       1.18877507      -0.25729633
H       -2.75737788       4.75159003       2.08093443      -0.51437652       0.20249986      -0.11873670
H       -0.98240795       4.75072147       2.02342882      -1.22860751      -0.57126946      -0.27302295
H       -1.89411905       4.09287622       0.61440324      -0.19111768       0.12607972       1.36462153
H        0.01519177       1.68614115       3.20083298      -0.56966374       0.91631278      -1.77456512
H        0.38938699       3.19768240       2.16692867      -1.08867989      -1.27334113       0.28948759
H       -1.76019504       1.16271188      -1.07442496       1.30729395      -0.72947740      -1.05153824
H       -1.21141352       0.06029489      -2.48132739       0.65559612       0.69387916       0.01276421
H        0.79493444      -0.36606381      -2.77145347      -0.09749248      -0.33166886       0.09957084
H        2.15764246      -0.31570909      -1.72313461      -0.02007629       0.85989197       0.34157931
H       -2.56408908       2.10016896       2.08314707      -0.03427537      -0.42982259      -0.40663546
H       -2.11776759       3.08801462       3.45306721       0.45990023      -0.72985929       0.03702380
H       -2.39678194      -0.55361770       0.14933881      -0.32837089       0.53850951      -0.11956950
H       -2.88367559      -1.11405895      -1.38379572      -0.72563205      -0.00023032      -1.10985165
H        1.57225052      -2.30167077      -0.49099353       0.64079647      -0.12431890       1.31070649
H        1.83504436      -2.47856209      -2.22260628      -0.51225220      -0.30073167       0.48637567
H       -0.72821905      -1.85916112       0.51155146      -0.12336306      -0.45173753      -0.49181358
H       -2.00603082      -2.85339114      -0.27423713      -0.13692427      -0.39726675       0.55959218
H       -0.64664068      -2.45331357      -2.51324544      -0.23467820      -0.22399415       0.00236801
H       -0.21299889      -3.79300830      -1.38857529      -0.23809835       0.93417398      -0.23839705
