49
Properties=species:S:1:pos:R:3:forces:R:3 id=23219 bond=C-O smiles="[H:22][c:4]1[c:5]([c:7]([c:9]([c:8]([c:6]1[H:24])[H:26])[C:12]([H:30])(/[C:3](=[N:1][C:14]([H:34])([H:35])[C:17]([H:40])([H:41])[C:13]([H:31])([H:32])[H:33])/[N:10]2[C:15]([C:18]([C:20]([C:21]([C:19]([C:16]2([H:38])[H:39])([H:44])[H:45])([H:48])[H:49])([H:46])[H:47])([H:42])[H:43])([H:36])[H:37])[O:2][C:11]([H:27])([H:28])[H:29])[H:25])[H:23]" dataset=PubChem energy=-24160.456375309965 pbc="F F F"
N       -0.36556362       1.58372783       0.95417065       4.01343169      -2.09012296      -0.58769330
O        1.94430709       0.14147430       2.51818180      -2.33688186      -2.76995335      -0.96356256
C        0.65930113       0.82637249       0.40227207      -6.41932431       2.07231736       1.05997681
C        4.43784618       4.02904915       0.74089664      -0.55563021       2.15072011      -1.00643362
C        3.46131707       3.76877927      -0.27448153       1.89051235      -0.37557774      -0.30676717
C        4.53298783       3.21104788       1.84117246       1.00463299      -0.13668984       0.81346940
C        2.78495837       2.57698821      -0.21052313      -1.08636026      -0.39247826       0.77112407
C        3.86191607       1.98206972       1.91510344      -0.86459923       2.15627802      -2.15156979
C        2.89522887       1.76302450       0.92852134       0.17979040      -1.86096531       0.48354317
N        0.25037686       0.32406031      -0.88996601       1.04513219      -0.81992660      -0.18238294
C        1.10416911      -1.69573743       2.82884149       3.02103145       0.93956437       1.12886115
C        1.97945250       0.49673577       1.08102012       1.34522301      -1.10427296       0.30785589
C       -1.90166258       4.20510077       1.74298907       1.46006662       0.71422346      -1.84621038
C       -0.31300902       2.34946286       2.27567935      -0.13161327      -1.17617110      -0.22196586
C       -1.17169070       0.27200114      -1.41270184      -0.22897463       2.19443293       1.42802249
C        1.11559600      -0.52275885      -1.74853038       0.74117734      -0.65936924       1.11201329
C       -1.82286906       2.85434722       2.41390264       1.92728716       1.18354817       1.30773026
C       -2.00518035      -0.81081200      -0.83774912       0.62004499      -0.99935074       2.71321378
C        1.16565711      -2.07454825      -1.43866932      -1.40913183       1.75268603      -2.23272965
C       -1.24041604      -2.05600953      -0.43409574       1.05240221      -0.63495935      -1.10091525
C       -0.25666934      -2.64013291      -1.52038121       0.30451928      -0.78295022       0.82745326
H        5.09158230       4.96941184       0.69402689      -1.22861086      -1.48676070       0.05442711
H        3.37611389       4.31103801      -1.22765374       0.23077824       0.17937651       0.83818565
H        5.17814589       3.55369257       2.67468047      -0.22128572      -0.57195431      -0.71585343
H        2.08943797       2.26534557      -0.99740851       0.22051392       0.34756305       0.35592139
H        4.11068249       1.26175841       2.61826611      -0.08945477      -0.94749941       1.42784514
H        0.14609904      -1.87897605       2.42857460      -1.06919046       0.97236987      -0.66692975
H        1.10410420      -1.80847997       3.95502452       0.18273443       0.88592020      -1.48215970
H        1.79519276      -2.46557088       2.40002851      -0.15061027       1.34986856       0.17891961
H        2.45774866      -0.42819727       0.64868501      -0.46437013       1.19743363      -0.25599492
H       -2.73969077       4.79026817       2.07439423      -0.51476667       0.20301876      -0.11877818
H       -0.96472084       4.78939961       2.01688862      -1.22858734      -0.57147381      -0.27305445
H       -1.87643194       4.13155436       0.60786304      -0.19096799       0.12598223       1.36452056
H        0.03287888       1.72481929       3.19429278      -0.56942693       0.91490118      -1.77718431
H        0.40707410       3.23636054       2.16038847      -1.08915178      -1.27219950       0.28923649
H       -1.74250793       1.20139002      -1.08096516       1.30721069      -0.72954346      -1.05094603
H       -1.19372641       0.09897303      -2.48786759       0.65497592       0.69357443       0.01235294
H        0.81262155      -0.32738567      -2.77799367      -0.09776375      -0.33236422       0.09891004
H        2.17532957      -0.27703095      -1.72967481      -0.02064577       0.85927521       0.34186493
H       -2.54640197       2.13884710       2.07660687      -0.03448331      -0.42979179      -0.40686907
H       -2.10008048       3.12669276       3.44652701       0.45955718      -0.72952414       0.03743910
H       -2.37909483      -0.51493956       0.14279861      -0.32798638       0.53900935      -0.11946589
H       -2.86598848      -1.07538081      -1.39033592      -0.72585601      -0.00094823      -1.10966542
H        1.58993763      -2.26299263      -0.49753373       0.64161454      -0.12287684       1.31157759
H        1.85273147      -2.43988395      -2.22914648      -0.51236662      -0.30119724       0.48635255
H       -0.71053194      -1.82048298       0.50501126      -0.12231099      -0.44594840      -0.49506344
H       -1.98834371      -2.81471300      -0.28077733      -0.13845749      -0.39819732       0.55863864
H       -0.62895357      -2.41463543      -2.51978564      -0.23481255      -0.22417558       0.00291599
H       -0.19531178      -3.75433016      -1.39511549      -0.23830562       0.93301657      -0.23881016
