30
Properties=species:S:1:pos:R:3:forces:R:3 id=29452 bond=C-N smiles="[H:14][C:3]1=[C:6]([C:4](=[C:5]([S:2]1)[C:9]([H:19])([H:20])[H:21])[N:7]([H:15])[C@:13]([H:30])([C:11]([H:25])([H:26])[H:27])[C:12]([H:28])([H:29])[O:1][C:8]([H:16])([H:17])[H:18])[C:10]([H:22])([H:23])[H:24]" dataset=PubChem energy=-25025.313305526564 pbc="F F F"
O        1.26412997      -2.69174788      -0.21482041      -1.16597507       0.29381225       2.68586535
S       -0.90866737       4.29948213       1.07754046       0.35538419      -1.66790961      -0.71207248
C        0.63126282       4.22800924       0.24954891      -1.55654691      -3.40554065       1.03725599
C       -0.03099476       1.90165796       0.38686511      -0.40438210      -0.06399631      -0.23008196
C       -1.17737775       2.53881385       0.90917272       1.59399321      -1.18437697      -0.37929098
C        0.99147837       2.90745141      -0.03650945      -1.72714284       0.80271441      -0.59399920
N        0.15931988      -0.21479193       0.14971183       0.12596547       4.78441529       0.78550741
C        2.25375256      -2.44590185      -1.14095952       1.64579338      -0.44108444       1.83504200
C       -2.58690719       1.99559810       1.18093783       2.41174693       0.41296052       0.84600213
C        2.19912930       2.72585942      -0.88100129       1.53780503      -2.19628729       0.17197225
C        0.18086619      -0.48662034       2.68051181      -0.84466047      -0.62966443      -0.87321202
C        1.33352789      -2.09611318       1.12642912       0.13379473      -0.52204866       0.49175831
C        0.13723543      -1.09560488       1.30847625      -0.86210394      -1.13124864      -2.12697543
H        1.19837023       5.09969403       0.15579433       0.75853499       0.95302414      -0.37047932
H        0.26285279      -0.62898753      -0.77095904      -0.15174618       0.78916422       0.31818934
H        2.11141977      -3.19806645      -1.85287323       0.19882113      -1.14854468      -1.28258217
H        3.26198039      -2.55856798      -0.64930417      -0.69243347       0.31358970      -0.79163260
H        2.12559209      -1.51618002      -1.61101951       0.21483261       1.56374540      -0.56931311
H       -2.59897833       0.91710193       1.26021517       0.21482906      -0.11507187       0.40916919
H       -3.07163672       2.21465995       0.28004966      -1.46424483       0.57986963      -0.93047390
H       -2.93853454       2.52208378       2.07365174      -0.55065417      -0.39856987      -0.41068226
H        2.40692491       3.41209414      -1.69249421      -0.59286073       0.48742985       0.14667106
H        3.01267500       2.81948640      -0.16468417       0.56488709      -0.05875085      -0.26442094
H        2.33590264       1.70976271      -1.34750908      -0.52123895       0.84586951       0.72348742
H        1.19811323      -0.25952611       2.76426850       1.48949182       0.64609148       1.08833790
H       -0.41155031       0.39146788       2.80807219      -0.35376720       0.63221725      -0.24478188
H       -0.18160739      -1.21102534       3.39464269       0.33989529      -0.23412399       0.29982645
H        2.29796776      -1.55001638       1.38769642      -0.97239959      -0.52912652      -0.99109167
H        1.30005291      -2.95315550       1.89087424      -0.26863071       1.07455158      -1.15138617
H       -0.81630340      -1.62089179       1.07239310       0.54378785      -0.45508426       1.08079177
