30
Properties=species:S:1:pos:R:3:forces:R:3 id=29452 bond=C-N smiles="[H:14][C:3]1=[C:6]([C:4](=[C:5]([S:2]1)[C:9]([H:19])([H:20])[H:21])[N:7]([H:15])[C@:13]([H:30])([C:11]([H:25])([H:26])[H:27])[C:12]([H:28])([H:29])[O:1][C:8]([H:16])([H:17])[H:18])[C:10]([H:22])([H:23])[H:24]" dataset=PubChem energy=-25024.874837590967 pbc="F F F"
O        1.26809486      -2.73584059      -0.21976110      -1.16497952       0.28914532       2.68879449
S       -0.91263226       4.34357484       1.08248115       0.36317345      -1.67580146      -0.71388452
C        0.62729793       4.27210195       0.25448960      -1.56173853      -3.41400062       1.04106739
C       -0.03495965       1.94575067       0.39180580      -0.44795829       0.35854703      -0.13766624
C       -1.18134264       2.58290656       0.91411341       1.57326112      -1.26655694      -0.38261955
C        0.98751348       2.95154412      -0.03156876      -1.68218456       0.77501664      -0.63267688
N        0.16328477      -0.25888464       0.14477114       0.10156643       4.39004291       0.78095283
C        2.25771745      -2.48999456      -1.14590021       1.64548063      -0.43879324       1.83323150
C       -2.59087208       2.03969081       1.18587852       2.40295215       0.41643346       0.84774337
C        2.19516441       2.76995213      -0.87606060       1.54187276      -2.19670631       0.16994986
C        0.18483108      -0.53071305       2.67557112      -0.84513226      -0.63658230      -0.86655051
C        1.33749278      -2.14020589       1.12148843       0.15100412      -0.51467674       0.48520392
C        0.14120032      -1.13969759       1.30353556      -0.83202175      -1.07204322      -2.11773274
H        1.19440534       5.14378674       0.16073502       0.76221689       0.95051093      -0.37015700
H        0.26681768      -0.67308024      -0.77589973      -0.13494912       0.80850724       0.27880725
H        2.11538466      -3.24215916      -1.85781392       0.19861248      -1.14944616      -1.28221456
H        3.26594528      -2.60266069      -0.65424486      -0.69221095       0.31323911      -0.79129685
H        2.12955698      -1.56027273      -1.61596020       0.21466320       1.56307233      -0.56786891
H       -2.60294322       0.96119464       1.26515586       0.21903037      -0.11433765       0.40759809
H       -3.07560161       2.25875266       0.28499035      -1.46378777       0.58010606      -0.93057945
H       -2.94249943       2.56617649       2.07859243      -0.54952035      -0.39734745      -0.41138062
H        2.40296002       3.45618685      -1.68755352      -0.59423795       0.48860099       0.14775675
H        3.00871011       2.86357911      -0.15974348       0.56339431      -0.05810488      -0.26367166
H        2.33193775       1.75385542      -1.34256839      -0.52483301       0.84726774       0.72568969
H        1.20207812      -0.30361882       2.75932781       1.48922210       0.64390064       1.08443666
H       -0.40758542       0.34737517       2.80313150      -0.35919096       0.63761379      -0.25465502
H       -0.17764250      -1.25511805       3.38970200       0.33914979      -0.23266353       0.30341343
H        2.30193265      -1.59410909       1.38275573      -0.97352798      -0.53005173      -0.99087455
H        1.30401780      -2.99724821       1.88593355      -0.27147167       1.07197224      -1.14872961
H       -0.81233851      -1.66498450       1.06745241       0.53356291      -0.43814548       1.06425775
