30
Properties=species:S:1:pos:R:3:forces:R:3 id=29452 bond=C-N smiles="[H:14][C:3]1=[C:6]([C:4](=[C:5]([S:2]1)[C:9]([H:19])([H:20])[H:21])[N:7]([H:15])[C@:13]([H:30])([C:11]([H:25])([H:26])[H:27])[C:12]([H:28])([H:29])[O:1][C:8]([H:16])([H:17])[H:18])[C:10]([H:22])([H:23])[H:24]" dataset=PubChem energy=-25028.852011721614 pbc="F F F"
O        1.23179009      -2.33210275      -0.17452131      -1.18860045       0.33228468       2.69751742
S       -0.87632749       3.93983700       1.03724136       0.29306608      -1.50791979      -0.58543862
C        0.66360270       3.86836411       0.20924981      -1.46681566      -3.29342742       0.92083629
C        0.00134512       1.54201283       0.34656601      -0.61432301       1.95537620      -0.50110101
C       -1.14503787       2.17916872       0.86887362       1.66578836       0.18138677      -0.30108810
C        1.02381825       2.54780628      -0.07680855      -2.10327080       1.67961320      -0.27848280
N        0.12698000       0.14485320       0.19001093       0.63138972       1.96398341       0.15365320
C        2.22141268      -2.08625672      -1.10066042       1.66170762      -0.46168333       1.84119047
C       -2.55456731       1.63595297       1.14063873       2.49551603       0.38771250       0.78425055
C        2.23146918       2.36621429      -0.92130039       1.45641789      -2.15666891       0.21946002
C        0.14852631      -0.12697521       2.72081091      -0.84612803      -0.57034847      -0.85317875
C        1.30118801      -1.73646805       1.16672822       0.02177507      -0.60325163       0.51900677
C        0.10489555      -0.73595975       1.34877535      -0.99502914      -2.05509863      -2.18238323
H        1.23071011       4.74004890       0.11549523       0.71975317       0.99780955      -0.36000576
H        0.23051291      -0.26934240      -0.73065994      -0.04480549       0.21393707       0.70259088
H        2.07907989      -2.83842132      -1.81257413       0.20015456      -1.13829783      -1.28331794
H        3.22964051      -2.19892285      -0.60900507      -0.69733547       0.31786075      -0.79630507
H        2.09325221      -1.15653489      -1.57072041       0.21583152       1.55688061      -0.58343044
H       -2.56663845       0.55745680       1.21991607       0.14418900      -0.13236878       0.44312723
H       -3.03929684       1.85501482       0.23975056      -1.48486430       0.57460249      -0.92784717
H       -2.90619466       2.16243865       2.03335264      -0.56443186      -0.43029387      -0.39911084
H        2.43926479       3.05244901      -1.73279331      -0.57106329       0.45816825       0.12367895
H        3.04501488       2.45984127      -0.20498327       0.58469371      -0.06983310      -0.27504882
H        2.36824252       1.35011758      -1.38780818      -0.46513615       0.80959195       0.67692986
H        1.16577335       0.10011902       2.80456760       1.48847186       0.65612194       1.12538322
H       -0.44389019       0.75111301       2.84837129      -0.28563002       0.56978890      -0.14744252
H       -0.21394727      -0.85138021       3.43494179       0.34983756      -0.25924699       0.24631846
H        2.26562788      -1.19037125       1.42799552      -0.96011613      -0.52921204      -0.98604104
H        1.26771303      -2.59351037       1.93117334      -0.24209788       1.10406319      -1.17251573
H       -0.84864328      -1.26124666       1.11269220       0.60007679      -0.55261155       1.17634428
