12
Properties=species:S:1:pos:R:3:forces:R:3 id=4908 bond=O-P smiles="[H:12][C:10]([C:9]([Cl:2])([Cl:3])[Cl:4])([O:8][P:11](=[S:1])([Cl:6])[Cl:7])[Cl:5]" dataset=PubChem energy=-99411.1864931633 pbc="F F F"
S        2.30712281       1.14070794      -2.23181057      -2.71525217      -1.71312744       1.08348567
Cl      -1.41019088       0.43805732       3.11196046      -1.11465400       0.41105317       0.83912126
Cl       1.32125181       0.99294764       3.98043065       0.13498583      -0.03430609       0.52188277
Cl       0.61506242      -1.23355846       2.22372596       0.57763380       1.14217819      -0.34161508
Cl      -0.11197713       3.18092521       1.81780545       0.48871363      -0.10613060       0.76944499
Cl      -0.65233375       0.06596589      -3.30879140      -0.45970025       0.03596432       0.51152982
Cl       1.05644203      -1.98359230      -1.61701882      -0.50328637       1.00786921       0.32018109
O       -0.45216978       1.10391332       0.51893150       1.85628862      -0.60058307      -0.99718047
C        0.25093341       0.52492379       2.67166107      -0.01500030      -1.29208790       1.15528079
C        0.44164498       1.50337066       1.56618165      -2.20175139      -0.90816256      -3.76031150
P        0.63657675       0.01538905      -1.79401553       3.16427113       1.72002517       0.25508380
H        1.46897548       1.47968520       1.27797501       0.78923448       0.32921439      -0.36500481
