27
Properties=species:S:1:pos:R:3:forces:R:3 id=49688 bond=C-S smiles="[H:13][C:2]1([C:8]2([C:3]([C:10]3([C:4]([C:9]1([C:6]([C:11]([C:5]2([H:19])[H:20])([C:7]3([H:23])[H:24])[S:1][H:12])([H:21])[H:22])[H:26])([H:17])[H:18])[H:27])([H:15])[H:16])[H:25])[H:14]" dataset=PubChem energy=-21444.26208411427 pbc="F F F"
S       -0.84512954      -1.87335308       1.11381595     -79.19207422    -131.73748320      31.83978827
C       -0.32106271       1.70549190      -0.14201224      -1.38501352       1.31579994      -0.59409064
C        1.11703805       1.37994433       1.87550496      -0.24398663      -0.64829358       0.20237771
C        1.87867866       0.59202725      -0.34383643      -0.35891956      -0.66721409      -0.56767669
C       -1.01893665       0.06183327       1.64664113       0.98421781       6.79674836       0.57657407
C       -0.32393427      -0.73819041      -0.60959566       3.41290460       2.99656336      -1.83329694
C        1.12179527      -1.09430086       1.36297559       4.32885308       2.29388122      -0.08969913
C       -0.34737064       1.43335259       1.37306630       0.38774074       0.44144732       0.04016066
C        0.39510953       0.59356946      -0.87898362       1.14258073       0.37701338       0.43721326
C        1.88156173       0.24207195       1.14009350      -0.69052689       0.29131144       0.36339278
C       -0.32195403      -1.03097855       0.89863586      74.51515549     121.71846643     -32.06125720
H       -1.46505659      -2.28716166      -0.00078190      -0.88154189      -1.37389561       0.07270718
H        0.13161566       2.71043551      -0.37039984      -0.12549127      -1.00252420       0.36615313
H       -1.36060299       1.80733585      -0.56882906       0.73490192      -0.22094284       0.61813952
H        1.61139939       2.33797229       1.72429811       0.02609982       0.00409409      -0.01835144
H        1.08627860       1.17109305       2.94941818       0.17365568       0.09658797      -0.04412526
H        2.46166871      -0.13805222      -0.91865075      -0.03323257       0.06564581       0.12896416
H        2.35967133       1.56846202      -0.48304046      -0.31021160      -0.16432441      -0.13173659
H       -0.99248661      -0.17206770       2.69858801       0.15411287      -0.25104779       0.31982520
H       -2.06367566       0.10315698       1.37035280      -0.09149196      -0.32671641      -0.40162159
H        0.24098907      -1.54179370      -1.12686849      -0.56081998       0.16313344       0.69970004
H       -1.32200302      -0.68396819      -1.00479353      -0.54515808      -0.14828857       0.40287223
H        1.20683716      -1.35238742       2.42409241      -0.60335131      -0.14322266      -0.20450633
H        1.65963278      -1.87300121       0.78835727      -0.74773348       0.10369728       0.23315860
H       -0.88247027       2.24517644       1.88383197       0.11838538      -0.18333722      -0.09234680
H        0.40457067       0.79426992      -1.94613159      -0.01000327       0.00499146      -0.14801890
H        2.90174148       0.12509719       1.52712953      -0.20463196       0.19478565      -0.11312461
