27
Properties=species:S:1:pos:R:3:forces:R:3 id=49688 bond=C-S smiles="[H:13][C:2]1([C:8]2([C:3]([C:10]3([C:4]([C:9]1([C:6]([C:11]([C:5]2([H:19])[H:20])([C:7]3([H:23])[H:24])[S:1][H:12])([H:21])[H:22])[H:26])([H:17])[H:18])[H:27])([H:15])[H:16])[H:25])[H:14]" dataset=PubChem energy=-21472.777317813587 pbc="F F F"
S       -1.44607438      -2.84094545       1.36098227       0.82452419       1.19678410      -0.10924195
C        0.27988213       2.67308427      -0.38917856      -1.41532520       1.31471108      -0.66207594
C        1.71798289       2.34753670       1.62833864      -0.25917854      -0.71478455       0.26787893
C        2.47962350       1.55961962      -0.59100275      -0.38811329      -0.70088228      -0.64306037
C       -0.41799181       1.02942564       1.39947481      -1.21323036      -0.84195901       0.42727716
C        0.27701057       0.22940196      -0.85676198       0.44499870      -2.00492817       0.25820353
C        1.72274011      -0.12670849       1.11580927       0.27941188      -2.09498724       0.20943924
C        0.25357420       2.40094496       1.12589998       1.04821584       0.15458311      -0.70140271
C        0.99605437       1.56116183      -1.12614994       1.45625689       0.83144705       1.04680375
C        2.48250657       1.20966432       0.89292718      -1.04757606       0.89098316      -0.03082444
C        0.27899081      -0.06338618       0.65146954       1.68529831       2.75197025      -1.21167734
H       -2.06600143      -3.25475403       0.24638442       0.12375764       0.21605115      -0.12501756
H        0.73256050       3.67802788      -0.61756616      -0.13704986      -0.99964446       0.37455298
H       -0.75965815       2.77492822      -0.81599538       0.77677810      -0.22902347       0.64087386
H        2.21234423       3.30556466       1.47713179       0.00698102      -0.00419853      -0.02209674
H        1.68722344       2.13868542       2.70225186       0.17395785       0.10175949      -0.07542935
H        3.06261355       0.82954015      -1.16581707      -0.05574950       0.08552578       0.14811804
H        2.96061617       2.53605439      -0.73020678      -0.29885554      -0.17525449      -0.11999640
H       -0.39154177       0.79552467       2.45142169       0.04991282       0.12318672       0.46064401
H       -1.46273082       1.07074935       1.12318648      -0.25145692       0.09605226      -0.15162678
H        0.84193391      -0.57420133      -1.37403481      -0.52094809       0.39509202       0.19883841
H       -0.72105818       0.28362418      -1.25195985      -0.40844265      -0.05987560      -0.14402782
H        1.80778200      -0.38479505       2.17692609      -0.18553040      -0.00494174      -0.19432878
H        2.26057762      -0.90540884       0.54119095      -0.26281774       0.28277979       0.36171936
H       -0.28152543       3.21276881       1.63666565      -0.01048084      -0.47209929      -0.03390395
H        1.00551551       1.76186229      -2.19329791      -0.09008000      -0.14967873      -0.09965986
H        3.50268632       1.09268956       1.27996321      -0.32716468       0.01121872      -0.07148948
