27
Properties=species:S:1:pos:R:3:forces:R:3 id=49688 bond=C-S smiles="[H:13][C:2]1([C:8]2([C:3]([C:10]3([C:4]([C:9]1([C:6]([C:11]([C:5]2([H:19])[H:20])([C:7]3([H:23])[H:24])[S:1][H:12])([H:21])[H:22])[H:26])([H:17])[H:18])[H:27])([H:15])[H:16])[H:25])[H:14]" dataset=PubChem energy=-21472.730852489447 pbc="F F F"
S       -1.45314432      -2.85232889       1.36389011       0.80665226       1.17284533      -0.10919098
C        0.28695207       2.68446771      -0.39208640      -1.41667730       1.31317614      -0.66202640
C        1.72505283       2.35892014       1.62543080      -0.26007294      -0.71685939       0.26883378
C        2.48669344       1.57100306      -0.59391059      -0.38857253      -0.70289019      -0.64321204
C       -0.41092187       1.04080908       1.39656697      -1.21948915      -0.85744582       0.43015358
C        0.28408051       0.24078540      -0.85966982       0.43767861      -2.01817551       0.26043375
C        1.72981005      -0.11532505       1.11290143       0.27195266      -2.10518635       0.21090550
C        0.26064414       2.41232840       1.12299214       1.05351605       0.16012850      -0.70523698
C        1.00312431       1.57254527      -1.12905778       1.46007912       0.83796953       1.04937377
C        2.48957651       1.22104776       0.89001934      -1.04577052       0.89824509      -0.03271490
C        0.28606075      -0.05200274       0.64856170       1.71954895       2.80535630      -1.21896667
H       -2.07307137      -3.26613747       0.24929226       0.12117734       0.21145294      -0.12169190
H        0.73963044       3.68941132      -0.62047400      -0.13717709      -1.00012862       0.37472957
H       -0.75258821       2.78631166      -0.81890322       0.77712265      -0.22884188       0.64097379
H        2.21941417       3.31694810       1.47422395       0.00662114      -0.00458196      -0.02224188
H        1.69429338       2.15006886       2.69934402       0.17409374       0.10198518      -0.07564309
H        3.06968349       0.84092359      -1.16872491      -0.05579706       0.08583082       0.14821249
H        2.96768611       2.54743783      -0.73311462      -0.29914288      -0.17559364      -0.11978484
H       -0.38447183       0.80690811       2.44851385       0.05033107       0.12415785       0.46092786
H       -1.45566088       1.08213279       1.12027864      -0.25194494       0.09741910      -0.15183356
H        0.84900385      -0.56281789      -1.37694265      -0.52062393       0.39568464       0.19819973
H       -0.71398824       0.29500762      -1.25486769      -0.40828278      -0.05935309      -0.14467806
H        1.81485194      -0.37341161       2.17401825      -0.18503913      -0.00422554      -0.19416900
H        2.26764756      -0.89402540       0.53828311      -0.26210340       0.28333434       0.36146430
H       -0.27445549       3.22415225       1.63375781      -0.01141210      -0.47333695      -0.03347684
H        1.01258545       1.77324573      -2.19620575      -0.09088473      -0.15113715      -0.09965013
H        3.50975626       1.10407300       1.27705537      -0.32766993       0.01008215      -0.07122166
