27
Properties=species:S:1:pos:R:3:forces:R:3 id=49688 bond=C-S smiles="[H:13][C:2]1([C:8]2([C:3]([C:10]3([C:4]([C:9]1([C:6]([C:11]([C:5]2([H:19])[H:20])([C:7]3([H:23])[H:24])[S:1][H:12])([H:21])[H:22])[H:26])([H:17])[H:18])[H:27])([H:15])[H:16])[H:25])[H:14]" dataset=PubChem energy=-21473.664610342825 pbc="F F F"
S       -1.33295535      -2.65881042       1.31445685       1.16258676       1.62798657      -0.09651539
C        0.16676310       2.49094924      -0.34265314      -1.39117951       1.33958662      -0.66165832
C        1.60486386       2.16540167       1.67486406      -0.24395959      -0.67847088       0.25014382
C        2.36650447       1.37748459      -0.54447733      -0.38114649      -0.66621756      -0.63918806
C       -0.53111084       0.84729061       1.44600023      -1.07084636      -0.51443687       0.36093627
C        0.16389154       0.04726693      -0.81023656       0.59968429      -1.72583028       0.21815581
C        1.60962108      -0.30884352       1.16233469       0.42869722      -1.87591901       0.17412115
C        0.14045517       2.21880993       1.17242540       0.93974590       0.05545755      -0.62094049
C        0.88293534       1.37902680      -1.07962452       1.38171536       0.70733965       0.98617437
C        2.36938754       1.02752929       0.93945260      -1.07442902       0.74972054       0.00910371
C        0.16587178      -0.24552121       0.69799496       0.98792829       1.66916302      -1.06893082
H       -1.95288240      -3.07261900       0.19985900       0.17620189       0.30685230      -0.18906651
H        0.61944147       3.49589285      -0.57104074      -0.13459877      -0.99067280       0.37115861
H       -0.87277718       2.59279319      -0.76946996       0.76983663      -0.23172247       0.63847733
H        2.09922520       3.12342963       1.52365721       0.01372488       0.00301179      -0.01948482
H        1.57410441       1.95655039       2.74877728       0.17176166       0.09782437      -0.07092184
H        2.94949452       0.64740512      -1.11929165      -0.05421726       0.07975003       0.14596848
H        2.84749714       2.35391936      -0.68368136      -0.29364498      -0.16866251      -0.12408900
H       -0.50466080       0.61338964       2.49794711       0.04210795       0.10625583       0.45906481
H       -1.57584985       0.88861432       1.16971190      -0.24501836       0.07358441      -0.14823682
H        0.72881488      -0.75633636      -1.32750939      -0.52437101       0.38231669       0.20796917
H       -0.83417721       0.10148915      -1.20543443      -0.41461816      -0.06740972      -0.13534851
H        1.69466297      -0.56693008       2.22345151      -0.19269170      -0.01888209      -0.19345248
H        2.14745859      -1.08754387       0.58771637      -0.27372582       0.27063711       0.36518494
H       -0.39464446       3.03063378       1.68319107       0.00851528      -0.44602725      -0.04256486
H        0.89239648       1.57972726      -2.14677249      -0.07366540      -0.11976403      -0.10047737
H        3.38956729       0.91055453       1.32648863      -0.31624003       0.03445237      -0.07683498
