42
Properties=species:S:1:pos:R:3:forces:R:3 id=9210 bond=C-C smiles="[H:33][c:10]1[c:12]([c:20]([c:25]2[c:24]([c:18]1[H:37])[c:19]([c:11]([c:13]([c:21]2[c:17]3[c:23]4=[C:5]([N:26]([N:2]=[c:22]4[c:16]([n:3][n:4]3)[C:27]([H:40])([H:41])[H:42])[c:15]5[c:8]([c:6]([c:7]([c:14]([c:9]5[H:32])[Br:1])[H:30])[H:29])[H:31])[H:28])[H:36])[H:34])[H:38])[H:39])[H:35]" dataset=PubChem energy=-99077.90785291954 pbc="F F F"
Br      -4.48252211       2.10542989       5.15590928       0.98656320      -0.09049606      -0.84254299
N       -0.72578858      -0.50510037       1.80481206      -1.22084874      -0.06691825       0.84319325
N        1.63755460      -2.94663203       0.43503566      -3.69492074       0.79536801       1.82392029
N        2.38364543      -2.06620800      -0.23821660       0.97617401       2.29453374      -0.76927373
C        0.64814435       1.01225685       0.90614204      -1.38021854       0.79133671       1.03230647
C       -2.22245966       4.08519661       2.25742529       0.74883858      -1.05363781      -0.17257117
C       -3.11849509       3.76669800       3.28000234       0.13830101      -0.11686691      -0.25401304
C       -1.31641613       3.10204470       1.75423799      -0.84736734       0.52832193       0.54655161
C       -2.29108964       1.46718132       3.26960657      -0.20862327      -0.41094812       0.06359179
C        2.26101924       3.29816782      -3.61414577       1.70805957       0.99405252       0.00672830
C        5.51581706       0.61261767      -1.23552610       0.83761021       1.63488566      -0.74188996
C        1.20317359       2.58806050      -3.07003547       0.57286497      -1.87974824       1.31936854
C        4.51288570      -0.12214780      -0.63510592      -1.91133729      -0.19686781      -0.04132297
C       -3.13410388       2.46191120       3.77463649      -0.28906791       0.13066611      -0.00074117
C       -1.37029277       1.77478957       2.25774310      -0.32520605       2.02202131      -0.21239757
C        0.53331988      -2.49471748       1.04975800       1.31642183      -3.59615292      -0.19895500
C        2.15466537      -0.73487770      -0.21098609       1.45740065      -1.51274562      -0.71889486
C        3.57790459       3.04076612      -3.19978763      -1.46388392       1.39958220      -1.29708858
C        5.18877400       1.70275664      -2.03825547       1.67951928      -1.33922728       1.11899157
C        1.50882079       1.53165430      -2.20148827      -0.48665775       1.11561110      -0.95903938
C        3.14832295       0.15359038      -0.89220752       1.70497718      -0.82791714       0.04553804
C        0.22863437      -1.14561331       1.12508516      -1.26508245       0.92787403       1.10144442
C        1.10515670      -0.22433603       0.53493156      -0.46741594       0.17175369       0.14661224
C        3.86176147       1.99190581      -2.33372738       0.52411305       0.35513228      -0.21716620
C        2.82821740       1.21364960      -1.81392027      -1.01543019      -1.01246621       0.96188721
N       -0.49569963       0.81682319       1.69010768       2.27124221      -1.77366153      -1.62005654
C       -1.06556150      -4.35288341       2.32587856       0.76163291      -0.29773543      -0.01129475
H        1.07204525       1.96480072       0.70982946       0.00089946       0.51540210      -0.06154731
H       -2.22425972       5.09029304       1.82684396       0.10045629      -0.45026998       0.21413216
H       -3.82421027       4.50497209       3.66258500       0.32085127      -0.26910088      -0.13973883
H       -0.62117444       3.42704737       0.96646325      -0.41992902      -0.51348189       0.44965557
H       -2.38447819       0.43684053       3.60826205       0.14502503       0.34970792      -0.02375843
H        2.07088889       4.10142577      -4.32381751       0.09651003      -0.12955754       0.21605007
H        6.57295216       0.39193970      -1.01942302      -0.68643058       0.10579792      -0.15273866
H        0.16345419       2.79083609      -3.26138378      -0.00774847       0.11122335      -0.34026153
H        4.81848587      -0.90738046       0.04161720      -0.44095130      -0.11393230      -0.01397894
H        4.40356148       3.69045031      -3.53131272      -0.54393982      -0.52249503      -0.01769596
H        6.00621976       2.31273341      -2.41171576      -0.32418658       0.00559077      -0.16707638
H        0.68026659       0.95429068      -1.87367823      -0.34166574      -0.47670911       0.48026247
H       -0.77968577      -5.37510021       2.02624935       0.46464785       0.91705933      -0.48117113
H       -0.96854469      -4.30194337       3.40959126       0.65446341       0.74656419      -0.20697249
H       -2.10098633      -4.18916376       2.09360951      -0.12508516       0.73647257      -0.71005779
