42
Properties=species:S:1:pos:R:3:forces:R:3 id=9210 bond=C-C smiles="[H:33][c:10]1[c:12]([c:20]([c:25]2[c:24]([c:18]1[H:37])[c:19]([c:11]([c:13]([c:21]2[c:17]3[c:23]4=[C:5]([N:26]([N:2]=[c:22]4[c:16]([n:3][n:4]3)[C:27]([H:40])([H:41])[H:42])[c:15]5[c:8]([c:6]([c:7]([c:14]([c:9]5[H:32])[Br:1])[H:30])[H:29])[H:31])[H:28])[H:36])[H:34])[H:38])[H:39])[H:35]" dataset=PubChem energy=-99077.50539167962 pbc="F F F"
Br      -4.44255008       2.15188404       5.12400626       0.98685027      -0.09031378      -0.84279471
N       -0.68581655      -0.45864622       1.77290904      -1.21495880      -0.05225053       0.83890714
N        1.67752663      -2.90017788       0.40313264      -3.81756958       0.83464716       1.90450494
N        2.42361746      -2.01975385      -0.27011962       1.01565828       2.30209871      -0.80431534
C        0.68811638       1.05871100       0.87423902      -1.38298684       0.78934398       1.03431294
C       -2.18248763       4.13165076       2.22552227       0.74853640      -1.05325733      -0.17253879
C       -3.07852306       3.81315215       3.24809932       0.13880801      -0.11696743      -0.25447346
C       -1.27644410       3.14849885       1.72233497      -0.84662475       0.52757340       0.54613103
C       -2.25111761       1.51363547       3.23770355      -0.20819632      -0.41175749       0.06345207
C        2.30099127       3.34462197      -3.64604879       1.70789114       0.99392820       0.00679455
C        5.55578909       0.65907182      -1.26742912       0.83779155       1.63491093      -0.74199398
C        1.24314562       2.63451465      -3.10193849       0.57296820      -1.87955285       1.31929150
C        4.55285773      -0.07569365      -0.66700894      -1.91113743      -0.19744625      -0.04090075
C       -3.09413185       2.50836535       3.74273347      -0.28941840       0.13032537      -0.00017725
C       -1.33032074       1.82124372       2.22584008      -0.32780375       2.02435522      -0.21055380
C        0.57329191      -2.44826333       1.01785498       1.62587821      -3.39953547      -0.42881954
C        2.19463740      -0.68842355      -0.24288911       1.44706538      -1.51975070      -0.71126250
C        3.61787662       3.08722027      -3.23169065      -1.46382994       1.39937648      -1.29696083
C        5.22874603       1.74921079      -2.07015849       1.67925886      -1.33953458       1.11935153
C        1.54879282       1.57810845      -2.23339129      -0.48630165       1.11555415      -0.95879537
C        3.18829498       0.20004453      -0.92411054       1.70857853      -0.82914416       0.04547667
C        0.26860640      -1.09915916       1.09318214      -1.31360549       0.90844865       1.13950295
C        1.14512873      -0.17788188       0.50302854      -0.45078039       0.17626089       0.13610995
C        3.90173350       2.03835996      -2.36563040       0.52409332       0.35514027      -0.21707604
C        2.86818943       1.26010375      -1.84582329      -1.01756219      -1.01264649       0.96132488
N       -0.45572760       0.86327734       1.65820466       2.27156272      -1.78228196      -1.62134913
C       -1.10553353      -4.39933756       2.35778158       0.53503603      -0.56351227       0.17261758
H        1.11201728       2.01125487       0.67792644       0.00211128       0.51498105      -0.06266289
H       -2.18428769       5.13674719       1.79494094       0.10049729      -0.45040753       0.21414717
H       -3.78423824       4.55142624       3.63068198       0.32089261      -0.26908615      -0.13977368
H       -0.58120241       3.47350152       0.93456023      -0.41994645      -0.51327097       0.44956231
H       -2.34450616       0.48329468       3.57635903       0.14508870       0.34918482      -0.02378628
H        2.11086092       4.14787992      -4.35572053       0.09651703      -0.12964217       0.21608822
H        6.61292419       0.43839385      -1.05132604      -0.68670130       0.10574808      -0.15271392
H        0.20342622       2.83729024      -3.29328680      -0.00767757       0.11118164      -0.34024313
H        4.85845790      -0.86092631       0.00971418      -0.44076898      -0.11368931      -0.01397124
H        4.44353351       3.73690446      -3.56321574      -0.54394554      -0.52253094      -0.01764634
H        6.04619179       2.35918756      -2.44361878      -0.32425047       0.00554045      -0.16704020
H        0.72023862       1.00074483      -1.90558125      -0.34178669      -0.47671827       0.48000255
H       -0.81965780      -5.42155436       2.05815237       0.48344390       0.91878152      -0.49762597
H       -1.00851672      -4.34839752       3.44149428       0.67251118       0.76442090      -0.20193232
H       -2.14095836      -4.23561791       2.12551253      -0.12478024       0.75972176      -0.73009323
