35
Properties=species:S:1:pos:R:3:forces:R:3 id=42849 bond=C-O smiles="[H:29][c:13]1[c:11]([c:17]2[c:18]([c:14]([c:20]1[C:8]3=[C:9]([O:3][N:2]=[C:7]3[H:25])[c:21]4[c:15]([c:16]([c:10]([c:12]([c:19]4[O:4][H:24])[H:28])[H:26])[Cl:1])[H:31])[H:30])[O:6][C:23]([C:22]([O:5]2)([H:32])[H:33])([H:34])[H:35])[H:27]" dataset=PubChem energy=-40042.35379653285 pbc="F F F"
Cl      -1.35846409       1.38568578       4.48884161       0.61436796      -0.15515070       1.00599751
N       -0.30925622       3.37234972      -2.54872076       0.46284156      -0.21127493      -0.12901808
O       -1.30687996       3.33917449      -1.52657024       0.99847729      -0.29938885      -0.45997259
O       -3.62768041       1.85952407      -0.64106587      -5.57628245       0.31934693     -13.32763343
O        2.97157803      -2.62906839       0.84141545       0.97298741      -0.49423244       0.26956714
O        4.46246353      -0.23725249       0.27724526       0.28789552      -0.72664081       0.16845107
C        0.66310407       2.54545233      -2.18852560      -2.59052483       0.40232431       1.20330717
C        0.29852107       1.93888698      -0.94139187      -0.22001789       0.82179621       0.13983149
C       -0.92196854       2.46339081      -0.56129382       1.36351698      -0.78706673      -0.72031259
C       -3.40876993       1.55209218       2.80597528      -0.67058486      -0.33213345      -0.32988024
C        1.00124625      -1.49086620       0.23818588      -0.21732410       0.05527832      -0.21531565
C       -3.97161325       1.65287028       1.53535600       0.11721025      -0.12752249       1.41524194
C        0.36235309      -0.34322574      -0.22428171      -0.00650364      -1.35451576       1.07323759
C        2.41725317       0.90696243      -0.13022528      -0.32067604      -1.55579349       0.01968545
C       -1.22079560       1.90672968       1.85037692       0.12923548       0.33506550      -0.45712420
C       -2.02906402       1.60855255       2.94443376      -0.05387904       0.43419632      -1.10385283
C        2.37080982      -1.46354594       0.46392526       0.12876004       0.28135222      -0.13162709
C        3.09345928      -0.28356929       0.23164909      -0.24552867       0.85576844      -0.36646599
C       -3.17218026       1.88282845       0.42748361       5.66886594       0.43246548      11.30809256
C        1.04981766       0.85140274      -0.35145132      -0.08680589      -0.65644117      -0.04127504
C       -1.79571947       2.12706111       0.57711107       1.04627948      -0.09655503       1.82745293
C        4.31623879      -2.44699599       1.33505829       0.17319433       0.82653988      -0.01085060
C        5.08254161      -1.53378727       0.35604660      -0.83265932      -0.61436998       0.06823736
H       -2.98594891       2.20423550      -1.28376297      -0.63867929      -0.23224108      -0.43913721
H        1.51692132       2.23090742      -2.78830520      -0.41694102       0.69626797      -0.01979116
H       -4.04212221       1.37186948       3.68951805       0.43715877       0.13200376      -0.61278766
H        0.46353195      -2.43900849       0.38104648       0.31628907       0.58836286      -0.06979991
H       -5.03098329       1.55317936       1.37148263      -0.12641097      -0.04101708       0.06622898
H       -0.70207628      -0.41185852      -0.38804351       0.00312295       0.23651005      -0.19233010
H        2.90771476       1.82198189      -0.36778835       0.69387357       0.29596102       0.14801909
H       -0.12834170       1.99016521       1.94668944      -0.71051308      -0.02534288       0.13572003
H        4.86695591      -3.40291287       1.45086153      -0.84786252       0.39606282      -0.28182931
H        4.23997346      -1.96636893       2.32739242       0.16124945      -0.16395404      -0.37887191
H        5.10692087      -2.05130340      -0.61840419      -0.27344079       0.45308792       0.12746915
H        6.10923544      -1.40739038       0.64981222       0.26021131       0.31024294       0.31558174
