35
Properties=species:S:1:pos:R:3:forces:R:3 id=42849 bond=C-O smiles="[H:29][c:13]1[c:11]([c:17]2[c:18]([c:14]([c:20]1[C:8]3=[C:9]([O:3][N:2]=[C:7]3[H:25])[c:21]4[c:15]([c:16]([c:10]([c:12]([c:19]4[O:4][H:24])[H:28])[H:26])[Cl:1])[H:31])[H:30])[O:6][C:23]([C:22]([O:5]2)([H:32])[H:33])([H:34])[H:35])[H:27]" dataset=PubChem energy=-40043.317352178616 pbc="F F F"
Cl      -1.29520018       1.38892250       4.63725126       0.55874722      -0.14399956       0.86932811
N       -0.24599231       3.37558644      -2.40031111       0.42905485      -0.23679297       0.05763973
O       -1.24361605       3.34241121      -1.37816059       1.10759129      -0.35259903      -0.43082016
O       -3.69094432       1.85628735      -0.78947552       0.87093275       0.12912182       3.00286113
O        3.03484194      -2.62583167       0.98982510       0.97050657      -0.49029387       0.26923024
O        4.52572744      -0.23401577       0.42565491       0.28275132      -0.72561915       0.17049832
C        0.72636798       2.54868905      -2.04011595      -2.57160897       0.38175504       1.13522498
C        0.36178498       1.94212370      -0.79298222      -0.26953677       0.83898326       0.22346369
C       -0.85870463       2.46662753      -0.41288417       1.43177180      -0.59280677      -1.01900916
C       -3.34550602       1.55532890       2.95438493      -0.48494937      -0.30998996      -0.12622765
C        1.06451016      -1.48762948       0.38659553      -0.20600634       0.05138079      -0.20668107
C       -3.90834934       1.65610700       1.68376565      -0.03281105      -0.01148266      -0.27124212
C        0.42561700      -0.33998902      -0.07587206      -0.02942804      -1.34650541       1.07979253
C        2.48051708       0.91019915       0.01818437      -0.30958798      -1.55675214       0.02244530
C       -1.15753169       1.90996640       1.99878657       0.14118482       0.33919246      -0.49025793
C       -1.96580011       1.61178927       3.09284341      -0.22887602       0.42979329      -1.08444316
C        2.43407373      -1.46030922       0.61233491       0.12268117       0.27121930      -0.13150845
C        3.15672319      -0.28033257       0.38005874      -0.23918920       0.86516889      -0.36876489
C       -3.10891635       1.88606517       0.57589326      -0.04029047       0.47643640      -3.06518923
C        1.11308157       0.85463946      -0.20304167      -0.07881356      -0.65173257      -0.03499319
C       -1.73245556       2.13029783       0.72552072      -0.05709769      -0.37384336       0.57086536
C        4.37950270      -2.44375927       1.48346794       0.17515520       0.82557530      -0.01357038
C        5.14580552      -1.53055055       0.50445625      -0.83068727      -0.61750873       0.06727797
H       -3.04921282       2.20099878      -1.43217262      -0.17912219      -0.05614290       0.58428025
H        1.58018523       2.23414414      -2.63989555      -0.42020219       0.68487077      -0.02042500
H       -3.97885830       1.37510620       3.83792770       0.42622249       0.13309868      -0.64600773
H        0.52679586      -2.43577177       0.52945613       0.31537986       0.58836036      -0.07225877
H       -4.96771938       1.55641608       1.51989228      -0.12368117      -0.06296136       0.11015760
H       -0.63881237      -0.40862180      -0.23963386      -0.00114144       0.23555698      -0.20803477
H        2.97097867       1.82521861      -0.21937870       0.69496248       0.29526361       0.14537421
H       -0.06507779       1.99340193       2.09509909      -0.72365012      -0.01435460       0.09905916
H        4.93021982      -3.39967615       1.59927118      -0.84803926       0.39644654      -0.28178933
H        4.30323737      -1.96313221       2.47580207       0.16150187      -0.16376187      -0.37790143
H        5.17018478      -2.04806668      -0.46999454      -0.27347487       0.45368139       0.12835584
H        6.17249935      -1.40415366       0.79822187       0.26005272       0.31026003       0.31533266
