16
Properties=species:S:1:pos:R:3:forces:R:3 id=49407 bond=C-S smiles="[H:10][C:4]([H:11])([H:12])[C:6]([H:15])([C:7]([H:16])([C:5]([H:13])([H:14])[Cl:1])[S:3][H:9])[S:2][H:8]" dataset=PubChem energy=-38492.34656051866 pbc="F F F"
Cl       3.36350435      -0.84984428       0.40545854      -0.22762220      -0.12612071       0.46721939
S       -0.79428046       1.03136092       2.07664017       0.20032083       0.50279616      -0.02894453
S        2.30574284       3.09013448      -0.42713672      -0.79662163      -1.63229733       0.32914901
C       -1.39877158      -0.93027133       0.24422971       0.46904547      -0.59427149       0.74048803
C        1.73047251      -0.61748910       1.09508387      -0.50046732       1.93434909       0.36032799
C       -0.59453260       0.36334515       0.36866431       0.56530443       0.47229242       0.78004324
C        0.88712538       0.19137579       0.05768899      -0.29410456      -2.05375390       1.11369236
H       -1.96652728       0.50650560       2.47725097       0.14365121      -0.13184868      -0.51402996
H        3.20422659       3.09179924       0.57802440      -0.20783051      -0.21330445      -0.09873002
H       -2.44058829      -0.70979488       0.38491997      -0.48110488       0.26401586      -0.29031413
H       -1.23962479      -1.42997784      -0.69183834      -0.01732816      -0.11555701      -0.57276015
H       -1.17986148      -1.64533669       1.04326392       0.32199159       0.18133879      -0.12275321
H        1.74974579      -0.08471271       2.10760442       0.29673938      -0.81263551      -1.60885121
H        1.25801558      -1.61193353       1.26616482       0.23998983       0.67352947      -0.36847869
H       -0.96642166       1.03685373      -0.38193817      -0.32539877       0.55408035      -0.03686020
H        0.94068772      -0.33749542      -0.90420456       0.60867493       1.09647695      -0.14875525
