49
Properties=species:S:1:pos:R:3:forces:R:3 id=31756 bond=C-P smiles="[H:44][C:29]([H:45])([C:35]([C:38]([C:32]([C:26]([H:41])([F:1])[F:2])([F:7])[F:8])([F:19])[F:20])([F:13])[F:14])[P:25]([C:30]([H:46])([H:47])[C:36]([C:39]([C:33]([C:27]([H:42])([F:3])[F:4])([F:9])[F:10])([F:21])[F:22])([F:15])[F:16])[C:31]([H:48])([H:49])[C:37]([C:40]([C:34]([C:28]([H:43])([F:5])[F:6])([F:11])[F:12])([F:23])[F:24])([F:17])[F:18]" dataset=PubChem energy=-90239.03238161442 pbc="F F F"
F        1.78188992      -6.87433244      -3.76260635       0.20880419       0.66994344       0.01024313
F        3.41083623      -5.65448381      -4.54664752      -0.25119810       0.59851679       0.65313868
F        3.23871592       6.69557291       4.19032003      -0.49696583      -0.45317655      -0.25284313
F        3.19108585       4.77674442       5.26489545       0.09067403       0.53104004      -1.43377163
F       -5.96647450       3.44925171       3.07743646       0.06972631      -1.33771009      -1.04003942
F       -6.11215826       1.32691586       2.36923589       0.35593670       0.27900284      -0.02604079
F        1.38968773      -5.55109788      -1.69567892      -0.19184206       0.08130726      -0.31767913
F        3.43625356      -4.92703153      -2.02209231      -0.59626793       0.77805818      -0.26880788
F        5.11412671       5.13188463       3.43858410       1.58165481       0.24716967      -0.07441456
F        3.74501041       5.63489777       1.81583561      -0.20198448      -0.35749213       0.08368205
F       -4.14893814       4.09274822       1.63198741       0.13120237      -0.45936725      -1.32542558
F       -4.56304785       2.53612525       0.06322147       0.33324156      -0.01160882      -1.80784585
F        2.78303696      -2.58183600      -0.79500517      -0.94160601      -0.47614310      -0.79685954
F        0.76583756      -3.36800506      -0.35253710       0.63468858      -0.62006644      -1.22321903
F        1.50927344       3.34202152       2.21464588       0.14428547       1.10180488       0.86173186
F        2.80831006       2.88574940       0.56119491       0.80746425       0.82294445       0.40207850
F       -1.70084497       1.91624242       0.26742746      -0.79557052      -0.16947233       0.23545166
F       -1.47169360       3.43394715       1.77440895       0.02053285      -0.86904917       0.61741160
F        0.49262379      -3.31326248      -3.39883825      -1.01069219      -1.17841339       0.33677284
F        2.50861825      -2.81794478      -3.46715090       1.55345746       0.89529297      -0.42037390
F        3.85716561       2.80057090       3.88683726      -0.44440920       0.23581370       0.76918725
F        4.98322060       2.88732189       2.13771106       0.87791654       0.62381883      -1.29336124
F       -3.53586289       0.62705845       1.83706845      -0.79475434      -1.59465433      -0.59002904
F       -3.38981196       2.04765052       3.44699432      -0.13795683       0.51236298      -1.36752757
P        0.82694760       0.72238449       1.34472771       0.68960998       1.04218137      -3.27431964
C        2.20446969      -5.57165481      -3.93812415      -0.11014107      -1.96956156       0.12553809
C        2.96798185       5.37270742       4.02017547       2.50719166       0.77849186       2.43398863
C       -5.84207007       2.59078628       1.98101778       0.53610227       0.53006370       2.18537211
C        0.84700708      -1.30479171      -1.50055775       3.10077134      -1.39130657      -0.82472038
C        2.56510881       1.31690121       2.15291763      -1.49819752      -3.19358219       1.70061497
C       -0.73868295       1.09713257       2.27720024       0.09368518       0.55165939       2.90976520
C        2.18221117      -4.86701967      -2.54512617       0.50925876      -2.10611142      -0.58033212
C        3.91396311       4.89486176       2.93206348       0.47427856      -0.01613860       0.24081963
C       -4.46331545       2.79246181       1.32346515       1.35557328      -0.11412627       4.78893278
C        1.51771296      -2.75938656      -1.33182451      -1.54862041       4.24512690       1.79371759
C        2.71372536       2.77001900       1.93029161      -2.13252798      -0.90560553      -2.20275518
C       -1.79865643       2.11257321       1.62165545       1.12799530       0.21048458      -0.73855582
C        1.63150180      -3.46174647      -2.71486804       0.60897632       0.61933918       1.73827219
C        3.87261370       3.38852698       2.66022481       0.04643532      -0.96907087       1.14662338
C       -3.32473394       1.89968580       2.07097502       1.39027301       0.88888706       0.22574083
H        1.50447995      -5.10959055      -4.58900401      -0.47080355       0.45596080      -0.72995109
H        2.01058200       5.17473656       3.79765846      -3.62835472      -0.13818142      -0.85728791
H       -6.52952858       2.88412911       1.26841482      -1.76032136       0.60935215      -1.37037540
H        1.50918848      -0.68224527      -2.14770028      -0.23780216      -0.10179749       1.11660040
H       -0.13221745      -1.21135129      -1.89013240      -1.20752445      -0.37158872       0.36243777
H        2.53417876       0.93167734       3.22030403       0.62244694       0.93910394      -1.30435443
H        3.34094790       0.80440128       1.55050768      -0.63061402       0.01671366       0.53862051
H       -0.33170196       1.54857415       3.24822546      -1.27165573      -0.59219493      -0.99485621
H       -1.25829050       0.12326121       2.51228477       0.49588416       1.13318634      -0.16866072
