49
Properties=species:S:1:pos:R:3:forces:R:3 id=31756 bond=C-P smiles="[H:44][C:29]([H:45])([C:35]([C:38]([C:32]([C:26]([H:41])([F:1])[F:2])([F:7])[F:8])([F:19])[F:20])([F:13])[F:14])[P:25]([C:30]([H:46])([H:47])[C:36]([C:39]([C:33]([C:27]([H:42])([F:3])[F:4])([F:9])[F:10])([F:21])[F:22])([F:15])[F:16])[C:31]([H:48])([H:49])[C:37]([C:40]([C:34]([C:28]([H:43])([F:5])[F:6])([F:11])[F:12])([F:23])[F:24])([F:17])[F:18]" dataset=PubChem energy=-90241.16971309627 pbc="F F F"
F        1.77910388      -6.59278019      -3.36742781       0.21130459       0.72231260       0.02655750
F        3.40805019      -5.37293156      -4.15146898      -0.27649265       0.61465663       0.67871322
F        3.24150196       6.41402066       3.79514149      -0.49471018      -0.44073372      -0.24988904
F        3.19387189       4.49519217       4.86971691       0.09891139       0.52942428      -1.42609021
F       -5.96368846       3.16769946       2.68225792       0.06263921      -1.33961351      -1.03272225
F       -6.10937222       1.04536361       1.97405735       0.34458584       0.26772955      -0.02654772
F        1.38690169      -5.26954563      -1.30050038      -0.18708115       0.11375033      -0.32697234
F        3.43346752      -4.64547928      -1.62691377      -0.62352472       0.79644309      -0.27305335
F        5.11691275       4.85033238       3.04340556       1.60640795       0.25166760      -0.06579197
F        3.74779645       5.35334552       1.42065707      -0.19374810      -0.35602724       0.09183451
F       -4.14615210       3.81119597       1.23680887       0.12808273      -0.44806787      -1.32816034
F       -4.56026181       2.25457300      -0.33195707       0.31527171      -0.01184005      -1.84145152
F        2.78025092      -2.30028375      -0.39982663      -1.06871815      -0.44734340      -0.84506044
F        0.76305152      -3.08645281       0.04264144       0.72553132      -0.51872701      -1.35980522
F        1.51205948       3.06046927       1.81946734       0.38212518       1.16440287       0.93710526
F        2.81109610       2.60419715       0.16601637       0.90768261       0.91175539       0.44699912
F       -1.69805893       1.63469017      -0.12775108      -0.84236221      -0.19370972       0.24169776
F       -1.46890756       3.15239490       1.37923041      -0.00851621      -0.78753086       0.58640214
F        0.48983775      -3.03171023      -3.00365971      -1.01611327      -1.10903174       0.37735120
F        2.50583221      -2.53639253      -3.07197236       1.52084704       0.91057966      -0.38997422
F        3.85995165       2.51901865       3.49165872      -0.44249009       0.18512779       0.79675135
F        4.98600664       2.60576964       1.74253252       0.91910109       0.61997089      -1.27765011
F       -3.53307685       0.34550620       1.44188991      -0.81758125      -1.63023092      -0.59114261
F       -3.38702592       1.76609827       3.05181578      -0.14707462       0.51017737      -1.32837378
P        0.82973364       0.44083224       0.94954917       1.06214966      -0.58414747      -2.32090888
C        2.20168365      -5.29010256      -3.54294561      -0.10463211      -2.00232114       0.06852778
C        2.97076789       5.09115517       3.62499693       2.48955171       0.76352533       2.41659505
C       -5.83928403       2.30923403       1.58583924       0.55353047       0.55095062       2.15654471
C        0.84422104      -1.02323946      -1.10537921       2.99062386       0.88364200       1.21743437
C        2.56789485       1.03534896       1.75773909      -1.41899625      -3.30817842       0.55553810
C       -0.73589691       0.81558032       1.88202170      -0.46842821      -0.09802302       1.50166605
C        2.17942513      -4.58546742      -2.14994763       0.54627719      -2.17938919      -0.48161617
C        3.91674915       4.61330951       2.53688494       0.44557165      -0.02713748       0.22451581
C       -4.46052941       2.51090956       0.92828661       1.35979295      -0.14503509       4.86328160
C        1.51492692      -2.47783431      -0.93664597      -1.34999103       3.80601761       2.28085929
C        2.71651140       2.48846675       1.53511307      -2.35070408      -0.67784925      -2.43047060
C       -1.79587039       1.83102096       1.22647691       1.03464177       0.31099633      -0.60295752
C        1.62871576      -3.18019422      -2.31968950       0.59040853       0.69857232       1.60832705
C        3.87539974       3.10697473       2.26504627      -0.01755518      -0.99987261       1.08374167
C       -3.32194790       1.61813355       1.67579648       1.44104653       0.97555788       0.11688335
H        1.50169391      -4.82803830      -4.19382547      -0.47374029       0.45512434      -0.73584234
H        2.01336804       4.89318431       3.40247992      -3.62475489      -0.14239167      -0.86226678
H       -6.52674254       2.60257686       0.87323628      -1.76878009       0.60792023      -1.36561326
H        1.50640244      -0.40069302      -1.75252174      -0.42140639      -0.36070122       0.87026642
H       -0.13500349      -0.92979904      -1.49495386      -1.06121968      -0.36336208       0.22891685
H        2.53696480       0.65012509       2.82512549       0.34152064       0.84876467      -1.48493148
H        3.34373394       0.52284903       1.15532914      -0.52279917       0.04571648       0.63461775
H       -0.32891592       1.26702190       2.85304692      -0.81502227      -0.67230928      -1.24587724
H       -1.25550446      -0.15829104       2.11710623       0.44006437       1.29720590      -0.12593771
