39
Properties=species:S:1:pos:R:3:forces:R:3 id=21690 bond=C-O smiles="[H:26][c:9]1[c:10]([c:13]([c:19]([c:18]([c:12]1[H:29])[C:7]2=[C:8]([C:24]([c:20]3[c:14]([c:16]([c:15]([c:11]([c:17]3[S:6]2)[H:28])[O:4][C:21]([H:32])([H:33])[H:34])[O:5][C:22]([H:35])([H:36])[H:37])[H:31])([H:38])[H:39])[H:25])[C:23]([F:1])([F:2])[F:3])[H:30])[H:27]" dataset=PubChem energy=-42011.31132679412 pbc="F F F"
F       -1.30800486       1.39642094       0.55481153      -0.97190499      -0.21765083      -0.72723739
F       -3.37155915       1.45365344       1.11753603      -0.29816869       0.46969911      -0.37554803
F       -2.87290431       1.58418987      -1.03170793       0.45645351      -0.22870520       1.09947111
O        3.75747012       1.85871480       3.35719772      -0.64261555      -0.12978688       0.98607452
O        3.97804593       3.55255757       1.20897974       0.21378442       1.47554426      -2.08629044
S        0.99033289      -1.60145439       0.64192141      -0.00249445       0.05705074       0.26388627
C       -0.26984275      -0.99680699      -0.43742530       0.20310944       1.96599127      -2.38847886
C        0.08533885      -0.12678410      -1.45395569      -0.42770428      -2.18777406       1.80250433
C       -3.18395377      -3.31807007       0.08260222      -0.29558335      -0.70346711      -0.08290179
C       -4.23355341      -2.44291152       0.32920243       0.77018596       1.14703927      -0.13186254
C        2.51128339       0.23396784       2.01906891       0.36287125       0.97471902       0.08777813
C       -1.91418958      -2.85399307      -0.17503194       0.01825975       1.55936231      -0.01386389
C       -4.02425814      -1.06148387       0.31103100       0.14944800       0.03714144      -0.26048955
C        2.88775300       1.91261040      -0.20155589      -0.46143710      -1.22963158       1.18001934
C        3.19480061       1.45565562       2.19252499       0.19431275      -0.21929576      -1.59878803
C        3.40408038       2.29935918       1.03463568      -0.48517081       0.85718307       0.00384746
C        1.95025228      -0.12281366       0.79715362       0.68920631       1.28228416      -0.90214759
C       -1.67413855      -1.44539179      -0.19676201      -0.14113317      -0.35214774       0.56754767
C       -2.73854399      -0.53546847       0.09977980       0.90930339      -0.96788239      -0.72121050
C        2.15898227       0.72119759      -0.31574164      -0.32054737      -0.62420599       0.81572930
C        3.22828411       1.30302642       4.58486481       0.27774650       0.03839644      -0.04209163
C        3.99858241       4.58690160      -0.02937925      -0.93746874      -2.03108666       1.24951730
C       -2.54806710       0.98796199       0.16129877       0.23947850      -0.67517827       0.35450954
C        1.52363311       0.30806158      -1.60595946      -0.37302227       0.47298587      -0.90983895
H       -0.65698791       0.16533144      -2.19969610       0.18934352       0.14694129       0.46980583
H       -3.36273170      -4.39592732       0.03427180      -0.01254807       0.41301297       0.21691035
H       -5.21181345      -2.77194680       0.56106881      -0.72060368      -0.52150174      -0.01895831
H        2.38516210      -0.43447126       2.84593458      -0.05179481      -0.05287777       0.39071172
H       -1.10181237      -3.55297173      -0.35996894      -0.13869288       0.29912120      -0.03003010
H       -4.88762427      -0.39120091       0.39217505       0.52302264      -0.28112304       0.27836995
H        2.98124503       2.51361643      -1.07558374       0.16507274       0.40138067      -0.28535974
H        3.51541041       1.97485219       5.40430493       0.17365486      -0.25369420      -0.45892069
H        3.59898209       0.28958811       4.77336212       0.27481498       0.24635060      -0.10372377
H        2.14430379       1.21647475       4.61900849      -0.15813867       0.28058891      -0.49837812
H        4.67953734       4.29314607      -0.81614247       0.22231321      -0.70095174       0.14038108
H        2.99307280       4.67871326      -0.48406431       0.45026633      -0.19479575       0.66486138
H        4.34507256       5.55527204       0.30181086      -0.11673507      -0.19211092       0.86707089
H        2.11705517      -0.50680448      -2.04232292      -0.14884373      -0.00433154      -0.01285747
H        1.53533410       1.14866756      -2.31828074       0.21796686      -0.35837238       0.20489324
