39
Properties=species:S:1:pos:R:3:forces:R:3 id=21690 bond=C-O smiles="[H:26][c:9]1[c:10]([c:13]([c:19]([c:18]([c:12]1[H:29])[C:7]2=[C:8]([C:24]([c:20]3[c:14]([c:16]([c:15]([c:11]([c:17]3[S:6]2)[H:28])[O:4][C:21]([H:32])([H:33])[H:34])[O:5][C:22]([H:35])([H:36])[H:37])[H:31])([H:38])[H:39])[H:25])[C:23]([F:1])([F:2])[F:3])[H:30])[H:27]" dataset=PubChem energy=-42011.75471430245 pbc="F F F"
F       -1.30718341       1.43779470       0.50527717      -0.96793204      -0.21772158      -0.72639527
F       -3.37073770       1.49502720       1.06800167      -0.29565291       0.46777660      -0.37786771
F       -2.87208286       1.62556363      -1.08124229       0.45653103      -0.23351515       1.10232595
O        3.75829157       1.90008856       3.30766336      -0.65211191      -0.13291537       0.95798691
O        3.97886738       3.59393133       1.15944538       0.14557787       0.32799539      -0.79373533
S        0.99115434      -1.56008063       0.59238705       0.00065665       0.05910194       0.26885873
C       -0.26902130      -0.95543323      -0.48695966       0.20293718       1.96986446      -2.39582052
C        0.08616030      -0.08541034      -1.50349005      -0.42702472      -2.18987221       1.80484387
C       -3.18313232      -3.27669631       0.03306786      -0.29658157      -0.70406700      -0.08297403
C       -4.23273196      -2.40153776       0.27966807       0.77126602       1.14662181      -0.13196103
C        2.51210484       0.27534160       1.96953455       0.36796742       0.97633742       0.10567763
C       -1.91336813      -2.81261931      -0.22456630       0.01983922       1.56101027      -0.01385063
C       -4.02343669      -1.02011011       0.26149664       0.14960336       0.03736392      -0.26063370
C        2.88857445       1.95398416      -0.25109025      -0.43506493      -1.15714360       1.15862834
C        3.19562206       1.49702938       2.14299063       0.20743367      -0.20829339      -1.60049567
C        3.40490183       2.34073294       0.98510132      -0.49638073       0.68479346       0.16035867
C        1.95107373      -0.08143990       0.74761926       0.68892387       1.29296637      -0.91538051
C       -1.67331710      -1.40401803      -0.24629637      -0.14307609      -0.35411131       0.57044019
C       -2.73772254      -0.49409471       0.05024544       0.91025761      -0.96737698      -0.72097882
C        2.15980372       0.76257135      -0.36527600      -0.33196291      -0.64439817       0.83047157
C        3.22910556       1.34440018       4.53533045       0.27494304       0.03294344      -0.03142532
C        3.99776096       4.54552784       0.02015511      -0.86733837      -1.25182982       0.45968162
C       -2.54724565       1.02933575       0.11176441       0.23240478      -0.67125559       0.35125310
C        1.52445456       0.34943534      -1.65549382      -0.37076392       0.47732576      -0.91351981
H       -0.65616646       0.20670520      -2.24923046       0.19009853       0.14726377       0.47027936
H       -3.36191025      -4.35455356      -0.01526256      -0.01247730       0.41319351       0.21681837
H       -5.21099200      -2.73057304       0.51153445      -0.72048248      -0.52150769      -0.01899174
H        2.38598355      -0.39309750       2.79640022      -0.05211446      -0.05205574       0.38952677
H       -1.10099092      -3.51159797      -0.40950330      -0.13881044       0.29836722      -0.03026242
H       -4.88680282      -0.34982715       0.34264069       0.52318488      -0.28104336       0.27827711
H        2.98206648       2.55499019      -1.12511810       0.15963974       0.38047071      -0.28885810
H        3.51623186       2.01622595       5.35477057       0.17360906      -0.25384768      -0.46011719
H        3.59980354       0.33096187       4.72382776       0.27520944       0.24790551      -0.10476415
H        2.14512524       1.25784851       4.56947413      -0.15704196       0.28128851      -0.49910099
H        4.67871589       4.25177231      -0.76660811       0.22767894      -0.52996308      -0.06741108
H        2.99225135       4.63733950      -0.43452995       0.43667125      -0.00684746       0.45730284
H        4.34425111       5.51389828       0.35134522      -0.12357599      -0.06642710       0.65144972
H        2.11787662      -0.46543072      -2.09185728      -0.14889673      -0.00391950      -0.01262620
H        1.53615555       1.19004132      -2.36781510       0.21839168      -0.35959196       0.20651627
