39
Properties=species:S:1:pos:R:3:forces:R:3 id=21690 bond=C-O smiles="[H:26][c:9]1[c:10]([c:13]([c:19]([c:18]([c:12]1[H:29])[C:7]2=[C:8]([C:24]([c:20]3[c:14]([c:16]([c:15]([c:11]([c:17]3[S:6]2)[H:28])[O:4][C:21]([H:32])([H:33])[H:34])[O:5][C:22]([H:35])([H:36])[H:37])[H:31])([H:38])[H:39])[H:25])[C:23]([F:1])([F:2])[F:3])[H:30])[H:27]" dataset=PubChem energy=-42010.50620965339 pbc="F F F"
F       -1.30526667       1.53433348       0.38969700      -0.95774258      -0.21872140      -0.72395271
F       -3.36882096       1.59156598       0.95242150      -0.28820615       0.45826756      -0.38185317
F       -2.87016612       1.72210241      -1.19682246       0.45825001      -0.24432173       1.11335790
O        3.76020831       1.99662734       3.19208319      -0.68082381      -0.14006458       0.86770990
O        3.98078412       3.69047011       1.04386521      -0.40973026     -10.81210751      11.89030400
S        0.99307108      -1.46354185       0.47680688       0.01185985       0.06841942       0.28610480
C       -0.26710456      -0.85889445      -0.60253983       0.20226754       1.98345397      -2.41980877
C        0.08807704       0.01112844      -1.61907022      -0.42356917      -2.19697668       1.81214302
C       -3.18121558      -3.18015753      -0.08251231      -0.29983356      -0.70623817      -0.08310536
C       -4.23081522      -2.30499898       0.16408790       0.77452612       1.14553156      -0.13227791
C        2.51402158       0.37188038       1.85395438       0.38501469       0.98234360       0.17057762
C       -1.91145139      -2.71608053      -0.34014647       0.02412337       1.56470186      -0.01405887
C       -4.02151995      -0.92357133       0.14591647       0.14998565       0.03877188      -0.26136245
C        2.89049119       2.05052294      -0.36667042      -0.34045760      -0.88577025       1.09312058
C        3.19753880       1.59356816       2.02741046       0.23230989      -0.20919014      -1.56944217
C        3.40681857       2.43727172       0.86952115      -0.53543478      -0.12470018       0.81804694
C        1.95299047       0.01509888       0.63203909       0.68566156       1.32391416      -0.95992470
C       -1.67140036      -1.30747925      -0.36187654      -0.14893673      -0.36080592       0.57953645
C       -2.73580580      -0.39755593      -0.06533473       0.91243221      -0.96569567      -0.71976213
C        2.16172046       0.85911013      -0.48085617      -0.36673160      -0.70772391       0.88193203
C        3.23102230       1.44093896       4.41975028       0.26428337       0.01321336       0.00772421
C        3.99584422       4.44898906       0.13573528      -0.32388032       8.58425552     -10.28920599
C       -2.54532891       1.12587453      -0.00381576       0.21294508      -0.65692173       0.34219589
C        1.52637130       0.44597412      -1.77107399      -0.36285877       0.49119302      -0.92626278
H       -0.65424972       0.30324398      -2.36481063       0.19270165       0.14822880       0.47208371
H       -3.35999351      -4.25801478      -0.13084273      -0.01221672       0.41397800       0.21665290
H       -5.20907526      -2.63403426       0.39595428      -0.71993408      -0.52150335      -0.01917798
H        2.38790029      -0.29655872       2.68082005      -0.05219775      -0.04857621       0.38692517
H       -1.09907418      -3.41505919      -0.52508347      -0.13950662       0.29632702      -0.03099446
H       -4.88488608      -0.25328837       0.22706052       0.52411424      -0.28093818       0.27796419
H        2.98398322       2.65152897      -1.24069827       0.16223395       0.36500225      -0.29073318
H        3.51814860       2.11276473       5.23919040       0.17358260      -0.25432557      -0.46444318
H        3.60172028       0.42750065       4.60824759       0.27668097       0.25395756      -0.10865135
H        2.14704198       1.35438729       4.45389396      -0.15255235       0.28405123      -0.50208902
H        4.67679915       4.15523353      -0.65102794       0.44902004      -0.02124593      -1.06738844
H        2.99033461       4.54080072      -0.31894978       0.09832324       0.66859916      -0.41364737
H        4.34233437       5.41735950       0.46692539      -0.05120663       0.62683196      -0.04301410
H        2.11979336      -0.36889194      -2.20743745      -0.14924917      -0.00247745      -0.01196871
H        1.53807229       1.28658010      -2.48339527       0.21981545      -0.36360447       0.21225661
