39
Properties=species:S:1:pos:R:3:forces:R:3 id=21690 bond=C-O smiles="[H:26][c:9]1[c:10]([c:13]([c:19]([c:18]([c:12]1[H:29])[C:7]2=[C:8]([C:24]([c:20]3[c:14]([c:16]([c:15]([c:11]([c:17]3[S:6]2)[H:28])[O:4][C:21]([H:32])([H:33])[H:34])[O:5][C:22]([H:35])([H:36])[H:37])[H:31])([H:38])[H:39])[H:25])[C:23]([F:1])([F:2])[F:3])[H:30])[H:27]" dataset=PubChem energy=-42006.97605444562 pbc="F F F"
F       -1.31471345       1.05853523       0.95934214      -0.98774945      -0.22098220      -0.73134482
F       -3.37826774       1.11576773       1.52206664      -0.30344599       0.46173696      -0.37189291
F       -2.87961290       1.24630416      -0.62717732       0.46043613      -0.22464453       1.09829008
O        3.75076153       1.52082909       3.76172833      -0.62504276      -0.10328691       0.96773955
O        3.97133734       3.21467186       1.61351035      -0.21650382      -0.93157695      -1.54967167
S        0.98362430      -1.93934010       1.04645202      -0.00641488       0.08856407       0.26935848
C       -0.27655134      -1.33469270      -0.03289469       0.20334804       1.95086134      -2.38094582
C        0.07863026      -0.46466981      -1.04942508      -0.42244220      -2.18337259       1.79226630
C       -3.19066236      -3.65595578       0.48713283      -0.29369230      -0.70274745      -0.08318303
C       -4.24026200      -2.78079723       0.73373304       0.76760004       1.14854013      -0.13239732
C        2.50457480      -0.10391787       2.42359952       0.41883580       0.93156019       0.09748429
C       -1.92089817      -3.19187878       0.22949867       0.01353401       1.55722263      -0.01427764
C       -4.03096673      -1.39936958       0.71556161       0.15072325       0.03553995      -0.25983042
C        2.88104441       1.57472469       0.20297472      -0.47652658      -1.57937014       0.87999268
C        3.18809202       1.11776991       2.59705560      -0.20321963      -0.45115897      -1.39188251
C        3.39737179       1.96147347       1.43916629       0.14371543       2.26678949       0.53806227
C        1.94354369      -0.46069937       1.20168423       0.67677204       1.20119648      -0.83797083
C       -1.68084714      -1.78327750       0.20776860      -0.13561549      -0.35112481       0.56387013
C       -2.74525258      -0.87335418       0.50431041       0.90758932      -0.96769170      -0.72153347
C        2.15227368       0.38331188       0.08878897      -0.23294060      -0.47262974       0.79196959
C        3.22157552       0.96514071       4.98939542       0.28004867       0.03023651      -0.06057929
C        4.00529100       4.92478731      -0.43390986      -0.88782100       0.53598950      -1.24689234
C       -2.55477569       0.65007628       0.56582938       0.26330222      -0.67822662       0.36828224
C        1.51692452      -0.02982413      -1.20142885      -0.40214461       0.47346769      -0.90480430
H       -0.66369650      -0.17255427      -1.79516549       0.18567852       0.14656611       0.47016922
H       -3.36944029      -4.73381303       0.43880241      -0.01271640       0.41236798       0.21700919
H       -5.21852204      -3.10983251       0.96559942      -0.72102779      -0.52157006      -0.01865661
H        2.37845351      -0.77235697       3.25046519      -0.05360647      -0.07040474       0.39304958
H       -1.10852096      -3.89085744       0.04456167      -0.13811893       0.30011375      -0.02956214
H       -4.89433286      -0.72908662       0.79670566       0.52267341      -0.28094567       0.27877618
H        2.97453644       2.17573072      -0.67105313       0.18293069       0.59135265      -0.22751704
H        3.50870182       1.63696648       5.80883554       0.17570069      -0.25067590      -0.46137811
H        3.59227350      -0.04829760       5.17789273       0.27545422       0.24431281      -0.10192490
H        2.13759520       0.87858904       5.02353910      -0.15907280       0.27974930      -0.49813706
H        4.68624593       4.63103178      -1.22067308       0.38425933      -1.27826973       0.54085957
H        2.99978139       5.01659897      -0.88859492       0.22673743      -0.74025722       1.15551620
H        4.35178115       5.89315775      -0.10271975      -0.03126050      -0.29658123       1.41459594
H        2.11034658      -0.84469019      -1.63779231      -0.14650187      -0.00249742      -0.00859533
H        1.52862551       0.81078185      -1.91375013       0.21880158      -0.35562047       0.20423567
