18
Properties=species:S:1:pos:R:3:forces:R:3 id=14857 bond=C-N smiles="[C:18]([N:16]([C:17]([N:12]([F:1])[F:2])([F:10])[F:11])[F:9])([N:13]([F:3])[F:4])([N:14]([F:5])[F:6])[N:15]([F:7])[F:8]" dataset=PubChem energy=-39409.63180053794 pbc="F F F"
F       -1.97471556      -0.82318041       1.04720158       1.20905372       0.61900812      -3.17079315
F       -1.30189761      -1.82774720      -1.02254229      -0.71453195       2.60427414       1.54801565
F        1.26724232       2.94199265       2.15653882       0.88188830      -2.52832216      -0.56610666
F        3.19542516       1.63452710       1.90809057      -2.74063232       0.08898810       0.02274708
F        2.09350861      -0.86021577       2.27787671      -1.73059648       2.23951345       0.15072621
F        0.19045575       0.40856649       2.97955761       2.37939328       0.07343166      -1.42469745
F        1.76331938      -1.11586402      -0.71946897      -0.03652107       2.62217978       0.38204217
F        2.76829899       0.94789179      -1.16422596      -2.07705190      -1.09849969       1.00946575
F       -0.95468151       1.98254074       1.03352795       0.82541563      -0.20362823       0.43110585
F       -1.95740756       1.25103077      -0.88354986       0.36086920      -0.12717949      -0.29939464
F       -0.10996303       0.55162642      -1.81816774      -0.44037215      -1.27272291       0.84146480
N       -1.07804498      -0.73522815      -0.09747940       1.40180027      -3.59661334       0.79725287
N        1.93200911       1.98062290       1.35577724       1.77742512       2.80659704      -2.77645506
N        0.92010487      -0.12145810       1.89131544      -1.27173781      -4.17672019      -0.92261025
N        2.06229414       0.17337533      -0.23668726       1.59267715      -0.65527391       1.61289610
N       -0.11502610       1.28375514       0.17283798       6.96764661       6.88265466       8.82281436
C       -0.76796850       0.61352942      -0.61778753      -8.25198752      -5.07635958      -8.45055809
C        1.18297006       0.81932618       0.76680866      -0.13161400       0.80348090       1.99671134
