18
Properties=species:S:1:pos:R:3:forces:R:3 id=14857 bond=C-N smiles="[C:18]([N:16]([C:17]([N:12]([F:1])[F:2])([F:10])[F:11])[F:9])([N:13]([F:3])[F:4])([N:14]([F:5])[F:6])[N:15]([F:7])[F:8]" dataset=PubChem energy=-39409.87489053085 pbc="F F F"
F       -2.09936820      -0.95113260       0.89626398       1.33263216       0.65148458      -3.31305948
F       -1.42655025      -1.95569939      -1.17347989      -0.55153830       2.85677992       1.56377540
F        1.39189496       3.06994484       2.30747642       0.88883606      -2.51270860      -0.54395750
F        3.32007780       1.76247929       2.05902817      -2.65805829       0.08031919       0.07189145
F        2.21816125      -0.73226358       2.42881431      -1.59733397       2.12208796       0.28151195
F        0.31510839       0.53651868       3.13049521       2.34135021       0.06709636      -1.38684119
F        1.88797202      -0.98791183      -0.56853137      -0.13772594       2.55593692       0.31950933
F        2.89295163       1.07584398      -1.01328836      -2.03783325      -1.11094758       0.95786989
F       -0.83002887       2.11049293       1.18446555       0.36317451      -0.93089014      -0.33122244
F       -2.08206020       1.12307858      -1.03448746       1.99465177       0.16393755       0.91954433
F       -0.23461567       0.42367423      -1.96910534      -0.59071409      -0.30449294       2.83490700
N       -1.20269762      -0.86318034      -0.24841700       1.91852910      -2.13054250       1.51685524
N        2.05666175       2.10857509       1.50671484       1.74894065       2.82421910      -2.78339085
N        1.04475751       0.00649409       2.04225304      -1.29459144      -4.32525854      -1.04975494
N        2.18694678       0.30132752      -0.08574966       1.45631471      -0.50515749       1.56576764
N        0.00962654       1.41170733       0.32377558      -0.55856465      -0.78476957      -2.27449981
C       -0.89262114       0.48557723      -0.76872513      -1.55115058       0.76653157      -0.27253867
C        1.30762270       0.94727837       0.91774626      -1.06290707       0.52217062       1.92316904
