38
Properties=species:S:1:pos:R:3:forces:R:3 id=43210 bond=C-N smiles="[H:24][c:7]1[c:6]([c:8]([c:10]([c:11]([c:9]1[H:26])[C:16]([H:31])([H:32])[C:21]([C:20]2([C:18]([C:19]2([H:37])[H:38])([H:35])[H:36])[Cl:3])([C:17]([H:33])([H:34])[N:14]3[C:5](=[S:1])[N:12]([C:15]([N:13]3[H:28])([H:29])[H:30])[H:27])[O:4][H:22])[Cl:2])[H:25])[H:23]" dataset=PubChem energy=-57204.690243388955 pbc="F F F"
S       -3.35546948      -0.90652981      -0.52746061       1.21998259       0.87873107      -0.14414462
Cl      -1.80005162       2.16769309       2.33743080      -0.01280443       0.14515401      -0.06733118
Cl       0.70548528      -1.28184681       4.96296902      -0.67611196      -0.12244581       0.01303579
O        2.12365837      -0.73903018       1.28742663      -0.93033163       0.33563255      -0.36750821
C       -1.95513632      -0.17398270      -1.18498365       0.62915910      -0.47175597      -0.82135358
C        0.32474671       3.71437234      -0.63325671       0.62085833      -0.54699766      -1.71208705
C        1.53958244       3.03135342      -0.64261965      -0.93766521      -0.47674295       2.32169369
C       -0.70448857       3.48857350       0.24112930       0.95774457      -0.99409683       1.29346364
C        1.75132615       2.29235561       0.56063911       2.63034917      -1.26036699      -1.55638694
C       -0.47584646       2.60056443       1.29163944      -0.06231246      -0.58549202       0.20101560
C        0.76441032       1.96793289       1.48331519       0.25365765       0.13323432       0.52813173
N       -1.92884352       0.41990826      -2.46215812       0.27130171       0.21734905      -0.51762392
N        0.25618882       0.01370130      -1.81119612       0.01537818       0.89691203      -0.64091493
N       -0.66732254      -0.32463839      -0.74409983      -0.64046652      -1.01048054       0.17575512
C       -0.51369455       0.63500898      -2.93747679      -1.25292768       1.11358170       1.81050430
C        1.16885460       1.01181299       2.66413220      -1.97692624       3.18408057       1.73189271
C       -0.17711406      -0.98396986       1.79921468       0.71274591       0.68498272       3.83537423
C        2.47359652      -2.60400324       3.23905750      -0.03974456      -0.01594718       2.05565738
C        3.13866431      -1.34462433       3.85735126       0.86603397      -0.22993546      -2.11972091
C        1.66391951      -1.33660059       3.47210403       0.89914415      -0.28449584       1.81993235
C        1.16225267      -0.42118858       2.37602123       0.38458540      -2.32357227      -4.24010489
H        1.53990597      -1.03408437       0.55372747       0.95339023       0.46118845       0.43920704
H        0.12584389       4.30234809      -1.48751716      -0.36111690       0.74549147      -0.74405566
H        2.18214995       2.99607415      -1.53038839       0.04270699       0.40825710       0.84418195
H       -1.66019409       3.90377540       0.07588228      -0.75687571       0.45392437       0.04262479
H        2.78537757       1.80274541       0.69479793      -1.84331844       0.69335324      -0.17230942
H       -2.68194153       0.21183035      -3.16150299       1.26131785       0.21133871       1.42849960
H        0.90486649       0.76799049      -1.55804804      -0.28633852      -0.78500746       0.73092194
H       -0.43825492       0.21832127      -3.92121664       0.59538329      -0.83410425      -0.27399315
H       -0.13220563       1.71219287      -3.02734724      -1.21278424      -1.00563056       0.11058297
H        2.15467185       1.36710740       2.97561987      -0.08949190      -0.43087956       0.03653769
H        0.45009719       1.18998481       3.59711071       1.49526022      -0.26269691      -2.04515951
H       -0.92039328      -0.63263564       2.56301935      -0.41406489      -0.32343166      -1.84900859
H       -0.06594365      -2.07510381       1.73521634      -0.62225171       0.50418284      -1.11241982
H        2.43037731      -3.42392283       4.02925082      -0.54343081       1.05453864      -1.61186891
H        2.65758569      -2.84695368       2.19777592       0.20741949      -0.03507191       0.44499439
H        3.86267597      -0.87153511       3.13168188      -0.98890212      -0.26595378       1.21395484
H        3.40872938      -1.38191967       4.93261095      -0.36145412       0.14485256      -1.08933347
