38
Properties=species:S:1:pos:R:3:forces:R:3 id=43210 bond=C-N smiles="[H:24][c:7]1[c:6]([c:8]([c:10]([c:11]([c:9]1[H:26])[C:16]([H:31])([H:32])[C:21]([C:20]2([C:18]([C:19]2([H:37])[H:38])([H:35])[H:36])[Cl:3])([C:17]([H:33])([H:34])[N:14]3[C:5](=[S:1])[N:12]([C:15]([N:13]3[H:28])([H:29])[H:30])[H:27])[O:4][H:22])[Cl:2])[H:25])[H:23]" dataset=PubChem energy=-57205.86489316508 pbc="F F F"
S       -3.32074638      -0.95323245      -0.34730917       1.08446138       0.94776461      -0.17678292
Cl      -1.83477472       2.21439573       2.15727936       0.00424174       0.14357190      -0.07205677
Cl       0.67076218      -1.23514417       4.78281758      -0.69546824      -0.11838435       0.00120980
O        2.08893527      -0.69232754       1.10727519      -1.01961451       0.35497156      -0.30926965
C       -1.92041322      -0.22068534      -1.00483221       0.43414887      -1.11234313      -0.47046021
C        0.29002361       3.76107498      -0.81340815       0.62895539      -0.54358198      -1.69337965
C        1.50485934       3.07805606      -0.82277109      -0.91879732      -0.44099071       2.32503456
C       -0.73921167       3.53527614       0.06097786       0.96517500      -0.99257421       1.28907327
C        1.71660305       2.33905825       0.38048767       2.64656327      -1.22411900      -1.53017246
C       -0.51056956       2.64726707       1.11148800      -0.09010748      -0.59012208       0.21645739
C        0.72968722       2.01463553       1.30316375       0.25797120       0.14942846       0.52713466
N       -1.89412042       0.37320562      -2.28200668       0.40515984       0.21111624      -0.25530062
N        0.29091192      -0.03300134      -1.63104468       1.20584700       0.45953703      -0.65548820
N       -0.63259944      -0.37134103      -0.56394839      -1.21229514       0.15345378       1.33404883
C       -0.47897145       0.58830634      -2.75732535      -1.27987348       0.86038531       1.83785915
C        1.13413150       1.05851563       2.48398076      -1.99697712       3.18905856       1.71887242
C       -0.21183716      -0.93726722       1.61906324       0.45424928       0.45984403       1.89800793
C        2.43887342      -2.55730060       3.05890606      -0.03359140      -0.02519365       2.04699698
C        3.10394121      -1.29792169       3.67719982       0.82575401      -0.21866983      -2.13878368
C        1.62919641      -1.28989795       3.29195259       0.87886593      -0.26338684       1.82848286
C        1.12752957      -0.37448594       2.19586979       0.65905988      -2.25075699      -4.29472985
H        1.50518287      -0.98738173       0.37357603       1.03751573       0.40688134       0.41454150
H        0.09112079       4.34905073      -1.66766860      -0.35844883       0.74237535      -0.74315084
H        2.14742685       3.04277679      -1.71053983       0.03324250       0.39808297       0.84587169
H       -1.69491719       3.95047804      -0.10426916      -0.75682903       0.45083704       0.04453997
H        2.75065447       1.84944805       0.51464649      -1.83722470       0.69397657      -0.17375258
H       -2.64721843       0.16512771      -2.98135155       1.24447085       0.20281290       1.51911754
H        0.93958959       0.72128785      -1.37789660      -0.56392695      -0.65832138       0.73256957
H       -0.40353182       0.17161863      -3.74106520       0.56346092      -0.84060027      -0.28184361
H       -0.09748253       1.66549023      -2.84719580      -1.16133597      -1.05650186       0.16664913
H        2.11994875       1.41381004       2.79546843      -0.09364881      -0.44539219       0.03657298
H        0.41537409       1.23668745       3.41695927       1.49313349      -0.26024590      -2.04333386
H       -0.95511638      -0.58593300       2.38286791      -0.48203133      -0.28151637      -2.01030054
H       -0.10066675      -2.02840117       1.55506490      -0.61935534       0.60421119      -0.89276102
H        2.39565421      -3.37722019       3.84909938      -0.54630809       1.05486212      -1.61428243
H        2.62286259      -2.80025104       2.01762448       0.20795899      -0.03789891       0.44554694
H        3.82795287      -0.82483247       2.95153044      -0.98839117      -0.26678988       1.21416661
H        3.37400628      -1.33521703       4.75245951      -0.36541814       0.14453881      -1.09324250
