44
Properties=species:S:1:pos:R:3:forces:R:3 id=29264 bond=C-S smiles="[H:22][c:2]1[c:4]([c:8]([c:12]([c:9]([c:5]1[H:25])[H:29])[C:15]([H:33])([c:13]2[c:10]([c:6]([c:3]([c:7]([c:11]2[H:31])[H:27])[H:23])[H:26])[H:30])[S:1][C:16]([H:34])([H:35])[C:17]([H:36])([H:37])[N:14]([H:32])[C:18]([H:38])([H:39])[C:21]3([C:19]([C:20]3([H:42])[H:43])([H:40])[H:41])[H:44])[H:28])[H:24]" dataset=PubChem energy=-32418.501694561353 pbc="F F F"
S        1.34064425      -1.34059718       1.60621394      -1.80014091       1.30744449      -1.48309778
C        0.69152805      -4.60522477      -2.29201332       0.04904253       0.10338990       0.35565553
C       -4.03867968      -0.07410602       0.99233719       0.29597092       0.01103371       0.17213551
C        1.70699766      -3.65639274      -2.17095938      -0.27956597       0.50570826       0.41926203
C       -0.54189714      -4.43625562      -1.62587920       0.62951902      -0.53032380      -0.85497941
C       -3.38979300       0.60101507      -0.04064265      -1.03607386       0.49225793      -0.42487445
C       -3.32587084      -1.01339142       1.71713885       0.36476962      -0.22412932      -0.32922637
C        1.43390385      -2.50321357      -1.41542176       0.00159796      -0.17759916      -0.35015647
C       -0.81241140      -3.27403394      -0.91464058       0.65877056      -0.01675673      -0.13138259
C       -2.08180293       0.33190018      -0.34197846       1.39356532      -0.28998157      -0.77052988
C       -1.98480638      -1.33769958       1.40704289      -1.28729085       0.22084666       1.25690599
C        0.18794170      -2.28806369      -0.80928031       0.18638306      -0.53088453       0.12329211
C       -1.36714193      -0.63271729       0.40731372       1.17303319      -0.46270690      -0.55387773
N        2.05122365       2.65525266       1.88569840      -0.27059365       0.35395507       0.36239000
C        0.06430233      -1.03277497       0.02295848       0.24143349       0.61950717       0.63383290
C        1.36809142       0.37905207       2.31448586      -0.12978166      -0.68310308      -0.68677059
C        2.37272407       1.25564000       1.58662351       0.13481915       1.07994056      -0.35149333
C        3.02983536       3.67372414       1.48175778      -0.64413006      -0.23654530       0.24384654
C        2.49841119       6.21329137       0.91841533       0.26748199      -0.78284903       1.17870460
C        3.58326853       6.21915170       1.98469217      -1.10118782      -0.26509742       0.02046193
C        2.57549311       5.05702468       1.95903762       0.98156911       1.13432863      -1.79255306
H        0.90128389      -5.48802678      -2.88839832      -0.26292631       0.00744351       0.20600875
H       -5.07933768       0.12194534       1.25316879       0.35986066       0.03249820      -0.19650183
H        2.70522610      -3.81501691      -2.61616126      -0.80490164       0.15365915       0.22207774
H       -1.26113924      -5.26372783      -1.71031967       0.18136490       0.68276285       0.12985453
H       -3.94439229       1.32018764      -0.65600959       0.26968533      -0.29480478       0.34108108
H       -3.85441455      -1.51221840       2.50148877       0.02490022      -0.36246673       0.40199690
H        2.18448034      -1.72294490      -1.28149763      -0.09588826      -0.35447216      -0.06941655
H       -1.77968344      -3.16918461      -0.45212677       0.02411504       0.19946532       0.12443899
H       -1.60999664       0.80435209      -1.24956576      -0.42443528      -0.46213493       1.26723788
H       -1.44279560      -2.08521740       2.01352533      -0.33210846       0.56833832      -0.57783475
H        1.14138503       2.89528462       1.47868421       0.52158590      -0.20332004       0.23252722
H        0.42522809      -0.18495081      -0.58515671       0.48133882      -0.43222262       0.55604957
H        1.69851578       0.28218250       3.34277268      -0.30124620      -0.04813722       0.15433918
H        0.34979959       0.81727758       2.27919312       0.61237043      -0.38494268       0.06650509
H        2.36224975       1.10223636       0.49694498       0.00027824      -0.36224310       0.15290616
H        3.39726032       1.05248085       1.93869300      -0.41612635       0.00931867      -0.13879457
H        3.99038328       3.43143150       1.92446990       0.10768222      -0.18069362       0.10799022
H        3.14350928       3.63753149       0.39467870       0.27309890       0.33504851      -0.12910696
H        1.68320097       6.89728518       1.07921501      -0.05017871       0.15505464      -0.20263615
H        2.77241624       6.01773807      -0.11228870      -0.04521850      -0.04915284       0.20416831
H        4.58361614       5.97995874       1.64545866      -0.04227442       0.10548508       0.19050899
H        3.48288549       6.97466489       2.78276034       0.25873391      -0.62049381      -0.53936849
H        1.78556849       5.06806632       2.67586728      -0.16898975      -0.11909179       0.46080601
