27
Properties=species:S:1:pos:R:3:forces:R:3 id=27862 bond=C-N smiles="[H:24][C:11]1([C:12]([N:6]([P:13](=[S:1])([N:5]1[H:14])[N:4]([C:9]([H:20])([H:21])[C:7]([H:16])([H:17])[Cl:2])[C:10]([H:22])([H:23])[C:8]([H:18])([H:19])[Cl:3])[H:15])([H:26])[H:27])[H:25]" dataset=PubChem energy=-56104.96574052951 pbc="F F F"
S       -1.93694048       1.44336402       1.45998204      -0.44970205       0.89752143      -0.10255492
Cl       3.93302197       1.66707777       1.05250276      -0.34642740       0.27390452      -0.17052573
Cl       0.37592025       2.73503368      -2.82119991       0.20107298       0.88352493      -0.21859655
N        0.90717314       1.04816952       0.36840988      -0.75766496      -2.63738500      -1.66301796
N        0.27203147      -0.06439048       2.86500174      -1.88723591      -0.32674577      -1.91674416
N       -0.90469735      -1.16553677       0.75949955       0.77617728       0.34629064       0.16729354
C        2.71501846       2.74812114       0.29339579      -0.27847606       1.20992911       0.12354751
C       -0.18501195       1.23261844      -2.08953621      -0.01209611       0.12870961       1.25816836
C        1.28512348       2.43241822       0.70456975      -0.24164015      -0.54600307      -0.81307632
C        0.92044300       0.60070927      -1.21781411      -0.29495652       0.11194601       1.85427370
C        0.40993178      -1.50836432       2.71691758       1.74649441      -1.48170088       0.93852795
C       -0.71915536      -2.10932339       1.85896403      -0.71583616       0.30261920       1.54076976
P       -0.37099331       0.33477224       1.33475811       0.07419488       2.34769342      -0.66599116
H        1.11399109       0.44685861       2.99372322       0.93042994       0.01315251       0.34760197
H       -1.88974576      -0.97164727       0.64677377      -0.04946604      -0.14158297      -0.43861619
H        2.80985946       2.71347939      -0.78185683       0.25797033      -0.27578927      -0.15017223
H        2.92787595       3.80540143       0.58491245       0.00907701      -0.98334242      -0.07501817
H       -1.08351245       1.46732561      -1.48096397       0.58953466      -0.28277458      -0.45056183
H       -0.43927064       0.61772885      -2.93693091      -0.09871002      -0.45740992       0.07127488
H        0.57527960       3.08259165       0.17915154       0.39890193       0.37546364       0.20807497
H        1.20557482       2.64187514       1.76804334      -0.31416746      -0.37869838       0.09936994
H        0.76213648      -0.49977119      -1.28232636       0.18715606       0.84608306       0.67808026
H        1.92693493       0.80542671      -1.62998845      -0.63752929       0.03350606       0.47493392
H        0.44378973      -1.98589194       3.71047169      -0.03993123       0.11408657      -0.46768066
H        1.38280399      -1.67141307       2.22743803      -0.25207426      -0.54749815       0.06174236
H       -1.65796333      -2.15365899       2.49507791       0.99854136       0.02619315      -0.73162778
H       -0.50028413      -3.12025369       1.51889193       0.20615239       0.14930385       0.04118260
