27
Properties=species:S:1:pos:R:3:forces:R:3 id=27862 bond=C-N smiles="[H:24][C:11]1([C:12]([N:6]([P:13](=[S:1])([N:5]1[H:14])[N:4]([C:9]([H:20])([H:21])[C:7]([H:16])([H:17])[Cl:2])[C:10]([H:22])([H:23])[C:8]([H:18])([H:19])[Cl:3])[H:15])([H:26])[H:27])[H:25]" dataset=PubChem energy=-56100.58123078596 pbc="F F F"
S       -1.94124423       1.58848627       1.97443306      -0.61998297       0.90932469      -0.02340732
Cl       3.92871822       1.81220002       1.56695378      -0.33961796       0.29710382      -0.16877996
Cl       0.38022400       2.58991143      -3.33565093       0.12964966       0.70011242      -0.15510649
N        0.90286939       1.19329177       0.88286090      -0.08950019      -2.06955878       0.24942465
N        0.26772772       0.08073177       3.37945276      -1.78851981      -0.40200203      -1.91323740
N       -0.90900110      -1.02041452       1.27395057       0.77131303       0.26346584       0.20832435
C        2.71071471       2.89324339       0.80784681      -0.31017745       1.17903446       0.16095215
C       -0.18070820       1.08749619      -2.60398723       0.36732375       0.71949997       2.17393383
C        1.28081973       2.57754047       1.21902077      -0.38745693      -0.96241292      -1.23223114
C        0.92474675       0.45558702      -1.73226513      -0.87733132      -0.72489933      -1.66481508
C        0.40562803      -1.36324207       3.23136860       1.76550781      -1.50304865       0.94022273
C       -0.72345911      -1.96420114       2.37341505      -0.76092526       0.35289271       1.49219953
P       -0.37529706       0.47989449       1.84920913       0.02835801       2.61806420      -1.48782235
H        1.10968734       0.59198086       3.50817424       0.93635459       0.02822870       0.36214308
H       -1.89404951      -0.82652502       1.16122479      -0.04249347      -0.14315107      -0.41167300
H        2.80555571       2.85860164      -0.26740581       0.21416033      -0.36008584      -0.19711130
H        2.92357220       3.95052368       1.09936347       0.04166504      -0.96208611      -0.05306381
H       -1.07920870       1.32220336      -1.99541499       0.50506852      -0.32885027      -0.49537172
H       -0.43496689       0.47260660      -3.45138193      -0.06908547      -0.69420095       0.07114328
H        0.57097585       3.22771390       0.69360256       0.31368332       0.40611490       0.25529085
H        1.20127107       2.78699739       2.28249436      -0.35035725      -0.27610904       0.24224177
H        0.76644023      -0.64489344      -1.79677738       0.04633559       0.74097813       1.44711921
H        1.93123868       0.66030446      -2.14443947      -0.38636239       0.47983738       1.23875702
H        0.43948598      -1.84076969       4.22492271      -0.04055786       0.11673368      -0.45159644
H        1.37850024      -1.52629082       2.74188905      -0.26452044      -0.53540192       0.06908017
H       -1.66226708      -2.00853674       3.00952893       0.99441727       0.01390432      -0.71184017
H       -0.50458788      -2.97513144       2.03334295       0.21236680       0.13850768       0.04997069
