27
Properties=species:S:1:pos:R:3:forces:R:3 id=27862 bond=C-N smiles="[H:24][C:11]1([C:12]([N:6]([P:13](=[S:1])([N:5]1[H:14])[N:4]([C:9]([H:20])([H:21])[C:7]([H:16])([H:17])[Cl:2])[C:10]([H:22])([H:23])[C:8]([H:18])([H:19])[Cl:3])[H:15])([H:26])[H:27])[H:25]" dataset=PubChem energy=-56103.66803058364 pbc="F F F"
S       -1.93514726       1.38289642       1.24562745      -0.41640943       0.86455391      -0.01729321
Cl       3.93481519       1.60661017       0.83814817      -0.37116563       0.24445731      -0.16372861
Cl       0.37412703       2.79550128      -2.60684532       0.17324902       0.98825014      -0.52151080
N        0.90896636       0.98770192       0.15405529      -1.12037500       2.77049521      16.39971494
N        0.27382469      -0.12485808       2.65064715      -1.90022591      -0.31163532      -1.93134771
N       -0.90290413      -1.22600437       0.54514496       0.81876537       0.41543556       0.21484581
C        2.71681168       2.68765354       0.07904120      -0.23326447       1.21610614       0.06531196
C       -0.18680517       1.29308604      -1.87518162      -0.39817556      -0.10354212      -0.33703115
C        1.28691670       2.37195062       0.49021516      -0.20672259      -0.19404606       0.20550508
C        0.91864978       0.66117687      -1.00345952       0.52856498      -4.80917324     -14.16666170
C        0.41172500      -1.56883192       2.50256299       1.73658142      -1.49706300       0.94811909
C       -0.71736214      -2.16979099       1.64460944      -0.68358200       0.28796369       1.56578181
P       -0.36920009       0.27430464       1.12040352      -0.42660308       2.21963552       0.69329323
H        1.11578431       0.38639101       2.77936863       0.93109716       0.01739722       0.34954773
H       -1.88795254      -1.03211487       0.43241918      -0.04430107      -0.12551526      -0.48072891
H        2.81165268       2.65301179      -0.99621142       0.30724702      -0.22264388      -0.11174080
H        2.92966917       3.74493383       0.37055786      -0.04125040      -1.00891261      -0.07429749
H       -1.08530567       1.52779321      -1.26660938       0.65505178      -0.25818383      -0.47825665
H       -0.44106386       0.67819645      -2.72257632      -0.20973891      -0.34599843      -0.02469151
H        0.57707282       3.02212405      -0.03520305       0.43408670       0.26982062       0.26769359
H        1.20736804       2.58140754       1.55368875      -0.28082826      -0.33545871       0.06254533
H        0.76034326      -0.43930359      -1.06797177       0.25741586       0.48141192      -0.55998877
H        1.92514171       0.86589431      -1.41563386      -0.42958460      -0.31438139      -0.78347612
H        0.44558295      -2.04635954       3.49611710      -0.03674606       0.11267753      -0.47484145
H        1.38459721      -1.73188067       2.01308344      -0.24888791      -0.55600121       0.06632778
H       -1.65617011      -2.21412659       2.28072332       0.99973845       0.03629860      -0.74326471
H       -0.49849091      -3.18072129       1.30453734       0.20459581       0.15658490       0.03379431
