14
Properties=species:S:1:pos:R:3:forces:R:3 id=101 bond=C-O smiles="[H:10][C:4]([H:11])([H:12])[N:2]([H:6])[C:5]([H:13])([H:14])[O:1][C:3]([H:7])([H:8])[H:9]" dataset="DES370K Monomers" energy=-6764.720241638073 pbc="F F F"
O       -0.43554720       0.77774765       0.30051290     156.49594644    -123.73987706     -11.65878403
N        0.23861806      -0.95634125      -1.16069827      -0.15899980       0.20474869       0.24627659
C       -1.05347477       1.24331198       0.33706466    -146.90271806     118.58503978      11.21514025
C        0.24131821      -0.20582108      -2.45320902       2.40963883      -1.22406597       0.88137240
C       -0.76103647      -0.52311127      -0.17725988       3.83703877      -5.43720083      -2.09529456
H        1.12152229      -0.66949986      -0.78555576       0.62366833      -0.60173489       0.59066775
H       -1.68273507       0.97836850       1.18711278      -5.17071403       0.99221073       2.68809938
H       -0.56973128       2.17162429       0.49645696      -1.66157150       6.68403599       1.64987741
H       -1.51564168       1.40477679      -0.60699000      -4.77516846       2.11142087      -3.27846558
H       -0.60557924      -0.38286875      -3.00804577      -2.15670219      -0.13217365      -0.98650916
H        0.41243755       0.80932655      -2.22056375      -0.11530463       1.44593859      -0.33577609
H        1.09319221      -0.54995302      -3.11776648      -0.81933978       0.19036491       1.10307891
H       -0.80970676      -1.18336234       0.68270292       0.08234760       0.03410458       0.15963393
H       -1.65353526      -0.52948873      -0.72716723      -1.68486879       0.88533927      -0.18032707
