14
Properties=species:S:1:pos:R:3:forces:R:3 id=101 bond=C-O smiles="[H:10][C:4]([H:11])([H:12])[N:2]([H:6])[C:5]([H:13])([H:14])[O:1][C:3]([H:7])([H:8])[H:9]" dataset="DES370K Monomers" energy=-6792.998852805681 pbc="F F F"
O       -0.32397695       0.69368742       0.29391328      28.58313201     -24.64117504      -3.11671110
N        0.35018831      -1.04040148      -1.16729789      -0.00641215      -0.05701906      -0.03757266
C       -1.16504502       1.32737221       0.34366428     -24.25910321      21.87108255       2.99038251
C        0.35288846      -0.28988131      -2.45980864       2.42023596      -1.26767001       1.02462934
C       -0.64946622      -0.60717150      -0.18385950       3.07333984      -1.34970023      -1.07878971
H        1.23309254      -0.75356009      -0.79215538       0.56857006      -0.50382727       0.59796838
H       -1.79430532       1.06242873       1.19371240      -2.17068868       0.73326390       0.44713202
H       -0.68130153       2.25568452       0.50305658      -1.09119667       3.10334538       1.03747092
H       -1.62721193       1.48883702      -0.60039038      -2.36452163       0.43324326      -1.31366776
H       -0.49400899      -0.46692898      -3.01464539      -2.17110177      -0.16460230      -1.01025167
H        0.52400780       0.72526632      -2.22716337      -0.12035046       1.45515064      -0.28749322
H        1.20476246      -0.63401325      -3.12436610      -0.82568924       0.20372784       1.07771107
H       -0.69813651      -1.26742257       0.67610330       0.06623103      -0.24594502      -0.03956527
H       -1.54196501      -0.61354896      -0.73376685      -1.70075230       0.42710075      -0.29256352
