28
Properties=species:S:1:pos:R:3:forces:R:3 id=40760 bond=C-O smiles="[H:23][C:10]1([C:12]2([C:14]([C:13]([O:5][C:7]([O:4]2)([H:17])[H:18])([H:27])[C:11]([H:25])([C:9]([H:21])([H:22])[O:1][H:15])[O:3][H:16])([O:6][C:8]([O:2]1)([H:19])[H:20])[H:28])[H:26])[H:24]" dataset=PubChem energy=-20817.537202800533 pbc="F F F"
O       -1.18220508      -1.11450219       3.79887159       1.57069186       0.32038611       0.58298465
O       -0.27676232       1.74773542      -2.36354092      -0.81523666      -1.95811754      -0.11323911
O       -0.92405028      -1.28646775       0.99392537      -1.21413162      -0.91395047      -0.79785991
O        1.57287805       2.54580693       0.80609486       1.36340605       1.11804494       0.06928797
O        2.20145909       0.53858146       1.62999329       1.01583105      -1.84018191       0.92843007
O        0.19396548      -0.30810209      -1.24277690       0.91850875       2.33856869      -1.94436522
C        1.93601136       1.84542076       2.02355108       0.51316947      -1.38588095      -2.22461481
C        0.20635383       0.41781526      -2.54054978      -0.64098735       0.66377004       0.82095216
C        0.12840749      -1.08540996       3.14932868      -1.41088512      -1.23306533       0.25155985
C        0.54304715       2.50780908      -1.55604794       2.48819498       1.10108868       0.12151661
C       -0.05151756      -0.51529380       1.76020119      -0.00462960       2.17882798      -1.30002495
C        0.75393463       1.85178499      -0.13229194      -2.71320214       0.78044602       0.30968100
C        1.24990909      -0.29239424       0.92576975       0.31290729       0.11699927       1.19501090
C        1.13448040       0.42996426      -0.38543108      -2.11182520      -1.47643668       0.69680775
H       -1.86829293      -1.14496434       3.14826328      -0.27846624      -0.20292024      -0.76668168
H       -1.17923863      -0.86250504       0.13555473       0.81005522      -0.37055680       1.30234970
H        1.20136552       1.91995053       2.76091382      -2.01483840       0.07751002       0.80605760
H        2.85396568       2.11145012       2.60293695      -0.31223556       0.76495650      -1.55582126
H       -0.51658638      -0.02900882      -3.24982050       0.72743949      -0.16946428       0.68130238
H        1.23857437       0.55186466      -2.95588949      -0.58613749      -0.80232425       0.45239671
H        0.53624468      -2.12969513       3.21640441      -0.20416889       0.94595841      -0.56414417
H        0.77287136      -0.44022270       3.72537872       0.09219719       0.20224123       0.15612156
H        1.53459172       2.64277081      -2.15509680      -1.15288698      -0.04386953       1.45595727
H        0.02816300       3.45419792      -1.50758460       0.27129580       0.43528049       0.34897496
H       -0.59061618       0.48943442       1.89816234       1.08731218      -1.01167257       0.15635240
H       -0.26905741       1.86806290       0.36500648       0.77255030      -0.26503510      -0.96396816
H        1.73904173      -1.26341911       0.68200377      -0.28184077       0.59540452       0.79092247
H        2.07328443       0.37125332      -0.82701662       1.79551713       0.03280788      -0.90231495
