28
Properties=species:S:1:pos:R:3:forces:R:3 id=40760 bond=C-O smiles="[H:23][C:10]1([C:12]2([C:14]([C:13]([O:5][C:7]([O:4]2)([H:17])[H:18])([H:27])[C:11]([H:25])([C:9]([H:21])([H:22])[O:1][H:15])[O:3][H:16])([O:6][C:8]([O:2]1)([H:19])[H:20])[H:28])[H:26])[H:24]" dataset=PubChem energy=-20802.683886637005 pbc="F F F"
O       -0.93164679      -1.10894044       3.67469427     -85.27458792      -1.25439585      40.91334144
O       -0.52732061       1.74217367      -2.23936360      -0.82801185      -1.96644626      -0.12462234
O       -1.17460857      -1.29202950       1.11810269      -1.33458972      -1.06817782      -0.15227023
O        1.32231976       2.54024518       0.93027218       1.30848871       1.16005912      -0.01235169
O        1.95090080       0.53301971       1.75417061       0.98198332      -1.72141566       0.85504231
O       -0.05659281      -0.31366384      -1.11859958       0.84386681       2.30226837      -1.92887705
C        1.68545307       1.83985901       2.14772840       0.54715100      -1.56128359      -2.19386726
C       -0.04420446       0.41225351      -2.41637246      -0.64974978       0.65380617       0.83042760
C       -0.12215080      -1.09097171       3.27350600      78.45284671       1.11885498     -36.92514674
C        0.29248886       2.50224733      -1.43187062       2.49290794       1.11406868       0.14500440
C       -0.30207585      -0.52085555       1.88437851       3.55468519       3.39607777      -4.74177395
C        0.50337634       1.84622324      -0.00811462      -2.64420136       0.77481255       0.30411376
C        0.99935080      -0.29795599       1.04994707       0.07900716       0.25646185       0.92022007
C        0.88392211       0.42440251      -0.26125376      -1.91184789      -1.45230997       0.72123172
H       -1.61773464      -1.13940259       3.02408596      -3.30447214      -0.90454648       0.48009356
H       -1.42979692      -0.86806679       0.25973205       0.67998744      -0.32268925       1.30930905
H        0.95080723       1.91438878       2.88509114      -2.00678659       0.06759450       0.81318838
H        2.60340739       2.10588837       2.72711427      -0.31530956       0.76240926      -1.54914856
H       -0.76714467      -0.03457057      -3.12564318       0.72540232      -0.16699758       0.67525823
H        0.98801608       0.54630291      -2.83171217      -0.58982181      -0.80670267       0.45986512
H        0.28568639      -2.13525688       3.34058173       3.31999089      -1.31003322      -1.73073320
H        0.52231307      -0.44578445       3.84955604       3.55934649       1.11110625      -0.11401425
H        1.28403343       2.63720906      -2.03091948      -1.15542552      -0.04407586       1.45767363
H       -0.22239529       3.44863617      -1.38340728       0.26866886       0.43929185       0.34214747
H       -0.84117447       0.48387267       2.02233966       0.97430804      -0.97526735       0.32061197
H       -0.51961570       1.86250115       0.48918380       0.75066906      -0.26291343      -0.95384102
H        1.48848344      -1.26898086       0.80618109      -0.31205249       0.60401635       0.82230817
H        1.82272614       0.36569157      -0.70283930       1.78436545       0.05502958      -0.94477255
