50
Properties=species:S:1:pos:R:3:forces:R:3 id=30912 bond=C-O smiles="[H:20][C:2]1=[C:3]([C:16]([C:18]2([C:17]([C:12]1([H:40])[H:41])([C:19]2([C:8]([H:30])([H:31])[H:32])[C:9]([H:33])([H:34])[H:35])[H:49])[H:50])([H:48])[C:11]([H:38])([H:39])[O:1][C:10]([H:36])([H:37])[C:15]([H:46])([H:47])[N:4]([C:13]([H:42])([H:43])[C:6]([H:24])([H:25])[H:26])[C:14]([H:44])([H:45])[C:7]([H:27])([H:28])[H:29])[C:5]([H:21])([H:22])[H:23]" dataset=PubChem energy=-21682.049464331467 pbc="F F F"
O        1.19425335      -0.14659693       2.12025657      -3.95979945      -2.64237497       2.18399140
C        0.37388408      -1.14708975      -1.49625691      -1.79363890      -4.03242761       3.92398459
C        0.10299322      -1.96334102      -0.34959158       1.50535295       3.06138292      -6.12887633
N        2.69974674       2.18792231       1.18463828      -2.09031601      -2.83725241       2.72647867
C        0.46409582      -3.41281345      -0.30356357      -0.26136319      -0.93227590      -1.12246304
C        4.23981608       4.02888853       0.93140383       0.17078130       0.96745478      -2.63825452
C        1.23642041       3.04641325       3.03468574      -0.29832082      -1.92833895       1.10708816
C       -3.58837828       1.15913579      -0.11915621      -0.15288425      -0.67438816      -0.24055210
C       -2.77201852      -1.13093188      -1.21885702      -2.95508707       2.59466236       2.20168699
C        2.32282807      -0.30257617       1.46876062       4.61049455       0.38838028      -1.06320834
C        0.40000757      -1.33040765       1.99218884      -3.31611403       1.23041787       2.52873133
C       -0.07979736       0.24102372      -1.70602688      -1.08566110      -0.02664470       1.02647781
C        3.54424132       2.82703740       0.25606359       1.48802493       0.09890563       1.15335890
C        1.38151343       2.71403272       1.60867275       2.00144790       1.71950001      -2.56713423
C        3.08456839       0.94815586       1.91546274       2.93938894       0.90267936      -2.91545032
C       -0.54927358      -1.32491770       0.74361816      -0.49929355       0.85526323       3.20664993
C       -1.09876475       0.82102904      -0.67428299       2.09056869       0.32012268      -1.41461056
C       -1.19455585       0.06975505       0.58629960      -0.86543270      -0.88837030      -0.65391838
C       -2.40755615       0.19196341      -0.41812864      -0.05489908      -0.97883983       0.81212351
H        0.66030385      -1.75363520      -2.31813940       0.73184128       0.06167785      -0.93472596
H       -0.40309534      -4.10018256      -0.17846188       0.28490956       0.73376124       0.81386726
H        1.22676566      -3.55367854       0.47416321      -0.27124965      -0.52430634      -0.37447306
H        0.78674346      -3.82818749      -1.29910228       0.42415684       0.94182372       0.93424992
H        3.61042656       4.75883109       1.34173132      -1.36923073       0.54944918       1.17820764
H        4.70250167       4.67278297       0.15723635       0.53252659      -0.60027959       0.19784551
H        4.97089519       3.68303020       1.63901700       0.17521045      -0.06172918       0.26484613
H        0.96884478       2.12137563       3.60321106      -0.08575985       1.04319833      -0.13928646
H        0.51683384       3.81726677       3.04027832      -1.29074643       0.54229512       0.75933269
H        2.11178495       3.45811088       3.46493901       1.05842416       0.31500802       0.27175436
H       -3.83966336       1.60586688      -1.07265147      -0.11806113       0.35729590      -0.21052911
H       -3.45114264       1.96549866       0.60681313       0.75688989      -0.19683946      -0.17938306
H       -4.52665696       0.70225790       0.22423312       0.44897338      -0.50246957      -0.10240223
H       -2.09327683      -1.42826846      -1.92234644       1.82379089      -0.56636806      -1.51892232
H       -3.72101387      -0.87063399      -1.74891481       0.60946840      -0.47596990       0.35232701
H       -2.98123631      -1.94501021      -0.51862356       0.00680013       0.10289119      -0.20284977
H        2.98004545      -1.29633562       1.71825363      -1.67158700       1.96233765      -0.48711415
H        2.07720091      -0.21170156       0.40599702       0.94215067      -0.48381506      -0.22043287
H       -0.29020777      -1.28035191       2.95082441       1.25277540      -0.24625020      -1.86001403
H        0.94074592      -2.27198127       2.05959574       0.47685219       0.32215839      -0.00177252
H       -0.41468701       0.32837123      -2.70346316      -0.81670164       0.04948246      -1.20595593
H        0.80068561       0.80398426      -1.73196086       1.34622683       1.46342492       0.37354754
H        4.46941938       2.24359889       0.11286785      -0.91805289      -0.65765752      -0.51973811
H        3.01102675       2.90439374      -0.68733059       0.35036499       0.88553485      -0.27085705
H        0.54404484       2.15717275       1.24048079      -0.29432483      -0.71392823      -0.10844217
H        1.28725321       3.68569595       1.09537466       0.12071690      -0.24288195      -0.20454359
H        3.15666999       1.05298020       2.97431053      -0.88741570       0.10704297       0.94746043
H        4.16962136       0.84081988       1.69206752      -0.52000654      -0.22680947      -0.22138378
H       -1.34253297      -2.00927880       1.02957860      -0.34205752      -0.17629236       0.33290791
H       -1.04611310       1.91078815      -0.51947733       0.00110678      -0.59975001      -0.41605933
H       -1.17677984       0.73559342       1.42547754      -0.23053387      -0.35996661       0.62792594
