50
Properties=species:S:1:pos:R:3:forces:R:3 id=30912 bond=C-O smiles="[H:20][C:2]1=[C:3]([C:16]([C:18]2([C:17]([C:12]1([H:40])[H:41])([C:19]2([C:8]([H:30])([H:31])[H:32])[C:9]([H:33])([H:34])[H:35])[H:49])[H:50])([H:48])[C:11]([H:38])([H:39])[O:1][C:10]([H:36])([H:37])[C:15]([H:46])([H:47])[N:4]([C:13]([H:42])([H:43])[C:6]([H:24])([H:25])[H:26])[C:14]([H:44])([H:45])[C:7]([H:27])([H:28])[H:29])[C:5]([H:21])([H:22])[H:23]" dataset=PubChem energy=-21678.603372794565 pbc="F F F"
O        0.68546966      -0.07627843       2.41396376       2.00359995      -2.14645039      -1.69485612
C       -0.13489961      -1.07677125      -1.20254972      -1.60247716      -3.98200943       3.97587862
C       -0.40579047      -1.89302252      -0.05588439       1.49963103       3.13708700      -5.88079750
N        3.20853043       2.11760381       0.89093109      -1.85708290      -3.10336139       2.64732668
C       -0.04468787      -3.34249495      -0.00985638      -0.25521688      -0.94327303      -1.14641134
C        4.74859977       3.95857003       0.63769664       0.16875034       0.96300217      -2.64035191
C        1.74520410       2.97609475       2.74097855      -0.24263155      -2.00866998       1.18207706
C       -4.09716197       1.22945429       0.17455098      -0.14764588      -0.68048461      -0.26200720
C       -3.28080221      -1.06061338      -0.92514983      -2.96480346       2.60685711       2.20045050
C        2.83161176      -0.37289467       1.17505343       2.05012143      -0.39295589       0.94414208
C       -0.10877612      -1.26008915       2.28589603      -1.32932672       2.06625366       1.83766734
C       -0.58858105       0.31134222      -1.41231969      -1.09876965       0.00344189       1.02012493
C        4.05302501       2.75671890      -0.03764360       1.56166961       0.12365723       1.09878398
C        1.89029712       2.64371422       1.31496556       1.77868129       1.72728475      -2.43576810
C        3.59335208       0.87783736       1.62175555       0.10162713       0.98172132      -1.94311403
C       -1.05805727      -1.25459920       1.03732535      -0.61302871       0.79430861       3.17318506
C       -1.60754844       0.89134754      -0.38057580       2.13064102       0.31936359      -1.36189051
C       -1.70333954       0.14007355       0.88000679      -0.84271476      -0.90718542      -0.68892891
C       -2.91633984       0.26228191      -0.12442145      -0.07685729      -1.00222349       0.85256618
H        0.15152016      -1.68331670      -2.02443221       0.70921827       0.04068464      -0.96352578
H       -0.91187903      -4.02986406       0.11524531       0.29416517       0.73446434       0.81849514
H        0.71798197      -3.48336004       0.76787040      -0.29019615      -0.51550620      -0.35684299
H        0.27795977      -3.75786899      -1.00539509       0.42424100       0.93180749       0.91160027
H        4.11921025       4.68851259       1.04802413      -1.36551055       0.53291293       1.17292497
H        5.21128536       4.60246447      -0.13647084       0.52171168      -0.61581854       0.20505762
H        5.47967888       3.61271170       1.34530981       0.18178924      -0.05281408       0.26677695
H        1.47762847       2.05105713       3.30950387      -0.13677575       1.06455190      -0.20326016
H        1.02561753       3.74694827       2.74657113      -1.27394514       0.53487199       0.74456646
H        2.62056864       3.38779238       3.17123182       1.08382016       0.37728299       0.25879274
H       -4.34844705       1.67618538      -0.77894428      -0.12887198       0.36675321      -0.21692926
H       -3.95992633       2.03581716       0.90052032       0.75696241      -0.19794029      -0.17669742
H       -5.03544065       0.77257640       0.51794031       0.44224111      -0.50255645      -0.09998120
H       -2.60206052      -1.35794996      -1.62863925       1.82643778      -0.56957684      -1.52164210
H       -4.22979756      -0.80031549      -1.45520762       0.60126795      -0.47638068       0.33981254
H       -3.49002000      -1.87469171      -0.22491637       0.01312229       0.10530549      -0.20177707
H        3.48882914      -1.36665412       1.42454644      -2.52656806       2.09654315      -0.13677550
H        2.58598460      -0.28202006       0.11228983      -0.85672141      -0.34085789       0.58044468
H       -0.79899146      -1.21003341       3.24453160       1.14169942      -0.18895286      -1.60088832
H        0.43196223      -2.20166277       2.35330293       0.22506208       0.12878060       0.07050090
H       -0.92347070       0.39868973      -2.40975597      -0.82689304       0.05083841      -1.22202680
H        0.29190192       0.87430276      -1.43825367       1.32496681       1.46785089       0.36408225
H        4.97820307       2.17328039      -0.18083934      -0.86427789      -0.66063848      -0.52894821
H        3.51981044       2.83407524      -0.98103778       0.34917158       0.87672392      -0.23900400
H        1.05282853       2.08685425       0.94677360      -0.31630056      -0.84249159      -0.06670181
H        1.79603690       3.61537745       0.80166747       0.16912097      -0.27005421      -0.22501936
H        3.66545368       0.98266170       2.68060334      -0.67711695       0.16647687       0.98060652
H        4.67840505       0.77050138       1.39836033      -0.49860607      -0.65321828      -0.32043532
H       -1.85131666      -1.93896030       1.32328579      -0.38650050      -0.20234488       0.29081357
H       -1.55489679       1.98110665      -0.22577014       0.00275434      -0.58820463      -0.41504317
H       -1.68556353       0.80591192       1.71918473      -0.18267011      -0.35429485       0.60837368
