43
Properties=species:S:1:pos:R:3:forces:R:3 id=5951 bond=C-S smiles="[H:25][c:6]1[c:8]([c:14]([c:16]([c:10]([c:12]1[O:3][C:23]([H:42])([H:43])[C:22]([H:40])([H:41])[F:2])[H:29])[C:21]([H:38])([H:39])[N:18]([C:19]([H:32])([H:33])[H:34])[C:20]([H:35])([H:36])[H:37])[S:4][c:13]2[c:7]([c:5]([c:11]([c:9]([c:15]2[N:17]([H:30])[H:31])[H:28])[F:1])[H:24])[H:26])[H:27]" dataset=PubChem energy=-39258.28647517847 pbc="F F F"
F        2.75916632       4.88618238      -1.18888245      -0.17500500      -1.46933759      -0.29981160
F        0.32242923      -0.00002465       6.18036832      -0.03747163      -0.25686973      -0.18719688
O        0.08502671      -1.49366549       3.71720661      -0.01983669       0.03599312      -0.20699179
S        2.29856046      -1.04302756      -1.14604304      34.55806003       9.71429085     -58.41145876
C        2.96303519       2.79649312      -0.05230741       0.10966294      -0.58388168       0.43986816
C        1.86389073      -1.78909591       2.19625797       0.22270682      -0.98256084       0.80577820
C        2.82465299       1.39200200      -0.01834259       0.25816102       1.40429660      -0.08853226
C        2.43538602      -1.74156716       0.94489827      -2.59519903       0.08354486       2.44205916
C        2.24122985       2.82239397      -2.34913191       0.13578856      -0.37625785       0.47020931
C       -0.21465132      -0.99696723       1.32861103      -0.30899894       0.32993184       0.07261626
C        2.63739260       3.50702388      -1.20944462       0.27995073      -0.07020535       0.53043773
C        0.52611390      -1.43464497       2.42606153       0.86636668       0.25251767      -0.65471063
C        2.39790066       0.71701137      -1.13737235       0.79040301       0.93306208      -0.71371380
C        1.69738182      -1.20508602      -0.14457712     -32.93990133     -10.47496283      55.77023002
C        2.14557882       1.41462947      -2.30238900       0.61318896       1.00238853      -0.85633477
C        0.32951989      -0.84458116       0.05185554      -0.52413431      -0.44825726       2.58835888
N        1.88572606       0.66430214      -3.43164859      -0.04916778      -0.41423130      -0.46364132
N       -1.22167483       0.98791334      -0.55308984      -1.00076756       0.09079723       0.68607472
C       -2.43348221       1.45018288      -1.29394660       0.81329660      -0.52600981       1.10757214
C       -0.37106875       2.08236524      -0.07154892       0.34352111      -1.16797263      -0.34847300
C       -0.52767710      -0.23929957      -1.02592860       0.13343929       1.59231465      -0.09865709
C       -0.87998776      -0.45637456       5.68750896      -0.68991159       0.07341264      -1.67635498
C       -0.90981701      -0.55775216       4.12131633       0.80907488       0.58550624       1.12834492
H        3.38399418       3.25455888       0.83946597      -0.30562623       0.30524147      -0.36826528
H        2.45068594      -2.16315559       3.03193154      -0.15998812       0.16351832      -0.02821275
H        3.09051617       0.87460823       0.89687952      -0.10520620      -0.05930871      -0.13034920
H        3.44060250      -2.03658893       0.77889945       0.63959238      -0.10394056      -0.16235286
H        2.06337817       3.30766733      -3.28160891      -0.13401907       0.46032272      -0.33131194
H       -1.23514799      -0.68930045       1.47962274      -0.19220868       0.11149207      -0.04751577
H        2.04906018       1.07585157      -4.34187922       0.00817746      -0.15622345       0.42912399
H        2.16961046      -0.31423913      -3.30964503      -0.38424265       0.79143835      -0.55570780
H       -3.02901057       2.19453999      -0.72207669       0.58192832      -0.61546305       0.08734135
H       -3.08116559       0.59072808      -1.49402640       0.18664220       0.20432407      -0.11874254
H       -2.16334418       1.96114453      -2.19618759       0.10150666       0.13897617      -0.94890091
H        0.43070220       1.69119236       0.56749882      -0.56200169       0.05847055      -0.01551511
H       -0.94130210       2.80764720       0.47598808      -0.44754433       0.18953856       0.32491039
H        0.15008446       2.60099646      -0.86230812       0.04068920       0.26941000      -0.45682017
H       -1.25709490      -0.99132195      -1.25341306      -0.65943710      -0.21780470      -0.33482613
H        0.05513891      -0.02743867      -1.93467031      -0.17035838      -0.32023957       0.22210214
H       -1.13896207      -1.43526891       6.05332221       0.44308431      -0.45888006       0.48354602
H       -1.66288833       0.21947470       6.02971782       0.00736308       0.15495072      -0.18057228
H       -0.71287051       0.41897861       3.66677655       0.04593801      -0.12029014       0.07138393
H       -1.88421420      -0.88984993       3.80648269      -0.53584237      -0.12374769       0.02166785
