46
Properties=species:S:1:pos:R:3:forces:R:3 id=47937 bond=C-O smiles="[H:22]/[C:5](=[C:4](/[C:6]([H:23])([H:24])[H:25])[C:7]([H:26])([H:27])[O:1][H:19])/[C:8]([H:28])([H:29])[C:13]([H:41])([H:42])[C@@:17]([C@:18]1([C@:15]([C@:16]([C:11]([C:14]1([H:43])[H:44])([H:36])[H:37])([C:10]([H:33])([H:34])[H:35])[O:2][H:20])([H:45])[C:9]([H:30])([H:31])[H:32])[H:46])([C:12]([H:38])([H:39])[H:40])[O:3][H:21]" dataset=PubChem energy=-22167.529721941188 pbc="F F F"
O        2.13405837      -5.54309087       2.45040598      -0.05899990      -0.61200390      -0.25881969
O        0.71600902       5.02266989      -0.52898548       0.73175308       0.08380117      -0.05369391
O       -0.94975362       1.25011993       1.96873190      -0.74040151      -0.87557433       0.50764387
C        1.22001477      -3.31518488       2.19324913      -0.53357937       1.45435178      -2.29508992
C        0.89328881      -2.61211568       1.04261389       0.44486647      -1.17530332       1.75333053
C        0.43252731      -3.26969844       3.49894037      -0.25225052      -0.21145797      -1.02790883
C        2.44715013      -4.19605738       2.23491421       0.51787115       1.57648839       0.97077271
C       -0.27344445      -1.67378097       0.84510487      -0.23625055       0.34443965       1.00566413
C        1.47604664       3.17693562       1.45663216      -0.74056915      -0.13120502      -0.35269264
C        2.74832167       3.92188638      -1.53696093      -0.54724489       0.25972850       1.09888382
C        0.34928973       3.33918184      -2.18938336      -0.63485414       0.09322657      -0.18129298
C       -2.20721421       0.52489559       0.07834908      -1.02314503       0.50831230       0.90277635
C        0.20678892      -0.27587783       0.37451845      -0.47721384       0.62153228      -0.14143412
C       -0.55776809       2.23918837      -1.61043677      -0.73050385       0.87305520      -0.22105228
C        1.09381022       2.69220918       0.02668377      -0.26797246       0.67803143       1.60654069
C        1.28596522       3.78159756      -1.05372069      -0.86290232      -0.20405696       0.35259656
C       -0.82638142       0.92876300       0.59332971       0.72659512      -0.18823287      -0.82460306
C       -0.40650187       2.26576239      -0.08626882       1.15921929      -0.48247415      -1.29339394
H        1.29421373      -5.54673677       2.90626946      -0.12134694      -0.31873098       0.05531566
H       -0.17106393       4.87520514      -0.15308486       0.82749381      -0.21434015      -0.46798300
H       -0.11577866       1.57113022       2.30078926       0.16613696       0.03067085      -0.06476474
H        1.54307427      -2.69152074       0.16852599       0.02180254      -0.24763734       0.30943847
H        0.58412789      -2.33439046       4.02334323       0.14812091       0.08005663       0.18433859
H        0.72609023      -4.10770183       4.13082328      -0.05413644       0.21200720       0.19059215
H       -0.63470564      -3.35691028       3.28764453       0.06804563      -0.00783340       0.18236378
H        3.05650820      -4.06429964       1.34060880      -0.15195862      -0.29672827      -0.00885003
H        3.05877103      -3.83154302       3.10901632      -0.25857379      -0.23302719      -0.70804004
H       -0.78089176      -1.58164483       1.83018329       0.07177682       0.10329971      -0.74544358
H       -1.00005243      -2.07004505       0.11474207       0.33980381       0.03069349       0.34960702
H        2.47462870       3.59184355       1.46884265       0.15788591       0.16849496       0.04457049
H        0.75710033       3.93489617       1.82137516       0.50362879      -0.41726236      -0.13643638
H        1.47268285       2.32359225       2.15170111       0.15707849       0.31925589      -0.15155845
H        2.76435961       4.62987226      -2.34730730       0.18431770       0.24561796      -0.32936560
H        3.07694234       2.93921679      -1.89880714      -0.11580983       0.32948075       0.08498126
H        3.44750203       4.26698512      -0.74663040      -0.54320597      -0.21938542      -0.41512700
H        0.84318088       2.90505594      -3.04293522       0.50473758       0.18855557      -0.30736694
H       -0.23529647       4.21800440      -2.54354677       0.51704145      -0.62675538       0.25257370
H       -2.89301763       1.35825318       0.31767846       0.21857657      -0.31836433      -0.05074012
H       -2.29172693       0.39847544      -1.00182066       0.42882201      -0.25492113       0.21525778
H       -2.61885820      -0.35503143       0.60889090       0.42018786       0.39835281      -0.36863420
H        0.50024704      -0.36747783      -0.69047866      -0.20982396       0.27693992       0.50542380
H        1.10986854      -0.02094328       0.92485207       0.10099902       0.01296206       0.03820863
H       -0.25304208       1.28710908      -1.99365697       0.20832030      -0.60632920      -0.13681533
H       -1.57735310       2.40557581      -1.96489916      -0.00397992      -0.19624596       0.25941007
H        1.77051224       1.87877351      -0.16102806       0.02461181      -0.58467533      -0.53791265
H       -1.00971470       3.09222120       0.31182631      -0.08510699      -0.46999736       0.20936875
