46
Properties=species:S:1:pos:R:3:forces:R:3 id=47937 bond=C-O smiles="[H:22]/[C:5](=[C:4](/[C:6]([H:23])([H:24])[H:25])[C:7]([H:26])([H:27])[O:1][H:19])/[C:8]([H:28])([H:29])[C:13]([H:41])([H:42])[C@@:17]([C@:18]1([C@:15]([C@:16]([C:11]([C:14]1([H:43])[H:44])([H:36])[H:37])([C:10]([H:33])([H:34])[H:35])[O:2][H:20])([H:45])[C:9]([H:30])([H:31])[H:32])[H:46])([C:12]([H:38])([H:39])[H:40])[O:3][H:21]" dataset=PubChem energy=-22167.139622965886 pbc="F F F"
O        2.10053153      -5.47008662       2.48127275      -0.05912381      -0.61355568      -0.25801034
O        0.74953586       4.94966564      -0.55985225      -1.95931717       6.10006678       2.67190372
O       -0.98328046       1.32312418       1.99959867      -0.74288886      -0.87142995       0.51582301
C        1.18648793      -3.24218063       2.22411590      -0.53345857       1.45408640      -2.29586595
C        0.85976197      -2.53911143       1.07348066       0.44481883      -1.17451954       1.75266964
C        0.39900047      -3.19669419       3.52980714      -0.25215096      -0.21123629      -1.02764932
C        2.41362329      -4.12305313       2.26578098       0.51758809       1.57779958       0.97026493
C       -0.30697129      -1.60077672       0.87597164      -0.24196535       0.34688078       1.00545043
C        1.44251980       3.24993987       1.48749893      -0.73315037      -0.11069721      -0.40989817
C        2.71479483       3.99489063      -1.50609416      -0.35258924      -0.15439607       0.92222885
C        0.31576289       3.41218609      -2.15851659      -0.51075034      -0.55914421      -0.68233904
C       -2.24074105       0.59789984       0.10921585      -1.02461551       0.50656258       0.90293891
C        0.17326208      -0.20287358       0.40538522      -0.47075997       0.62295025      -0.14310913
C       -0.59129493       2.31219262      -1.57957000      -0.73518803       0.87728454      -0.25815992
C        1.06028338       2.76521343       0.05755054       0.02590781      -0.07041406       1.54438723
C        1.25243838       3.85460181      -1.02285392       1.38846120      -4.84467493      -1.72880567
C       -0.85990826       1.00176725       0.62419648       0.70949143      -0.18095899      -0.81237250
C       -0.44002871       2.33876664      -0.05540205       1.21500404      -0.49532091      -1.31091596
H        1.26068689      -5.47373252       2.93713623      -0.12128028      -0.31829249       0.05499027
H       -0.13753709       4.80220089      -0.18395163       0.78431131       0.19477978      -0.38391954
H       -0.14930550       1.64413447       2.33165603       0.16692655       0.02610318      -0.06739978
H        1.50954743      -2.61851649       0.19939276       0.02161556      -0.24706732       0.30982337
H        0.55060105      -2.26138621       4.05421000       0.14806186       0.08012760       0.18447161
H        0.69256339      -4.03469758       4.16169005      -0.05407848       0.21179873       0.19074722
H       -0.66823248      -3.28390603       3.31851130       0.06799960      -0.00781092       0.18232214
H        3.02298136      -3.99129539       1.37147557      -0.15211874      -0.29659026      -0.00864175
H        3.02524419      -3.75853877       3.13988309      -0.25837626      -0.23319400      -0.70789274
H       -0.81441860      -1.50864058       1.86105006       0.07128074       0.10198206      -0.74463380
H       -1.03357927      -1.99704080       0.14560884       0.33953759       0.02933442       0.34978929
H        2.44110186       3.66484780       1.49970942       0.16476458       0.16918101       0.04518027
H        0.72357349       4.00790042       1.85224193       0.48663873      -0.39957052      -0.09877405
H        1.43915601       2.39659650       2.18256788       0.14180544       0.33797413      -0.15454742
H        2.73083277       4.70287651      -2.31644053       0.16096047       0.26286269      -0.33224406
H        3.04341550       3.01222104      -1.86794037      -0.03234235       0.35416425       0.05768042
H        3.41397519       4.33998937      -0.71576363      -0.55046309      -0.20562901      -0.38962235
H        0.80965404       2.97806019      -3.01206845       0.41031934       0.13895921      -0.37145136
H       -0.26882331       4.29100865      -2.51268000       0.53506791      -0.59192541       0.27216029
H       -2.92654447       1.43125743       0.34854523       0.21728989      -0.31815724      -0.05057453
H       -2.32525377       0.47147969      -0.97095389       0.43002342      -0.25370170       0.21621807
H       -2.65238504      -0.28202718       0.63975767       0.42051965       0.39784337      -0.36836729
H        0.46672020      -0.29447358      -0.65961189      -0.20928289       0.27985999       0.50890569
H        1.07634170       0.05206097       0.95571884       0.09711856       0.01485719       0.03329032
H       -0.28656892       1.36011333      -1.96279020       0.20833958      -0.60263897      -0.12533151
H       -1.61087994       2.47858006      -1.93403239      -0.01306637      -0.20738426       0.26078412
H        1.73698540       1.95177776      -0.13016129      -0.01913424      -0.65560744      -0.46535681
H       -1.04324154       3.16522545       0.34269308      -0.14810478      -0.46462233       0.24458143
