21
Properties=species:S:1:pos:R:3:forces:R:3 id=38965 bond=C-S smiles="[H:18][c:9]1[c:8]([c:12]([c:10]([c:11]([c:13]1[N:14]([H:19])[H:20])[Cl:6])[Cl:5])[S:7][C:16]([C:15]([H:21])([F:1])[F:2])([F:3])[F:4])[H:17]" dataset=PubChem energy=-56614.435437992266 pbc="F F F"
F        0.23554949      -0.41828299      -3.12969900      -0.40417024      -0.14727487       0.10283703
F       -0.19503162       1.67136763      -3.70288015      -0.05713332      -0.33734016      -0.35191273
F        1.54304120       2.57469319      -1.69353271      -0.82685275      -0.08139225      -0.51617899
F       -0.32767633       1.60216521      -0.97675241       1.28678398      -0.40182912      -0.93589655
Cl       2.93955965       2.29154771       0.96936082      -0.62105777      -0.48345092       0.50966328
Cl       1.36254264       2.24885302       3.69532996      -0.12752346       0.12743853       0.46481308
S        1.90221199       0.17159825      -0.68111635      45.06928820       1.08207674     -92.52310237
C        0.46016525      -0.79611689       0.52248575      -3.77983077      -1.74801699       4.44951086
C       -0.24520443      -0.83617968       1.73060458       0.08173380      -0.63998686      -1.06415537
C        1.70591243       1.11106031       1.28422314      -0.81588269       1.04760865       4.19441343
C        1.01406171       1.06494647       2.49842172       1.08676765       0.69168895      -0.63852559
C        1.42037077       0.16701927       0.30435337     -41.34079189      -1.24592088      85.68451198
C        0.06362130       0.07537382       2.75036817      -1.59450082      -0.18444474       1.77381637
N       -0.61014966       0.03105363       4.00010901       0.86685359      -0.54173057      -2.27659562
C        0.69282212       0.83884327      -3.08289028      -0.06281341       1.55659411       0.27477010
C        0.87049829       1.37802528      -1.65086270       0.33503955      -0.03174977      -0.12297163
H        0.23615866      -1.50310344      -0.29188454       0.23995254       0.53070667       0.58356247
H       -1.05583076      -1.55902476       1.84921532       0.33261658       0.24237971       0.20115971
H       -1.34843997      -0.65542156       4.12736111       0.48864817       0.61434188       0.01853129
H       -0.44589011       0.76957028       4.65408020      -0.14798447      -0.02490442       0.13177876
H        1.64810738       0.89189534      -3.60500980      -0.00385122      -0.01817485       0.03485949
