21
Properties=species:S:1:pos:R:3:forces:R:3 id=38965 bond=C-S smiles="[H:18][c:9]1[c:8]([c:12]([c:10]([c:11]([c:13]1[N:14]([H:19])[H:20])[Cl:6])[Cl:5])[S:7][C:16]([C:15]([H:21])([F:1])[F:2])([F:3])[F:4])[H:17]" dataset=PubChem energy=-56631.751398717715 pbc="F F F"
F        0.54272328      -0.41536390      -3.75793595      -0.29298613       0.00749454       0.15535887
F        0.11214217       1.67428672      -4.33111710       0.12028078      -0.38148013      -0.07231849
F        1.85021499       2.57761228      -2.32176966      -0.77322510      -0.60088355      -0.42398380
F       -0.02050254       1.60508430      -1.60498936       1.18097365      -0.20692593      -1.29834225
Cl       2.63238586       2.28862862       1.59759777      -0.36933185      -0.15374841       0.21781085
Cl       1.05536885       2.24593393       4.32356691      -0.03550694       0.08732700       0.28970710
S        2.20938578       0.17451734      -1.30935330      -1.71737023       0.21360219       2.68395301
C        0.15299146      -0.79903598       1.15072270      -0.22277001      -0.47724602      -0.97003084
C       -0.55237822      -0.83909877       2.35884153       0.37273623       0.07614695      -0.32578445
C        1.39873864       1.10814122       1.91246009       0.65888217       0.04785455      -1.00982112
C        0.70688792       1.06202738       3.12665867       0.49129824       0.00130525      -0.46634671
C        1.11319698       0.16410018       0.93259032       0.52317309       0.17782745      -1.43495901
C       -0.24355249       0.07245473       3.37860512      -1.42390002      -0.24879279       1.36717777
N       -0.91732345       0.02813454       4.62834596       0.67646157      -0.55566899      -1.89394417
C        0.99999591       0.84176236      -3.71112723      -0.11185521       1.15050551      -0.09010738
C        1.17767208       1.38094437      -2.27909965       0.15493909      -0.37563287       2.42595971
H       -0.07101513      -1.50602253       0.33635241       0.02149706       0.41382278       0.63611110
H       -1.36300455      -1.56194385       2.47745227       0.42248773       0.23053449       0.06851679
H       -1.65561376      -0.65834065       4.75559806       0.50485239       0.65110556       0.03351728
H       -0.75306390       0.76665119       5.28231715      -0.19181369      -0.06180964       0.10538074
H        1.95528117       0.89481443      -4.23324675      -0.00433195       0.00626869      -0.00227181
