21
Properties=species:S:1:pos:R:3:forces:R:3 id=38965 bond=C-S smiles="[H:18][c:9]1[c:8]([c:12]([c:10]([c:11]([c:13]1[N:14]([H:19])[H:20])[Cl:6])[Cl:5])[S:7][C:16]([C:15]([H:21])([F:1])[F:2])([F:3])[F:4])[H:17]" dataset=PubChem energy=-56629.03869823271 pbc="F F F"
F        0.76557484      -0.41324612      -4.21371570      -0.31075578      -0.00154570       0.13321631
F        0.33499373       1.67640450      -4.78689685       0.04873289      -0.35386413      -0.14350186
F        2.07306655       2.57973006      -2.77754941      -0.77580636      -0.49145872      -0.43839837
F        0.20234902       1.60720208      -2.06076911       1.11519410      -0.19925218      -1.19120891
Cl       2.40953430       2.28651084       2.05337752      -0.33266417      -0.18681407       0.15334733
Cl       0.83251729       2.24381615       4.77934666      -0.01877190       0.05711109       0.21521967
S        2.43223734       0.17663512      -1.76513305      -1.21514317       0.48322271       0.99225602
C       -0.06986010      -0.80115376       1.60650245       0.18379543      -0.47201411      -1.66752816
C       -0.77522978      -0.84121655       2.81462128       0.37345522       0.19476965      -0.15268458
C        1.17588708       1.10602344       2.36823984       0.97012335       0.13103843      -1.46249895
C        0.48403636       1.05990960       3.58243842       0.36121674      -0.04691323      -0.38673906
C        0.89034542       0.16198240       1.38837007      -0.81500676       0.05807540       1.46798993
C       -0.46640405       0.07033695       3.83438487      -1.44246049      -0.25029753       1.42326446
N       -1.14017501       0.02601676       5.08412571       0.70507745      -0.56384262      -1.97158548
C        1.22284747       0.84388014      -4.16690698      -0.08082648       1.17408784      -0.01464437
C        1.40052364       1.38306215      -2.73487940       0.52605991      -0.68789291       2.27011691
H       -0.29386669      -1.50814031       0.79213216      -0.02879942       0.33915754       0.61613375
H       -1.58585611      -1.56406163       2.93323202       0.43015682       0.21851291       0.00717913
H       -1.87846532      -0.66045843       5.21137781       0.50025327       0.64646600       0.04075983
H       -0.97591546       0.76453341       5.73809690      -0.18749992      -0.05754793       0.10930897
H        2.17813273       0.89693221      -4.68902650      -0.01555536       0.01000412       0.00589599
