21
Properties=species:S:1:pos:R:3:forces:R:3 id=38965 bond=C-S smiles="[H:18][c:9]1[c:8]([c:12]([c:10]([c:11]([c:13]1[N:14]([H:19])[H:20])[Cl:6])[Cl:5])[S:7][C:16]([C:15]([H:21])([F:1])[F:2])([F:3])[F:4])[H:17]" dataset=PubChem energy=-56628.55252712805 pbc="F F F"
F        0.28373362      -0.41782510      -3.22824598      -0.34768824      -0.08321060       0.13646634
F       -0.14684749       1.67182552      -3.80142713       0.03614362      -0.36366443      -0.22386667
F        1.59122533       2.57515108      -1.79207969      -0.79705655      -0.34385851      -0.47375658
F       -0.27949220       1.60262310      -1.07529939       1.29090613      -0.31489540      -1.14359056
Cl       2.89137552       2.29108982       1.06790780      -0.50813415      -0.25677184       0.47516462
Cl       1.31435851       2.24839513       3.79387694      -0.09670132       0.12056103       0.42591427
S        1.95039612       0.17205614      -0.77966333      15.23926074       0.43600492     -31.35012436
C        0.41198112      -0.79657478       0.62103273      -2.51228308      -1.14661051       2.69529557
C       -0.29338856      -0.83663757       1.82915156       0.15897429      -0.44509587      -0.85483692
C        1.65772830       1.11060242       1.38277012      -0.46813334       0.46405764       2.27868343
C        0.96587758       1.06448858       2.59696870       0.95765283       0.49409928      -0.59878842
C        1.37218664       0.16656138       0.40290035     -13.11879797      -0.36024246      27.08995029
C        0.01543717       0.07491593       2.84891515      -1.54109989      -0.22783407       1.59422901
N       -0.65833379       0.03059574       4.09865599       0.79736072      -0.54045577      -2.12659980
C        0.74100625       0.83930116      -3.18143726      -0.10159595       1.40327203       0.12590633
C        0.91868242       1.37848317      -1.74940968       0.16698654      -0.14310501       0.97192754
H        0.18797453      -1.50356133      -0.19333756       0.14807188       0.48876824       0.61587319
H       -1.10401489      -1.55948265       1.94776230       0.36513643       0.24378003       0.18091528
H       -1.39662410      -0.65587945       4.22590809       0.49588796       0.62812398       0.02072959
H       -0.49407424       0.76911239       4.75262718      -0.16358588      -0.03946392       0.12127240
H        1.69629151       0.89235323      -3.70355678       0.00134075      -0.01072659       0.01927190
