21
Properties=species:S:1:pos:R:3:forces:R:3 id=38965 bond=C-S smiles="[H:18][c:9]1[c:8]([c:12]([c:10]([c:11]([c:13]1[N:14]([H:19])[H:20])[Cl:6])[Cl:5])[S:7][C:16]([C:15]([H:21])([F:1])[F:2])([F:3])[F:4])[H:17]" dataset=PubChem energy=-56621.53982608441 pbc="F F F"
F        0.25361854      -0.41811128      -3.16665412      -0.37967250      -0.12074872       0.11744633
F       -0.17696257       1.67153934      -3.73983527      -0.01798630      -0.34839472      -0.29965222
F        1.56111025       2.57486490      -1.73048783      -0.81187038      -0.19401348      -0.49672459
F       -0.30960728       1.60233692      -1.01370753       1.29254326      -0.36653537      -1.02348308
Cl       2.92149060       2.29137600       1.00631594      -0.57234492      -0.38213912       0.50331590
Cl       1.34447359       2.24868131       3.73228508      -0.11366597       0.12183976       0.44444689
S        1.92028104       0.17176996      -0.71807147      30.34123764       0.77709748     -62.28219822
C        0.44209620      -0.79628860       0.55944087      -3.24171309      -1.48012134       3.70947702
C       -0.26327348      -0.83635139       1.76755970       0.11210420      -0.55899421      -0.97720981
C        1.68784338       1.11088860       1.32117826      -0.67207957       0.79369851       3.36812948
C        0.99599266       1.06477476       2.53537684       1.03771833       0.61009588      -0.62298431
C        1.40230172       0.16684756       0.34130849     -27.28941414      -0.84491465      56.54652031
C        0.04555225       0.07520211       2.78732329      -1.57271193      -0.20478202       1.69456322
N       -0.62821871       0.03088192       4.03706413       0.83874526      -0.54077594      -2.21501065
C        0.71089117       0.83901498      -3.11984540      -0.08046518       1.49522395       0.21423770
C        0.88856734       1.37819699      -1.68781782       0.25866019      -0.08065483       0.33108153
H        0.21808961      -1.50327515      -0.25492942       0.19847772       0.51127641       0.59988611
H       -1.07389981      -1.55919647       1.88617044       0.34750841       0.24313513       0.19320267
H       -1.36650902      -0.65559327       4.16431623       0.49172146       0.62013385       0.01931926
H       -0.46395916       0.76939857       4.69103532      -0.15439269      -0.03115672       0.12732195
H        1.66617643       0.89206705      -3.64196492      -0.00157428      -0.01521881       0.02789904
