21
Properties=species:S:1:pos:R:3:forces:R:3 id=38965 bond=C-S smiles="[H:18][c:9]1[c:8]([c:12]([c:10]([c:11]([c:13]1[N:14]([H:19])[H:20])[Cl:6])[Cl:5])[S:7][C:16]([C:15]([H:21])([F:1])[F:2])([F:3])[F:4])[H:17]" dataset=PubChem energy=-56629.18782517268 pbc="F F F"
F        0.74750580      -0.41341783      -4.17676059      -0.30961636      -0.00086990       0.13464405
F        0.31692469       1.67623279      -4.74994174       0.05368272      -0.35580721      -0.13858247
F        2.05499751       2.57955835      -2.74059430      -0.77528264      -0.49882881      -0.43768014
F        0.18427998       1.60703037      -2.02381400       1.11857061      -0.19959149      -1.19875963
Cl       2.42760334       2.28668255       2.01642241      -0.33666389      -0.18725936       0.15615687
Cl       0.85058633       2.24398786       4.74239155      -0.01969063       0.05855801       0.21925658
S        2.41416830       0.17646341      -1.72817794      -1.24776999       0.46826220       1.09916065
C       -0.05179106      -0.80098205       1.56954734       0.16347551      -0.47241776      -1.63966885
C       -0.75716074      -0.84104484       2.77766617       0.37526818       0.19049202      -0.16133217
C        1.19395612       1.10619515       2.33128473       0.96109158       0.13300868      -1.44684731
C        0.50210540       1.06008131       3.54548331       0.36689421      -0.04735450      -0.39152477
C        0.90841446       0.16215411       1.35141496      -0.74303992       0.05923223       1.31147803
C       -0.44833501       0.07050866       3.79742976      -1.44091003      -0.25000124       1.41943250
N       -1.12210597       0.02618847       5.04717060       0.70289002      -0.56338412      -1.96603288
C        1.20477843       0.84370843      -4.12995187      -0.08285901       1.17209872      -0.02056519
C        1.38245460       1.38289044      -2.69792429       0.50099723      -0.66726210       2.28391779
H       -0.27579765      -1.50796860       0.75517705      -0.02533062       0.34457593       0.61750548
H       -1.56778707      -1.56388992       2.89627691       0.43035646       0.21904959       0.01026486
H       -1.86039628      -0.66028672       5.17442270       0.50059555       0.64684678       0.04032957
H       -0.95784642       0.76470512       5.70114179      -0.18789432      -0.05787028       0.10893482
H        2.16006369       0.89676050      -4.65207139      -0.01496055       0.00981433       0.00512719
