21
Properties=species:S:1:pos:R:3:forces:R:3 id=38965 bond=C-S smiles="[H:18][c:9]1[c:8]([c:12]([c:10]([c:11]([c:13]1[N:14]([H:19])[H:20])[Cl:6])[Cl:5])[S:7][C:16]([C:15]([H:21])([F:1])[F:2])([F:3])[F:4])[H:17]" dataset=PubChem energy=-56624.92675141016 pbc="F F F"
F        0.26566457      -0.41799681      -3.19129086      -0.36566336      -0.10478791       0.12582506
F       -0.16491654       1.67165381      -3.76447201       0.00525352      -0.35496807      -0.26760456
F        1.57315628       2.57497937      -1.75512457      -0.80483035      -0.25899205      -0.48664583
F       -0.29756125       1.60245139      -1.03834427       1.29307613      -0.34458791      -1.07542476
Cl       2.90944457       2.29126153       1.03095268      -0.54444759      -0.32610630       0.49384868
Cl       1.33242756       2.24856684       3.75692182      -0.10605745       0.12025604       0.43483943
S        1.93232707       0.17188443      -0.74270821      23.15776238       0.61920041     -47.55849577
C        0.43005017      -0.79640307       0.58407761      -2.92480677      -1.32967713       3.27360122
C       -0.27531951      -0.83646586       1.79219644       0.13152030      -0.51090980      -0.92533054
C        1.67579735       1.11077413       1.34581500      -0.58680160       0.64675268       2.89241979
C        0.98394663       1.06466029       2.56001358       1.00537666       0.56122327      -0.61306153
C        1.39025569       0.16673309       0.36594523     -20.50625194      -0.62669485      42.45936201
C        0.03350622       0.07508764       2.81196003      -1.55915496      -0.21528296       1.64995714
N       -0.64026474       0.03076745       4.06170087       0.82144370      -0.54047316      -2.17777706
C        0.72293720       0.83912945      -3.14448214      -0.09004199       1.45681180       0.17700018
C        0.90061337       1.37831146      -1.71245456       0.21827708      -0.10876975       0.60504484
H        0.20604358      -1.50338962      -0.23029268       0.17590654       0.50116512       0.60764989
H       -1.08594584      -1.55931094       1.91080718       0.35544178       0.24349511       0.18817494
H       -1.37855505      -0.65570774       4.18895297       0.49351006       0.62353254       0.01987554
H       -0.47600519       0.76928410       4.71567206      -0.15826501      -0.03472608       0.12473335
H        1.67822246       0.89218152      -3.66660166      -0.00028423      -0.01334501       0.02408965
