21
Properties=species:S:1:pos:R:3:forces:R:3 id=19108 bond=C-N smiles="[H:16][C:5]([H:17])([H:18])[C:7]([H:20])([H:21])[C:6]([H:19])([N:1]([H:8])[H:9])[N:2]([C:3]([H:10])([H:11])[H:12])[C:4]([H:13])([H:14])[H:15]" dataset=PubChem energy=-8397.408576738122 pbc="F F F"
N       -0.60409502      -0.79244311       0.12699242      -1.50212792      -1.10161251       0.56133926
N        1.35182490       0.32854067      -0.49077598      -1.70646292       1.04468238       0.34220864
C        1.65057501       1.54198539      -1.25153688      -0.07211444       0.04295005       0.34273021
C        2.52849099      -0.34754294       0.15643373      -0.83105916       1.95528135      -0.06088585
C       -1.50378350       1.05500196       2.42196675       0.48964271      -0.33002956       0.97295314
C       -0.16722796       0.52753151       0.37460329       3.05704776      -1.95199336      -1.33885827
C       -0.08281303       0.88442586       1.83898993      -0.43127760      -0.43633649       0.19584748
H        0.03289544      -1.45540031       0.57618053      -0.39387489       0.26087380      -0.44728535
H       -0.57567207      -0.92712028      -0.88612441       0.10437621      -0.23094310       0.72616295
H        0.78574779       1.86990821      -1.89567665       0.62611038      -0.50754883       0.83080975
H        2.47256716       1.34836811      -1.96202448      -0.07292290       0.25950818       0.47930189
H        1.88031336       2.36999023      -0.54288128       0.25595893      -0.04660691      -0.72526984
H        3.23021182      -0.63312852      -0.64101091      -0.23678443       0.18527971       0.25776539
H        3.04006895       0.34344777       0.87318771      -0.08128440      -0.54612242      -0.38938904
H        2.25937637      -1.25448417       0.69416085      -0.30241550       0.06131049      -0.06839922
H       -2.07973341       0.14033063       2.30399354       0.12102744      -0.11155615       0.00862782
H       -1.45029787       1.27593736       3.52465303      -0.13696604       0.01088019      -1.17409688
H       -2.05377964       1.81574814       1.88819917      -0.06801382       0.44407509       0.07498854
H       -0.87594012       1.17317252      -0.15441672       0.96068516       0.42515800      -0.27109297
H        0.43289072       0.09529008       2.41198917      -0.03560799       0.26822851      -0.37467732
H        0.47103925       1.80163948       1.95663674       0.25661328       0.30539916       0.05615715
