21
Properties=species:S:1:pos:R:3:forces:R:3 id=19108 bond=C-N smiles="[H:16][C:5]([H:17])([H:18])[C:7]([H:20])([H:21])[C:6]([H:19])([N:1]([H:8])[H:9])[N:2]([C:3]([H:10])([H:11])[H:12])[C:4]([H:13])([H:14])[H:15]" dataset=PubChem energy=-8394.569700823362 pbc="F F F"
N       -1.04635091      -0.73450906       0.37893829       1.95101264       1.22836157      -0.40700863
N        1.79408079       0.27060662      -0.74272185      -1.25728903      -1.05181742       0.20540991
C        2.09283090       1.48405134      -1.50348275      -0.42228230      -0.24031707       0.68866014
C        2.97074688      -0.40547699      -0.09551214      -0.84935803       2.18212197      -0.30116949
C       -1.94603939       1.11293601       2.67391262       0.28500821      -0.29901843       0.84505555
C       -0.60948385       0.58546556       0.62654916      -1.32779785      -1.82056231       0.54223429
C       -0.52506892       0.94235991       2.09093580       0.28815277      -0.49231990       0.01283772
H       -0.40936045      -1.39746626       0.82812640      -0.43353966       0.08750928      -0.25896297
H       -1.01792796      -0.86918623      -0.63417854      -0.16487694      -0.33880894       0.42008045
H        1.22800368       1.81197416      -2.14762252       0.59578763      -0.49055512       0.85718047
H        2.91482305       1.29043406      -2.21397035       0.11813038       0.24979735       0.35669180
H        2.32256925       2.31205618      -0.79482715       0.29576675      -0.08865899      -0.72552476
H        3.67246771      -0.69106257      -0.89295678       0.01425962       0.11870421       0.16303231
H        3.48232484       0.28551372       0.62124184       0.00869405      -0.50813391      -0.41220308
H        2.70163226      -1.31241822       0.44221498      -0.35497802       0.08294207      -0.08856089
H       -2.52198930       0.19826468       2.55593941       0.10537253      -0.11996223       0.02545371
H       -1.89255376       1.33387141       3.77659890      -0.07725821       0.00802962      -1.18875377
H       -2.49603553       1.87368219       2.14014504      -0.07621130       0.43693680       0.09013282
H       -1.31819601       1.23110657       0.09752915       1.12052539       0.48904914      -0.52479542
H       -0.00936517       0.15322413       2.66393504      -0.03929781       0.30476174      -0.36820801
H        0.02878336       1.85957353       2.20858261       0.21840844       0.26263828       0.06845361
