21
Properties=species:S:1:pos:R:3:forces:R:3 id=19108 bond=C-N smiles="[H:16][C:5]([H:17])([H:18])[C:7]([H:20])([H:21])[C:6]([H:19])([N:1]([H:8])[H:9])[N:2]([C:3]([H:10])([H:11])[H:12])[C:4]([H:13])([H:14])[H:15]" dataset=PubChem energy=-8395.108840613528 pbc="F F F"
N       -0.94059406      -0.74836286       0.31869036       1.56814492       1.04413307      -0.28889230
N        1.68832394       0.28446042      -0.68247392      -1.55896342      -0.91472091       0.22921760
C        1.98707405       1.49790514      -1.44323482      -0.41233762      -0.15885857       0.67967360
C        2.86499003      -0.39162319      -0.03526421      -0.85786416       2.18431546      -0.19116536
C       -1.84028254       1.09908221       2.61366469       0.31617054      -0.30771508       0.85432764
C       -0.50372700       0.57161176       0.56630123      -0.60869344      -1.90591403       0.24683857
C       -0.41931207       0.92850611       2.03068787       0.21403371      -0.48154427       0.02841011
H       -0.30360360      -1.41132006       0.76787847      -0.41931083       0.12543047      -0.29566056
H       -0.91217111      -0.88304003      -0.69442647      -0.09970284      -0.31483474       0.46111512
H        1.12224683       1.82582796      -2.08737459       0.60226803      -0.48980484       0.84602410
H        2.80906620       1.30428786      -2.15372242       0.07851648       0.23948780       0.37483163
H        2.21681240       2.32590998      -0.73457922       0.29500159      -0.07794480      -0.73555153
H        3.56671086      -0.67720877      -0.83270885      -0.04287819       0.12507720       0.17292194
H        3.37656799       0.29936752       0.68148977       0.00612916      -0.52007091      -0.40225848
H        2.59587541      -1.29856442       0.50246291      -0.34636889       0.06764641      -0.08223276
H       -2.41623245       0.18441088       2.49569148       0.10696654      -0.11700285       0.02436474
H       -1.78679691       1.32001761       3.71635097      -0.08387323       0.00855248      -1.18878553
H       -2.39027868       1.85982839       2.07989711      -0.07667661       0.43842057       0.08787786
H       -1.21243916       1.21725277       0.03728122       1.13328039       0.48943396      -0.51405528
H        0.09639168       0.13937033       2.60368711      -0.03854128       0.29953733      -0.37271493
H        0.13454021       1.84571973       2.14833468       0.22292762       0.26721083       0.06548660
