21
Properties=species:S:1:pos:R:3:forces:R:3 id=19108 bond=C-N smiles="[H:16][C:5]([H:17])([H:18])[C:7]([H:20])([H:21])[C:6]([H:19])([N:1]([H:8])[H:9])[N:2]([C:3]([H:10])([H:11])[H:12])[C:4]([H:13])([H:14])[H:15]" dataset=PubChem energy=-8394.440194234536 pbc="F F F"
N       -1.07519368      -0.73073075       0.39536954       2.02503198       1.25723993      -0.43115436
N        1.82292356       0.26682831      -0.75915310      -1.17967945      -1.06726791       0.20494587
C        2.12167367       1.48027303      -1.51991400      -0.42274503      -0.26381607       0.68610427
C        2.99958965      -0.40925530      -0.11194339      -0.84806514       2.17747633      -0.33148566
C       -1.97488216       1.11671432       2.69034387       0.27797680      -0.29691736       0.84376837
C       -0.63832662       0.58924387       0.64298041      -1.48210376      -1.79596801       0.60460263
C       -0.55391169       0.94613822       2.10736705       0.30275449      -0.49495273       0.00920028
H       -0.43820322      -1.39368795       0.84455765      -0.43712273       0.07840869      -0.25047777
H       -1.04677073      -0.86540792      -0.61774729      -0.18094308      -0.34452347       0.41246598
H        1.25684645       1.80819585      -2.16405377       0.59419267      -0.49082400       0.86028436
H        2.94366582       1.28665575      -2.23040160       0.12761358       0.25342958       0.35263112
H        2.35141202       2.30827787      -0.81125840       0.29533291      -0.09161576      -0.72171286
H        3.70131048      -0.69484088      -0.90938803       0.02834381       0.11752771       0.16133069
H        3.51116761       0.28173541       0.60481059       0.00801786      -0.50466892      -0.41488446
H        2.73047503      -1.31619653       0.42578373      -0.35730413       0.08700523      -0.08990815
H       -2.55083207       0.20204299       2.57237066       0.10513003      -0.12069901       0.02556384
H       -1.92139653       1.33764972       3.79303015      -0.07594689       0.00790432      -1.18853900
H       -2.52487830       1.87746050       2.15657629      -0.07592817       0.43657834       0.09061101
H       -1.34703878       1.23488488       0.11396040       1.11568655       0.48863713      -0.52574971
H       -0.03820794       0.15700244       2.68036629      -0.03945793       0.30578357      -0.36686861
H       -0.00005941       1.86335184       2.22501386       0.21744194       0.26190273       0.06935129
