21
Properties=species:S:1:pos:R:3:forces:R:3 id=6889 bond=C-S smiles="[H:13][C:8]1=[C:6]([S:3][C:7](=[C:9]1[C:12]([H:20])([H:21])[N:2]=[O:1])[S:5][C:11]([H:17])([H:18])[H:19])[S:4][C:10]([H:14])([H:15])[H:16]" dataset=PubChem energy=-43455.00098531752 pbc="F F F"
O        3.10146986       3.83123195       0.73074203      -2.79760608      -2.91363505      -1.12839256
N        2.40911852       2.91551888       0.23519787       1.95015333       2.59176017       1.14905577
S       -0.70843066      -0.63870155      -0.83003498      -0.25919731       0.16435091       0.83597680
S        0.61257229      -3.28861840       1.66913753      -0.50548051       2.82545847      -1.22629343
S       -1.16668834       2.23996199      -1.74164892       1.76415364      -0.33601140      -0.45451258
C        0.15947880      -0.97744548       0.62097483       1.41514320      -0.25309384       0.67953268
C       -0.43039479       1.07372517      -0.65588594       0.37563724      -0.03830841       0.32619332
C        0.79607011       0.20329989       1.04086011       0.45809241      -3.11647228       1.81988620
C        0.48219635       1.36546979       0.35531001      -0.86540737       0.35454227      -0.57893011
C       -0.23503512      -2.93568643       3.21547704      -1.75348819       0.55475180       0.56955373
C        0.44919222       2.56737888      -2.58400775      -0.34390388       2.35019399      -2.78064437
C        1.02230422       2.73643983       0.77030551      -1.06132308      -0.47327535       1.07882834
H        1.45440809       0.18453569       1.91570901      -0.21718206       0.06253200      -0.39578910
H       -1.35903114      -3.08955701       3.12278324       1.41800493       0.54252410      -0.09156846
H        0.01225406      -1.88901671       3.48118668      -0.40317395      -0.65630410      -0.03731873
H        0.01314598      -3.55263646       4.09788304       0.61824461      -0.01638354      -0.79462669
H        0.36801115       3.63217342      -3.04539276      -0.12633115      -1.72373254       0.61905539
H        0.75383092       1.91718328      -3.45900417      -0.83447156       0.30146467       1.23676562
H        1.30451987       2.67769826      -1.94876743       0.04612753      -0.38057406       0.77342167
H        0.33579798       3.46447003       0.31889163       0.52530309       0.22865164      -0.06623258
H        0.91641937       2.86572373       1.90256333       0.60224081      -0.06598204      -1.53119178
