39
Properties=species:S:1:pos:R:3:forces:R:3 id=14278 bond=N-P smiles="[H:27][c:6]1[c:7]([c:15]([c:23]([c:16]([c:8]1[H:29])[H:37])[P:26](=[S:1])([N:24]([H:38])[c:21]2[c:11]([c:9]([c:17]([c:19]([c:13]2[H:34])[Cl:4])[Cl:2])[H:30])[H:32])[N:25]([H:39])[c:22]3[c:12]([c:10]([c:18]([c:20]([c:14]3[H:35])[Cl:5])[Cl:3])[H:31])[H:33])[H:36])[H:28]" dataset=PubChem energy=-92095.04190822056 pbc="F F F"
S        0.85253822       3.53349979      -1.54996951       0.22015429      -0.62029307       0.26662633
Cl      -3.00189176       2.42507143       4.80605475       0.56306912      -0.09447053       0.16430584
Cl      -3.93341594      -3.32556894       2.41616142       0.15054756       0.42346166      -0.60966318
Cl      -3.29969420       3.67194708       1.98621123       0.91198072      -0.53757472      -0.12991651
Cl      -0.80065661      -3.66629818       2.60914528      -0.20209991       0.42948170      -0.40568718
C        6.12064108       1.20542135      -1.35481866      -0.52711341       0.35193878      -0.01409128
C        5.13667569       0.26395722      -1.63683779      -0.84408650      -0.79147119      -0.68434002
C        5.73748240       2.41629119      -0.78860123      -0.96507734       0.95157786       0.57694729
C       -0.36867538       1.92502953       4.18246667      -0.22342378      -0.15774511      -0.84076068
C       -3.40554790      -1.71371380       0.22011150       0.52979604       0.01324467      -0.76829117
C        0.66933355       1.86645271       3.25118939       0.16134893       0.05224965       0.72677116
C       -2.56039052      -1.09035566      -0.71238482      -0.66157743      -0.90843282       2.01063553
C       -0.69772747       2.80961759       1.54234378      -0.37867456       0.68595286       0.15300220
C       -0.67203634      -1.98212662       0.48797766       1.12841699      -0.39131111       0.85351770
C        3.76355633       0.53146042      -1.46622593       1.20890768       1.21723049       0.19502794
C        4.37976369       2.71120460      -0.53495498       0.34244244      -0.57874909      -0.78153928
C       -1.60765257       2.41656204       3.75578945      -0.62182870       0.15586478      -0.32567798
C       -2.88644700      -2.52125552       1.26154148      -1.05423758       0.61671010      -0.08126486
C       -1.79410090       2.88694282       2.43590252       1.44129639      -0.26336836       0.38043898
C       -1.52455358      -2.62397983       1.38715934       1.41630475      -0.36400486      -0.21285592
C        0.56973812       2.33593900       1.93810908      -1.89432807      -0.30040678       1.46184103
C       -1.15744667      -1.16805664      -0.52083743      -0.56708563       1.52310238      -2.67169978
C        3.38931784       1.80994864      -0.96764023       1.17784922      -1.68215945       0.68869746
N        1.69019756       2.26088090       1.13171710       0.24631080      -0.30512040      -1.94654182
N       -0.35313736      -0.52531761      -1.44824553       1.65430172      -1.22973881       1.43683802
P        1.69146446       2.07575525      -0.56185610      -1.93323188       1.30324015      -0.31808312
H        7.15053877       1.03244771      -1.62856467       0.02249599      -0.13746048       0.21066182
H        5.38256583      -0.71748333      -2.08133347       0.08244654       0.74469331       0.37952454
H        6.41752228       3.22478301      -0.50452681       0.14830197      -0.64441439      -0.26672068
H       -0.21869340       1.50827016       5.18575589      -0.24495580       0.36961326      -0.54591351
H       -4.47059231      -1.59184745       0.09481303      -0.06487577      -0.20390700       0.18842355
H        1.60649613       1.44880970       3.59587733       0.07250107       0.01026336      -0.08440042
H       -2.94943338      -0.53674790      -1.55143440      -0.14229365       0.10897938       0.11208771
H       -0.82599726       3.23921044       0.56378374      -0.03415905      -0.10192967      -0.11865927
H        0.41757135      -2.13630750       0.53183561      -0.73257866       0.11687637       0.20286529
H        3.03349480      -0.21074240      -1.74692996      -0.17065175       0.04898506       0.07759194
H        4.09054265       3.65148266      -0.07243647       0.11906694      -0.18408061      -0.15252393
H        2.49552295       1.80165953       1.51089238       0.14080654      -0.18112269       0.56495838
H       -0.85042303      -0.23594096      -2.27735794      -0.47116827       0.55878317       0.30155124
