40
Properties=species:S:1:pos:R:3:forces:R:3 id=14667 bond=O-P smiles="[H:24][C:9]([H:25])([H:26])[C:14]([H:35])([H:36])[N:6]([C:15]([H:37])([H:38])[C:10]([H:27])([H:28])[F:1])[C:16]([H:39])([H:40])[C:13]([H:33])([H:34])[S:5][P:17](=[S:2])([O:3][C:11]([H:29])([H:30])[C:7]([H:18])([H:19])[H:20])[O:4][C:12]([H:31])([H:32])[C:8]([H:21])([H:22])[H:23]" dataset=PubChem energy=-50018.34861095176 pbc="F F F"
F        4.90920753       0.80079217      -2.72606712      -0.20754143       0.16278003       0.17351687
S        1.51979930      -1.22709791       1.61019236      -1.39039918      -0.11198232      -0.35172897
O       -0.43879526      -2.81307952      -0.02759854      -0.04612282       2.66376336       1.09931604
O       -2.36813750      -0.44386187       2.81551085      -0.68464326      -0.98073499      -0.91130967
S       -0.20983749       0.30736778      -0.84039444      -0.35106277      -0.45470145       0.62426601
N        2.47134585       2.82889898      -0.77874696       1.74469899      -0.30836453      -0.45197566
C        0.10372163      -4.02816025      -1.91581768      -0.60761439       0.07744209      -1.63026083
C       -4.20113983      -1.04687908       4.37397514       1.86350106       0.06692955       0.25353847
C        3.90621562       4.59547932       0.39774314       0.34242272      -0.42817262      -1.57548480
C        4.40790266       1.96066721      -2.17699653       1.52861526       3.24799402       0.32189756
C        0.68970008      -3.36934869      -0.73469162       1.04640166      -1.61337875       0.47670079
C       -3.41581835      -1.37110761       3.05213224       2.36123610      -0.82183641       0.97886120
C        0.49489565       1.65124078       0.19191876       1.65661747      -0.93447221       2.65389972
C        3.34201545       3.12897809       0.41575268      -1.16828524       0.80641183      -0.11394929
C        3.00253839       1.83231719      -1.74016446      -1.31600640      -1.55009867       1.94129851
C        1.00272452       2.81897147      -0.57410580       1.32282825       1.17205116      -1.79035564
P       -0.17589645      -1.29419653       0.60966128       1.15744636      -0.70137607       1.15803418
H        0.79218949      -4.16165273      -2.74888689       0.20257941       0.22699425       0.10533636
H       -0.71228295      -3.38191502      -2.23503286      -0.01825851      -0.17299790      -0.43500171
H       -0.30239778      -5.00509946      -1.73364359      -0.27332139      -0.35937238       0.43832697
H       -4.08075514      -0.02295938       4.72875700      -0.15742989       0.06785921      -0.49214899
H       -3.84122314      -1.66016653       5.20079003       0.06627872      -0.06859465      -0.14429507
H       -5.20699682      -1.29327276       4.20725928      -1.47797283      -0.08783633      -0.11064822
H        4.42700333       4.79063160       1.33473783       0.01520095       0.07751643      -0.08324605
H        4.62361783       4.78308184      -0.48312867      -1.02233454      -0.42110438       1.35660998
H        3.07665844       5.32049877       0.27484178       0.45192588      -0.48493501       0.15440704
H        4.38814110       2.78935153      -2.91907221       0.56869446      -0.74927263      -0.03556194
H        5.08312649       2.37368710      -1.36305743      -0.59014863      -1.06590426      -0.79641336
H        1.23984120      -4.17160766      -0.15800266      -0.67253588       1.35353777       0.09305127
H        1.38197113      -2.58821480      -0.99932831       0.24053842       0.20305649      -0.05161415
H       -2.87400022      -2.38184598       3.25378857      -1.21185381       1.20900685      -0.50324125
H       -4.15080347      -1.48848894       2.25246928       0.26875017       0.22387020      -0.26498922
H        1.44214443       1.29749872       0.72061724      -1.58928628      -0.23706756      -0.57152088
H       -0.15913289       1.99781103       0.99273950      -0.44572724      -0.54390677      -0.28881850
H        2.66222365       3.10951359       1.28094106       0.36091184      -0.22983193      -0.00910412
H        4.14374466       2.38425333       0.61838597      -0.66729970       0.39661937      -0.44988282
H        2.95913477       0.75649647      -1.35928887      -0.53637334       1.01129446      -0.31955359
H        2.40052993       1.97464306      -2.61026079      -0.66732357      -0.55605242      -0.56929922
H        0.86650374       3.81283410      -0.07351301      -0.74788986      -1.09508616      -0.44440502
H        0.49136365       2.74319155      -1.56902415       0.65445943       1.01478791       0.56594226
