40
Properties=species:S:1:pos:R:3:forces:R:3 id=14667 bond=O-P smiles="[H:24][C:9]([H:25])([H:26])[C:14]([H:35])([H:36])[N:6]([C:15]([H:37])([H:38])[C:10]([H:27])([H:28])[F:1])[C:16]([H:39])([H:40])[C:13]([H:33])([H:34])[S:5][P:17](=[S:2])([O:3][C:11]([H:29])([H:30])[C:7]([H:18])([H:19])[H:20])[O:4][C:12]([H:31])([H:32])[C:8]([H:21])([H:22])[H:23]" dataset=PubChem energy=-50021.85845119663 pbc="F F F"
F        4.49927628       0.95979784      -2.31359119      -0.20683417       0.15613602       0.16301894
S        1.10986805      -1.06809224       2.02266829      -1.16552753      -0.17061220      -0.61023949
O       -0.84872651      -2.65407385       0.38487739      -0.56646370       2.74834906       1.31781887
O       -1.95820625      -0.60286754       2.40303492       1.74965843      -0.98193212      -3.30419213
S       -0.61976874       0.46637345      -0.42791851      -0.45275297      -0.65916060       0.62105971
N        2.06141460       2.98790465      -0.36627103       1.77079525      -0.26019094      -0.45194242
C       -0.30620962      -3.86915458      -1.50334175      -0.63863369       0.08817396      -1.63002231
C       -3.79120858      -1.20588475       3.96149921       2.05208393       0.07208656      -0.17568021
C        3.49628437       4.75448499       0.81021907       0.34134352      -0.42949460      -1.57530705
C        3.99797141       2.11967288      -1.76452060       1.50699502       3.25834008       0.33162565
C        0.27976883      -3.21034302      -0.32221569       1.08145860      -1.46410506       0.51200253
C       -3.00588710      -1.53011328       2.63965631       1.03314636      -2.04753131       1.69348500
C        0.08496440       1.81024645       0.60439469       1.64778418      -0.86521766       2.66470208
C        2.93208420       3.28798376       0.82822861      -1.17786699       0.79239014      -0.12975496
C        2.59260714       1.99132286      -1.32768853      -1.29562512      -1.62219459       1.94923528
C        0.59279327       2.97797714      -0.16162987       1.29835904       1.10814794      -1.73874260
P       -0.58582770      -1.13519086       1.02213721       0.21454520       0.40151575       3.26761541
H        0.38225824      -4.00264706      -2.33641096       0.20264824       0.23057444       0.11371942
H       -1.12221420      -3.22290935      -1.82255693      -0.01730493      -0.17369817      -0.44098034
H       -0.71232903      -4.84609379      -1.32116766      -0.27750771      -0.36662386       0.43558374
H       -3.67082389      -0.18196505       4.31628107      -0.16583799       0.08489598      -0.46914300
H       -3.43129189      -1.81917220       4.78831410       0.06296795      -0.06288427      -0.15650209
H       -4.79706557      -1.45227843       3.79478335      -1.45973440      -0.07260959      -0.07194199
H        4.01707208       4.94963727       1.74721376       0.01886527       0.08023648      -0.07944816
H        4.21368658       4.94208751      -0.07065274      -1.02091036      -0.41927858       1.35470410
H        2.66672719       5.47950444       0.68731771       0.45011183      -0.48212181       0.15247433
H        3.97820985       2.94835720      -2.50659628       0.57461430      -0.74489290      -0.04292325
H        4.67319524       2.53269277      -0.95058150      -0.58764869      -1.06682749      -0.79486310
H        0.82990995      -4.01260199       0.25447327      -0.68151074       1.38240733       0.10528317
H        0.97203988      -2.42920913      -0.58685238       0.24484835       0.18741326      -0.02528573
H       -2.46406897      -2.54085165       2.84131264      -1.32301774       1.30612567      -0.61654190
H       -3.74087222      -1.64749461       1.83999335       0.40141491       0.21890245      -0.25623728
H        1.03221318       1.45650439       1.13309317      -1.59883885      -0.26854562      -0.56351413
H       -0.56906414       2.15681670       1.40521543      -0.42302291      -0.53647420      -0.29662286
H        2.25229240       3.26851926       1.69341699       0.36322620      -0.23485056      -0.01010896
H        3.73381341       2.54325900       1.03086190      -0.67237592       0.39802760      -0.44651193
H        2.54920352       0.91550214      -0.94681294      -0.53675545       1.04462119      -0.33061022
H        1.99059868       2.13364873      -2.19778486      -0.66867812      -0.55121830      -0.56959641
H        0.45657249       3.97183977       0.33896292      -0.74105876      -1.08271444      -0.44708917
H        0.08143240       2.90219722      -1.15654822       0.65439828       1.00488050       0.55701194
