34
Properties=species:S:1:pos:R:3:forces:R:3 id=34031 bond=C-N smiles="[H:23][c:8]1[c:10]([c:11]2[c:12]([c:9]([n:2]1)[H:24])[C:16]([C:15]([O:3][C:14]2([H:25])[H:26])([H:27])[H:28])([H:29])[O:4][H:20])[C:6]3=[C:7]([N:13]([N:1]=[C:5]3[H:21])[C:19]4([C:17]([C:18]4([H:32])[H:33])([H:30])[H:31])[H:34])[H:22]" dataset=PubChem energy=-23336.592301131557 pbc="F F F"
N        1.98182865       2.48054647      -1.13814453       0.70298456       0.62365525       1.10950802
N       -2.85210541      -0.38014555       0.84740182       0.26442257      -0.27113470       0.56382400
O        1.25814148      -3.24026919      -0.30166189      -0.79739805       0.36306201       0.70792971
O       -1.01922575      -4.21301675       1.41706605      -0.50218630      -0.77565190       0.56424718
C        1.30591973       1.34406352      -1.22982065      -1.58797495      -0.21854739       0.98580392
C        0.42054208       1.16717094      -0.08083955       1.30792226      -0.31957432      -0.64862233
C        0.73989605       2.24383413       0.71178802       0.35914867       1.20462400       0.88898953
C       -1.82341603       0.47613637       0.67584555      -0.48113903      -0.81804641      -0.26869847
C       -2.63027886      -1.69568134       0.69341730       1.94932203       1.16316836      -0.75952264
C       -0.56011836       0.07885607       0.23640822       0.51604441       0.42792258      -0.48111919
C       -0.30915282      -1.29791201       0.02292081      -0.57186307      -0.14229155       0.58214906
C       -1.37539748      -2.18929840       0.26858010       0.37725286       0.62072765      -0.45554251
N        1.69313069       3.03766107       0.09535851      -0.00497582       0.26569325      -0.00169813
C        1.05323502      -1.81350875      -0.45491324      -0.97784584      -0.63627322      -0.27008168
C        0.10797795      -4.04277682      -0.67194060       0.00533489       1.41017425      -1.36131482
C       -1.16086904      -3.68467736       0.11110313       1.15537291       0.84218477       0.24115484
C        2.99672230       4.76879911       2.47327968       0.06623956       0.04767612      -1.49626719
C        2.02477916       5.76594524       1.88450476      -0.69124048      -0.56384093      -0.89591875
C        2.70685108       4.76693134       0.95924142      -0.68956370      -0.39179741       1.15101682
H       -0.25092427      -3.81904912       1.85253091      -0.26162636       0.01271934      -0.43782370
H        1.30850585       0.64725610      -2.09136133       0.38842785       1.05648283       0.50694687
H        0.32299298       2.46703123       1.70296569       0.42205216       0.05127661      -0.60712564
H       -2.00308541       1.54953896       0.84586014      -0.12032982      -0.69404754      -0.15558715
H       -3.40065364      -2.41615772       0.86724084      -0.64875385       0.02163383       0.12301121
H        1.08041938      -1.58053518      -1.51368372       0.23025995      -0.01638019      -0.41238380
H        1.87643178      -1.26843560       0.01005490      -0.14681974      -0.34836777       0.13788847
H        0.32991420      -5.09571481      -0.50956426       0.26320747       0.22840172       0.11674656
H       -0.04988430      -3.87625957      -1.76672439      -0.08144563      -0.20371243       0.62121296
H       -2.02307466      -4.10489059      -0.41445402       0.09107059      -0.33306780       0.53189458
H        2.59576543       4.00444298       3.10438713      -0.21001293      -0.37304062       0.00361747
H        3.99072846       5.12047939       2.77833446      -0.47635691      -0.25086503      -0.27897618
H        2.35014006       6.81543474       1.80829855      -0.31378370      -0.65739962      -0.29071694
H        0.94102650       5.63007335       1.99046239       0.61305211       0.01400744       0.48286966
H        3.38519009       5.26255111       0.26849386      -0.15422210      -1.33405342      -0.49849399
