46
Properties=species:S:1:pos:R:3:forces:R:3 id=39191 bond=N-P smiles="[H:23][C:9]1([C:10]([N:3]1[P:21](=[S:1])([N:4]2[C:11]([C:12]2([H:29])[H:30])([H:27])[H:28])[N:7]3[C:17]([C:18]([N:8]([C:20]([C:19]3([H:43])[H:44])([H:45])[H:46])[P:22](=[S:2])([N:5]4[C:13]([C:14]4([H:33])[H:34])([H:31])[H:32])[N:6]5[C:15]([C:16]5([H:37])[H:38])([H:35])[H:36])([H:41])[H:42])([H:39])[H:40])([H:25])[H:26])[H:24]" dataset=PubChem energy=-62039.52300621037 pbc="F F F"
S        1.64103476       2.11060639      -3.16154086      -0.35890249      -0.24446195       0.30312956
S        2.08430962      -3.20443360       1.98289645      -0.36076743      -0.23156298      -0.29768415
N        2.22257451       3.20318349      -0.37902546      -1.39559982       0.53145049      -0.85929224
N       -0.26874216       3.71910556      -1.35138714       1.13743924      -0.60728702       0.21759486
N       -1.55724477      -1.79171780       1.73007731       1.11015801       0.84395069       0.86823856
N        1.04537599      -1.28388814       4.10627639       0.08953285       0.61559992      -0.40698105
N        0.48569862       1.10605641      -0.53518331       0.42983876       1.57783241      -0.07857318
N        1.89647482      -0.20749132       1.65817297      -1.74910016      -0.49474149       1.39837943
C        3.55761150       2.70260056      -0.66329169       0.55671055       0.57038691       1.09304308
C        3.07906989       4.07346852      -1.16350937       3.53425142      -0.09390491       0.70665643
C       -0.02788933       4.75788529      -2.40107166      -1.13019699      -1.11025085      -0.83451724
C       -1.12108274       3.66275747      -2.52317679       0.57499140       1.28925934      -1.13481849
C       -1.94625103      -2.76667741       0.74482964      -0.03535336      -1.47193133       0.36721418
C       -2.17385816      -3.00204566       2.23908405       0.70876161      -1.28081339      -1.47913020
C        2.40635208      -1.38927499       4.65715277      -0.85648499      -1.94120019       1.23217329
C        1.25022895      -2.41715161       5.00987136       2.24045914       0.52608699       0.25340761
C        0.05871961       1.38269802       0.86047878       0.08330798      -1.33619475       0.17775250
C        1.18833802       1.08560093       1.86702526       0.17669311       0.55301846      -0.24103361
C        1.25963617      -0.16703502      -0.74365485       0.51480292       0.76133783      -0.57879096
C        2.38814632      -0.39338027       0.28609541      -1.24788263       0.29115785      -0.32904795
P        0.97079668       2.52451046      -1.35306561       0.78074525      -1.43032199      -0.74620676
P        1.14913173      -1.57969849       2.43559062      -0.83133635      -0.20268581      -1.72748377
H        4.20298294       2.63192733       0.24155497      -0.61382903       0.28705923      -0.74751888
H        3.68360857       1.85327442      -1.32281672      -0.18498394       0.42826915      -0.38441738
H        3.14324431       4.12460144      -2.24906575      -1.02907572      -0.13371970       0.23755521
H        3.62578110       4.93484910      -0.68749153      -1.27184306      -0.88396079      -0.11801691
H        0.79858957       4.66910823      -3.13495004      -0.51676748      -0.21584385       0.95943214
H       -0.31442960       5.77616580      -2.14414417      -0.00276528      -0.43460437       0.21907257
H       -2.15483280       3.99080475      -2.43831217       0.25350669      -0.23719697       0.49650979
H       -0.94996055       2.87735374      -3.28308189       0.07168890       0.57732440       0.65747009
H       -2.86642432      -2.65620354       0.13099174       0.87047212       0.67300029       0.33052281
H       -1.18827223      -3.40630034       0.24675813      -0.32727911       0.48035291       0.46550594
H       -1.61663913      -3.85754755       2.65161840       0.23343294       0.70646438      -0.06882359
H       -3.20166563      -3.04031208       2.56700961      -0.12629981       0.73751141       0.31694237
H        2.70901231      -0.74147646       5.47344958      -0.31313764       0.32143571      -0.41767331
H        3.19749073      -1.74919240       3.99196016      -0.41860801       0.12384188       0.34890044
H        1.38684056      -3.44423453       4.64877045      -0.19640712       0.73119738      -0.32329389
H        0.87477867      -2.38269440       6.05061376      -0.21440670       0.51418767      -1.06336795
H       -0.27921363       2.41377791       1.00838548       0.20516171      -0.19194777      -0.35828154
H       -0.79773160       0.72503025       1.10391748       0.38425993       0.20304353      -0.19944840
H        1.94692330       1.89676745       1.83439493      -0.45795408      -0.57409379       0.04645008
H        0.68883909       1.08535894       2.83132184       0.39464101      -0.07624136       0.28879894
H        1.69778065      -0.14805405      -1.77258265      -0.49524363       0.10022290       0.92337936
H        0.58347384      -0.99259560      -0.69249475      -0.69283556      -0.41967296       0.09075645
H        2.80323700      -1.38643877       0.20544732       0.00196586      -0.15082968      -0.14731929
H        3.14989141       0.32490783       0.04556686       0.47259975       0.31961511       0.54151812
