17
Properties=species:S:1:pos:R:3:forces:R:3 id=11017 bond=C-S smiles="[H:11][C:4]([H:12])([H:13])[N:2]([H:7])[C:6]([H:16])([H:17])[C:5]([H:14])([H:15])[S:1][C:3]([H:8])([H:9])[H:10]" dataset="DES370K Monomers" energy=-16652.59160382809 pbc="F F F"
S        0.43496815       1.00736097      -1.40569445       1.37661377      -1.04322352       0.45490355
N       -0.61306921      -1.50100172       2.18865069      -2.77317421       0.95043631       0.24613773
C        1.64784423       0.66547851      -2.78510328       0.90529277      -0.76005394       1.43961073
C       -1.28137652      -0.76127994       3.27468248      -0.11273439       1.04654171       0.02553439
C        1.39142009      -1.55410451       0.92469069       2.70360573      -1.58119008       2.00285757
C        0.78368296      -1.39057345       2.33349844       0.87079207       1.78973299      -3.43146142
H       -0.96639590      -1.09075935       1.32761195       0.62903343      -0.20152434      -0.08537381
H        2.54153565       0.00516523      -2.41450139      -1.89237792       1.10500157      -0.69311629
H        2.09636597       1.56289226      -3.22275110      -0.26612581       0.05693780       0.42010157
H        1.04142407       0.17967267      -3.52265378       0.24506143      -0.51629486      -0.50698473
H       -2.41024164      -0.75219583       3.20321890       1.37180655      -0.40904446       0.00421433
H       -0.93292193      -1.33041269       4.15389177      -0.57012364       0.97457202       0.23532046
H       -0.97057907       0.38555937       3.28326984      -0.35415262      -2.25888806       0.30991493
H        2.59893127      -1.58847237       0.92937505      -3.00809515       0.68354102      -0.55467599
H        0.95922842      -2.51009137       0.60725333       0.03372125       0.66963229      -1.29175073
H        1.13321223      -0.44352799       2.71495529       0.04540293       0.39354637       0.67144758
H        1.14269014      -2.20415098       2.90895721       0.79622486      -0.90114238       0.75220892
