17
Properties=species:S:1:pos:R:3:forces:R:3 id=11017 bond=C-S smiles="[H:11][C:4]([H:12])([H:13])[N:2]([H:7])[C:6]([H:16])([H:17])[C:5]([H:14])([H:15])[S:1][C:3]([H:8])([H:9])[H:10]" dataset="DES370K Monomers" energy=-16650.117729365495 pbc="F F F"
S        0.74161686       0.18612776      -0.65854807      -9.28482828      30.42618454     -27.20463835
N       -0.91971792      -0.67976851       1.44150431      -2.81553821       1.08317290       0.20053484
C        1.95449294      -0.15575470      -2.03795690       0.75967343      -0.17264221       0.57545538
C       -1.58802523       0.05995327       2.52753610      -0.09744112       1.03461845      -0.02130058
C        1.08477138      -0.73287130       0.17754431      12.07706702     -28.08447583      24.76057512
C        0.47703425      -0.56934024       1.58635206       1.22753881      -0.16747126      -1.28455096
H       -1.27304461      -0.26952614       0.58046557       0.45966015      -0.20888662      -0.00457890
H        2.84818436      -0.81606798      -1.66735501      -1.94487474       1.05508914      -0.50451236
H        2.40301468       0.74165905      -2.47560472      -0.40654189       0.00393875       0.22224762
H        1.34807278      -0.64156054      -2.77550740       0.26284146      -0.58525929      -0.62782144
H       -2.71689035       0.06903738       2.45607252       1.35691099      -0.41253950       0.00547076
H       -1.23957064      -0.50917948       3.40674539      -0.55775343       0.96986230       0.22962831
H       -1.27722778       1.20679258       2.53612346      -0.35377502      -2.26149975       0.31937291
H        2.29228256      -0.76723916       0.18222867      -2.20527028      -1.03377080       1.36757818
H        0.65257971      -1.68885816      -0.13989305       1.00177043      -1.55275663       0.68065192
H        0.82656352       0.37770522       1.96780891       0.08113847       0.50838993       0.39044386
H        0.83604143      -1.38291777       2.16181083       0.44083384      -0.60113030       0.89238490
