39
Properties=species:S:1:pos:R:3:forces:R:3 id=16728 bond=C-S smiles="[H:28][C:8]1([C:9]([O:2][C:13]([O:1]1)([C:4]([H:16])([H:17])[H:18])[C:15]([H:39])([C:7]([H:25])([H:26])[H:27])[C:11]([H:34])([H:35])[S:3][C:10]([H:32])([H:33])[C:12]([H:36])([H:37])[C:14]([H:38])([C:5]([H:19])([H:20])[H:21])[C:6]([H:22])([H:23])[H:24])([H:30])[H:31])[H:29]" dataset=PubChem energy=-27771.959722119613 pbc="F F F"
O        1.34055552       4.28537917       0.75756943      -1.41909000      -0.76987368      -1.55031884
O        0.98249897       2.47831774      -0.73089084      -2.40179863       0.37387330       0.12867205
S       -1.99674859       1.10747510       0.54640421       0.62247012      -2.49468230       0.39563966
C        0.76062313       4.76942396      -1.51940617      -1.14534255      -2.14042582       0.49457417
C        0.99019715      -4.49641080       2.17759647      -1.40100262      -0.86185033       0.49192039
C        0.91651699      -4.79740520      -0.30122886       0.48579918      -0.31399311      -0.99434839
C       -1.45633211       4.90425658       0.68616652      -2.55235546       0.60420230       1.97162651
C        2.29655561       3.31383968       0.93407168       0.40691371      -3.10483771       1.54904911
C        2.24162731       2.25082278      -0.26317904       0.15373267       2.07525468       2.49222208
C        0.14115847      -1.30945488       1.32044490       0.90484097      -1.95310168      -0.28156202
C       -1.14850845       2.48533499       1.21358039      -0.97623113       1.14276773       0.98696776
C       -0.33201747      -2.70846911       0.84864505       0.02407270       0.22352169      -0.69204206
C        0.48398397       3.77385068      -0.30631045       0.45314433       0.23090077      -1.50755198
C        0.88863703      -3.78486962       0.87060060      -1.21752803      -0.11113505      -0.88336997
C       -0.97841754       3.58086753       0.15385359       1.36950828       0.62214580      -2.08086846
H        0.48019657       5.75730085      -1.27093551      -0.14615062       0.97005203       0.12656583
H        1.79248247       4.66526341      -1.69873915       1.48640365       0.36359025       0.20054476
H        0.37316221       4.45327258      -2.49451003      -0.73386984      -0.02789454       0.52044750
H        1.60896427      -5.38482709       2.10483279       0.37197844       0.14851944       0.04778060
H        1.36346806      -3.83857723       2.94007887      -0.01883576       0.08826060       0.61261006
H       -0.02517455      -4.90692515       2.44853772       0.94241397       0.58149647       0.01717723
H        1.45372678      -4.29910703      -1.22372852      -1.71895220      -1.04120993       1.49303565
H        1.56394572      -5.74132819      -0.09042309      -1.19748641       1.72707279      -0.04003646
H       -0.14469116      -5.11591001      -0.43583284       0.97771606      -0.01412552      -0.71860914
H       -1.21444836       5.90762329       0.36636874       0.84536487      -0.26393210      -1.12289122
H       -2.56769767       4.88356066       0.54852058       0.67812745       0.12043793       0.67054128
H       -1.22319117       4.99079418       1.78879072      -0.42649300      -0.39234926      -1.09455650
H        3.23714909       3.77221561       1.10071763       1.04854235       0.29627084      -0.06550695
H        2.04455146       2.71388245       1.84850278       0.30409088       0.50322318      -0.39583048
H        2.90120014       2.55995703      -0.99197325       1.99822608       0.29893033      -1.64750532
H        2.44233260       1.22556774       0.04324367      -0.29100782       0.06801881       0.08864700
H        0.99339964      -0.98064579       0.72270353      -0.64751779       0.73124243      -0.20034928
H        0.47510625      -1.36277648       2.38385310      -1.02618374       0.78475682      -0.57438713
H       -1.59892466       2.83216059       2.19431176      -0.03852126      -0.02505362      -1.41456573
H       -0.21376273       2.18271387       1.56702283       1.69194839      -0.64694891       0.17801909
H       -1.07538562      -3.06408973       1.55913581      -0.20473332      -0.07930442      -0.28575065
H       -0.76178615      -2.69176145      -0.19520030       0.43421350       0.13420430       1.20063979
H        1.73151178      -3.23178597       0.65072761       2.04421513       1.39495500       0.27794471
H       -1.47353509       3.23991537      -0.82708022       0.32371994       0.75887659       1.60586261
