39
Properties=species:S:1:pos:R:3:forces:R:3 id=16728 bond=C-S smiles="[H:28][C:8]1([C:9]([O:2][C:13]([O:1]1)([C:4]([H:16])([H:17])[H:18])[C:15]([H:39])([C:7]([H:25])([H:26])[H:27])[C:11]([H:34])([H:35])[S:3][C:10]([H:32])([H:33])[C:12]([H:36])([H:37])[C:14]([H:38])([C:5]([H:19])([H:20])[H:21])[C:6]([H:22])([H:23])[H:24])([H:30])[H:31])[H:29]" dataset=PubChem energy=-27774.82433214376 pbc="F F F"
O        1.91478676       3.63620376       0.96547292      -1.44914551      -0.78800396      -1.57375347
O        1.55673021       1.82914233      -0.52298735      -2.51490613       0.26743677       0.11352915
S       -1.42251735       0.45829969       0.75430770      -8.43550845       6.52265468      -1.89262888
C        1.33485437       4.12024855      -1.31150268      -1.14526762      -2.15406039       0.49531976
C        0.41596591      -3.84723539       1.96969298      -1.35282583      -0.90861785       0.44085462
C        0.34228575      -4.14822979      -0.50913235       0.57347003      -0.37234862      -0.87097241
C       -0.88210087       4.25508117       0.89407001      -2.53111570       0.65726436       1.93933296
C        2.87078685       2.66466427       1.14197517       0.41402105      -3.11413025       1.55038000
C        2.81585855       1.60164737      -0.05527555       0.27513261       2.04199372       2.52291467
C       -0.43307277      -0.66027947       1.11254141       6.90774185      -7.31184434       1.53490695
C       -0.57427721       1.83615958       1.42148388      -0.95090968       1.69699743       0.90314738
C       -0.90624871      -2.05929370       0.64074156       1.37875413      -1.28494140      -0.66351937
C        1.05821521       3.12467527      -0.09840696       0.42399093       0.33121012      -1.46832833
C        0.31440579      -3.13569421       0.66269711      -1.71427376      -0.08544727      -1.02562672
C       -0.40418630       2.93169212       0.36175708       1.28050984       0.67013557      -1.94549360
H        1.05442781       5.10812544      -1.06303202      -0.14625588       0.96383320       0.12973870
H        2.36671371       4.01608800      -1.49083566       1.48396654       0.36510660       0.20065373
H        0.94739345       3.80409717      -2.28660654      -0.73326985      -0.02607219       0.51915524
H        1.03473303      -4.73565168       1.89692930       0.38238009       0.12355782       0.07350828
H        0.78923682      -3.18940182       2.73217538      -0.02359929       0.10039360       0.61012657
H       -0.59940579      -4.25774974       2.24063423       0.92897512       0.57554001       0.02354630
H        0.87949554      -3.64993162      -1.43163201      -1.71371249      -1.03417006       1.48134445
H        0.98971448      -5.09215278      -0.29832658      -1.19630291       1.69126454      -0.07847455
H       -0.71892240      -4.46673460      -0.64373633       0.96350085      -0.02071636      -0.72287950
H       -0.64021712       5.25844788       0.57427223       0.83827870      -0.26290674      -1.12040928
H       -1.99346643       4.23438525       0.75642407       0.68148647       0.11901536       0.67001057
H       -0.64895993       4.34161877       1.99669421      -0.42476735      -0.39509499      -1.09915534
H        3.81138033       3.12304020       1.30862112       1.04361633       0.28958431      -0.06770801
H        2.61878270       2.06470704       2.05640627       0.30752371       0.50411896      -0.39956128
H        3.47543138       1.91078162      -0.78406976       1.97843094       0.30080267      -1.64397057
H        3.01656384       0.57639233       0.25114716      -0.29404365       0.07139197       0.08629431
H        0.41916840      -0.33147038       0.51480004       1.05681114      -1.09179028       0.32576263
H       -0.09912499      -0.71360107       2.17594961      -0.31985288      -0.16942235      -0.55224491
H       -1.02469342       2.18298518       2.40221525      -0.03997349      -0.01503243      -1.44875039
H        0.36046851       1.53353846       1.77492632       1.68257437      -0.71188806       0.12124026
H       -1.64961686      -2.41491432       1.35123232      -0.27773085      -0.00236999      -0.25421052
H       -1.33601739      -2.04258604      -0.40310379       0.36504941       0.23356396       1.17148481
H        1.15728054      -2.58261056       0.44282412       1.96339543       1.45367211       0.29241325
H       -0.89930385       2.59073996      -0.61917673       0.32994768       0.76950167       1.62498438
