39
Properties=species:S:1:pos:R:3:forces:R:3 id=16728 bond=C-S smiles="[H:28][C:8]1([C:9]([O:2][C:13]([O:1]1)([C:4]([H:16])([H:17])[H:18])[C:15]([H:39])([C:7]([H:25])([H:26])[H:27])[C:11]([H:34])([H:35])[S:3][C:10]([H:32])([H:33])[C:12]([H:36])([H:37])[C:14]([H:38])([C:5]([H:19])([H:20])[H:21])[C:6]([H:22])([H:23])[H:24])([H:30])[H:31])[H:29]" dataset=PubChem energy=-27767.520037983435 pbc="F F F"
O        2.00313002       3.53633062       0.99745807      -1.43632775      -0.79706606      -1.57454336
O        1.64507347       1.72926919      -0.49100220      -2.54732652       0.24122225       0.09641974
S       -1.33417409       0.35842655       0.78629285     -32.79771476      33.50126601      -9.85315955
C        1.42319763       4.02037541      -1.27951753      -1.13884465      -2.16059672       0.49509704
C        0.32762265      -3.74736225       1.93770783      -1.35726345      -0.90454146       0.44931952
C        0.25394249      -4.04835665      -0.54111750       0.56339541      -0.36582101      -0.87737872
C       -0.79375761       4.15520803       0.92605516      -2.53156318       0.68398151       1.92842266
C        2.95913011       2.56479113       1.17396032       0.40949711      -3.10888501       1.55051381
C        2.90420181       1.50177423      -0.02329040       0.29467517       2.02320808       2.53304750
C       -0.52141603      -0.56040633       1.08055626      29.39386302     -32.72128084       9.11650593
C       -0.48593395       1.73628644       1.45346903      -1.17041553       2.33862828       0.69802011
C       -0.99459197      -1.95942056       0.60875641       1.68108121      -2.03759428      -0.69518434
C        1.14655847       3.02480213      -0.06642181       0.39411558       0.38145006      -1.45026414
C        0.22606253      -3.03582107       0.63071196      -1.65528941      -0.12835956      -1.01788693
C       -0.31584304       2.83181898       0.39374223       1.30634436       0.72439490      -1.89712174
H        1.14277107       5.00825230      -1.03104687      -0.14772708       0.96162931       0.13130835
H        2.45505697       3.91621486      -1.45885051       1.48510431       0.36734046       0.19859254
H        1.03573671       3.70422403      -2.25462139      -0.73367521      -0.02533183       0.51880645
H        0.94638977      -4.63577854       1.86494415       0.37827218       0.12201280       0.06753256
H        0.70089356      -3.08952868       2.70019023      -0.02875472       0.10205618       0.60080696
H       -0.68774905      -4.15787660       2.20864908       0.92697546       0.57090977       0.02698701
H        0.79115228      -3.55005848      -1.46361716      -1.71392494      -1.03347277       1.48190404
H        0.90137122      -4.99227964      -0.33031173      -1.20132469       1.69644969      -0.07611316
H       -0.80726566      -4.36686146      -0.67572148       0.96234280      -0.02831917      -0.72738344
H       -0.55187386       5.15857474       0.60625738       0.83490549      -0.25370100      -1.12452109
H       -1.90512317       4.13451211       0.78840922       0.68404188       0.11546837       0.66956668
H       -0.56061667       4.24174563       2.02867936      -0.42428135      -0.39438710      -1.10252515
H        3.89972359       3.02316706       1.34060627       1.04483909       0.28855620      -0.06884045
H        2.70712596       1.96483390       2.08839142       0.30753107       0.50401353      -0.40093707
H        3.56377464       1.81090848      -0.75208461       1.97249478       0.30313917      -1.64525734
H        3.10490710       0.47651919       0.28313231      -0.29976151       0.07435964       0.08482093
H        0.33082514      -0.23159724       0.48281489       2.32379864      -1.96145061       0.41508331
H       -0.18746825      -0.61372793       2.14396446       0.22345878      -0.91396085      -0.11761084
H       -0.93635016       2.08311204       2.43420040      -0.05273820      -0.04159272      -1.40841491
H        0.44881177       1.43366532       1.80691147       1.68661924      -0.76898915       0.08377128
H       -1.73796012      -2.31504118       1.31924717      -0.26768260       0.10409747      -0.22080994
H       -1.42436065      -1.94271290      -0.43508894       0.36989071       0.31613155       1.18318408
H        1.06893728      -2.48273742       0.41083897       1.93136777       1.45149073       0.29932601
H       -0.81096059       2.49086682      -0.58719158       0.32773651       0.77590806       1.63077745
