39
Properties=species:S:1:pos:R:3:forces:R:3 id=16728 bond=C-S smiles="[H:28][C:8]1([C:9]([O:2][C:13]([O:1]1)([C:4]([H:16])([H:17])[H:18])[C:15]([H:39])([C:7]([H:25])([H:26])[H:27])[C:11]([H:34])([H:35])[S:3][C:10]([H:32])([H:33])[C:12]([H:36])([H:37])[C:14]([H:38])([C:5]([H:19])([H:20])[H:21])[C:6]([H:22])([H:23])[H:24])([H:30])[H:31])[H:29]" dataset=PubChem energy=-27776.098893690607 pbc="F F F"
O        1.82644349       3.73607690       0.93348777      -1.45374482      -0.77999447      -1.57255933
O        1.46838694       1.92901547      -0.55497250      -2.48622604       0.29609483       0.12091428
S       -1.51086062       0.55817283       0.72232255      -1.15507910      -1.39752413       0.26100789
C        1.24651110       4.22012169      -1.34348783      -1.14835062      -2.14931613       0.49552431
C        0.50430918      -3.94710853       2.00167813      -1.35184218      -0.90997062       0.44229213
C        0.43062902      -4.24810293      -0.47714720       0.57068087      -0.36737910      -0.88021298
C       -0.97044414       4.35495431       0.86208486      -2.53579099       0.63915222       1.94848571
C        2.78244358       2.76453741       1.10999002       0.41514302      -3.11628864       1.55097366
C        2.72751528       1.70152051      -0.08726070       0.25123679       2.05679045       2.51416379
C       -0.34472950      -0.76015261       1.14452656       0.73958032      -0.59478515      -0.47354441
C       -0.66262048       1.93603272       1.38949873      -0.78798867       1.42457880       1.04567940
C       -0.81790544      -2.15916684       0.67272671       1.08110321      -0.83870222      -0.67476155
C        0.96987194       3.22454841      -0.13039211       0.44518564       0.29571434      -1.48166948
C        0.40274906      -3.23556735       0.69468226      -1.70151903      -0.05295276      -1.00720526
C       -0.49252957       3.03156526       0.32977193       1.27779222       0.62651261      -1.97479306
H        0.96608454       5.20799858      -1.09501717      -0.14547555       0.96559681       0.12854074
H        2.27837044       4.11596114      -1.52282081       1.48355458       0.36384417       0.20166715
H        0.85905018       3.90397031      -2.31859169      -0.73309885      -0.02658599       0.51933970
H        1.12307630      -4.83552482       1.92891445       0.38322764       0.12622725       0.07462468
H        0.87758009      -3.28927496       2.76416053      -0.02123390       0.09802522       0.61448477
H       -0.51106252      -4.35762288       2.27261938       0.93097093       0.57857347       0.02137315
H        0.96783881      -3.74980476      -1.39964686      -1.71421817      -1.03530165       1.48210769
H        1.07805775      -5.19202592      -0.26634143      -1.19486518       1.69307406      -0.07565502
H       -0.63057913      -4.56660774      -0.61175118       0.96517201      -0.01675558      -0.72064143
H       -0.72856039       5.35832102       0.54228708       0.84066348      -0.26762318      -1.11952076
H       -2.08180970       4.33425839       0.72443892       0.68012026       0.12119487       0.67045882
H       -0.73730320       4.44149191       1.96470906      -0.42515358      -0.39540456      -1.09778885
H        3.72303706       3.22291334       1.27663597       1.04340926       0.29072607      -0.06713500
H        2.53043943       2.16458018       2.02442112       0.30700900       0.50427375      -0.39881149
H        3.38708811       2.01065476      -0.81605491       1.98341436       0.29873792      -1.64358286
H        2.92822057       0.67626547       0.21916201      -0.28882999       0.06900449       0.08758811
H        0.50751167      -0.43134352       0.54678519       0.30506774      -0.45242924       0.19933168
H       -0.01078172      -0.81347421       2.20793476      -0.62752739       0.27390244      -0.67388375
H       -1.11303669       2.28285832       2.37023010      -0.04294682      -0.01208183      -1.46708109
H        0.27212524       1.63341160       1.74294117       1.68391024      -0.67476016       0.14502855
H       -1.56127359      -2.51478746       1.38321747      -0.26714183      -0.04583110      -0.27091085
H       -1.24767412      -2.14245918      -0.37111864       0.37439329       0.19836816       1.17812265
H        1.24562381      -2.68248370       0.47480927       1.99022051       1.44957313       0.28658602
H       -0.98764712       2.69061310      -0.65116188       0.32778368       0.76452424       1.61402540
