11
Properties=species:S:1:pos:R:3:forces:R:3 id=41313 bond=C-C smiles="[H:6][C:3]([H:7])([H:8])[C:5]([H:10])([H:11])[C:4]([H:9])([Cl:1])[Cl:2]" dataset="DES370K Monomers" energy=-28256.98245084862 pbc="F F F"
Cl       1.00548607      -1.47028421      -1.40988656       0.05101446      -0.91624178      -0.77886767
Cl       2.78423595       0.17098052       0.15766392      -0.05887481       0.10218468       0.11704429
C        0.00051308       2.36283754       1.37113495       0.02324331      -1.63693955      -1.07877441
C        1.11835050      -0.41459533      -0.02737667      -0.81726807       1.15736913       0.79376509
C        0.10376465       0.70010652      -0.31754019       0.47222458       1.92416053       1.96278586
H       -0.12536704       1.90938066       2.36099668      -0.11512225      -0.43457841      -0.63294025
H        0.91459513       2.93073796       1.39848550       0.55801363      -0.27694904      -0.57248420
H       -0.80722296       3.06171893       1.17393990      -0.23089709      -0.49868945      -0.48414755
H        0.86510884      -1.00463317       0.86454133       0.16828971       0.40425956      -0.40991790
H        0.31004670       1.22025551      -1.25829019       0.29264702       0.15203092       0.59670240
H       -0.88461029       0.28140719      -0.39906354      -0.34717822       0.02368730       0.48906059
