11
Properties=species:S:1:pos:R:3:forces:R:3 id=41313 bond=C-C smiles="[H:6][C:3]([H:7])([H:8])[C:5]([H:10])([H:11])[C:4]([H:9])([Cl:1])[Cl:2]" dataset="DES370K Monomers" energy=-28260.07885050764 pbc="F F F"
Cl       0.98744211      -1.17970986      -1.11477828       0.19861168      -1.06998088      -0.70613290
Cl       2.76619199       0.46155487       0.45277220      -0.03487150       0.13122356       0.13981553
C        0.01855704       2.07226319       1.07602667       0.15619831      -0.59216284       0.06393474
C        1.10030654      -0.12402098       0.26773161      -0.90117971       0.57143163       0.00454066
C        0.08572069       0.99068087      -0.02243191       0.28632438       1.34136825       1.04954242
H       -0.10732308       1.61880631       2.06588840      -0.15183027       0.15120924      -0.17881928
H        0.93263909       2.64016361       1.10337722       0.36675976       0.19464074       0.01989273
H       -0.78917900       2.77114458       0.87883162      -0.12826623      -0.09223116       0.04842337
H        0.84706488      -0.71405882       1.15964961       0.15919409       0.41623765      -0.34652623
H        0.29200274       1.51082986      -0.96318191       0.24726478      -0.50150135       0.04842902
H       -0.90265425       0.57198154      -0.10395526      -0.20226064      -0.54979172      -0.14041789
