11
Properties=species:S:1:pos:R:3:forces:R:3 id=41313 bond=C-C smiles="[H:6][C:3]([H:7])([H:8])[C:5]([H:10])([H:11])[C:4]([H:9])([Cl:1])[Cl:2]" dataset="DES370K Monomers" energy=-28248.153760473746 pbc="F F F"
Cl       0.97541280      -0.98599362      -0.91803943       0.30417059      -1.21651401      -0.72346253
Cl       2.75416268       0.65527111       0.64951105      -0.09872675       0.15082194       0.14332499
C        0.03058635       1.87854695       0.87928782      -2.70586985      47.18535809      48.13432392
C        1.08827723       0.06969526       0.46447046      -0.16144136      -1.01484051      -1.14405137
C        0.07369138       1.18439711       0.17430694       2.63425242     -45.41627578     -46.80425246
H       -0.09529377       1.42509007       1.86914955      -0.38418758       0.94150640       1.13642848
H        0.94466840       2.44644737       0.90663837       0.58029249       1.27838006       1.17763423
H       -0.77714969       2.57742834       0.68209277      -0.10085875       1.04204533       0.98423200
H        0.83503557      -0.52034258       1.35638846       0.03315319       0.50517349      -0.25624106
H        0.27997343       1.70454610      -0.76644306       0.25740762      -1.41841844      -1.41617004
H       -0.91468356       0.76569778       0.09278359      -0.36166751      -2.03753566      -1.22909717
