11
Properties=species:S:1:pos:R:3:forces:R:3 id=41313 bond=C-C smiles="[H:6][C:3]([H:7])([H:8])[C:5]([H:10])([H:11])[C:4]([H:9])([Cl:1])[Cl:2]" dataset="DES370K Monomers" energy=-28259.957183447554 pbc="F F F"
Cl       0.98944699      -1.21199590      -1.14756809       0.18114216      -1.05012720      -0.71193747
Cl       2.76819687       0.42926883       0.41998239      -0.03798192       0.13053108       0.13849169
C        0.01655216       2.10454923       1.10881648       0.19252667      -1.66079458      -1.02179938
C        1.10231142      -0.15630702       0.23494180      -0.91455855       0.68523109       0.12968887
C        0.08772557       0.95839483      -0.05522172       0.26943936       2.32873094       2.09812123
H       -0.10932796       1.65109235       2.09867821      -0.13982058       0.05723610      -0.27479148
H        0.93063421       2.67244965       1.13616703       0.38459984       0.10113705      -0.08751994
H       -0.79118388       2.80343062       0.91162143      -0.14111592      -0.17604717      -0.04458882
H        0.84906976      -0.74634486       1.12685980       0.16463550       0.41209920      -0.35717261
H        0.29400762       1.47854382      -0.99597172       0.25009744      -0.39541897       0.16358472
H       -0.90064937       0.53969550      -0.13674507      -0.21329816      -0.43188602      -0.02929440
