32
Properties=species:S:1:pos:R:3:forces:R:3 id=47844 bond=C-N smiles="[H:17][C:8]1=[C:7]([C:12]([N:10]([C:16]([C:14]1([H:27])[H:28])([H:31])[H:32])[C:11]([H:20])([H:21])[H:22])([H:23])[H:24])[C:6]2=[N:2][S:4][N:1]=[C:5]2[O:3][C:13]([H:25])([H:26])[C:15]([H:29])([H:30])[N:9]([H:18])[H:19]" dataset=PubChem energy=-29480.215314294885 pbc="F F F"
N       -1.39974726       0.67391913      -2.62074670       0.66168278       0.02009678       2.88971072
N       -1.35508812       2.56293063      -0.89448879       1.26812784      -1.11856046      -1.49160242
O       -0.69031758      -0.97910423      -1.02178499      -0.18123233       1.24636446      -0.53114006
S       -1.63196612       2.33998589      -2.56571326      -0.23571280      -0.97894338       1.76130258
C       -1.03104866       0.29946440      -1.37416706       0.68546954       0.42857986      -1.71156353
C       -0.84508801       1.43145554      -0.40502760      -1.99549996       0.60863333      -0.84469810
C       -0.36884359       1.42677479       0.98131105       2.95026463      -3.17255135       0.75559989
C        0.50610846       0.39952097       1.39226553      -2.15057971       2.35059773      -2.65823236
N        0.19068005      -4.14398760      -2.58884892      -0.00406544      -0.56055148       1.48846951
N        0.26267957       2.52465015       3.15422597       1.30184622       1.59534061       1.56933618
C        2.46566145       3.91295242       3.05298461       0.08494053       0.34417769       1.12596678
C       -0.49097520       2.59805732       1.88316479      -0.18913384       1.08341190       0.98924495
C       -0.82206112      -2.09992571      -1.92130956      -0.59148180       0.75569825      -0.54632752
C        0.97656673       0.20980239       2.77184024       0.66437134      -1.58005283       0.64479091
C        0.09808231      -3.21110673      -1.45504460       0.69647184       1.09761045      -1.17221757
C        0.45680687       1.21197217       3.80888500       0.43767220      -0.80170949      -0.93609975
H        0.80894130      -0.27143259       0.55840609      -0.23544565       0.13232393       1.25407342
H       -0.60662884      -4.16155142      -3.21195325       0.44874872       0.16579467       0.11349860
H        1.08152520      -4.09543318      -3.02271518       0.21936149       0.00416279      -0.68163791
H        3.35642616       3.51223206       2.54620947      -0.92131601      -0.30815311      -0.41891963
H        2.78432386       3.94432186       4.14572777      -1.25728796      -0.11775723      -1.27690709
H        2.15846865       4.93053483       2.65115894      -0.12056412      -1.70349473       0.51262439
H       -0.16811084       3.53549724       1.36802950      -0.13992478      -0.85959301       0.32539769
H       -1.55179274       2.84916978       2.17269983       0.73119575      -0.46447992      -0.18152374
H       -1.85808039      -2.40506763      -1.88782963      -0.42968643      -0.33722689       0.37333525
H       -0.71598041      -1.91807193      -3.01492199       0.72223153       0.72348330       0.94545124
H        0.55980819      -0.78335506       3.03660550       0.31808552       0.17428109       0.09618808
H        2.05760705       0.04769575       2.83292809      -0.01547999       0.30380743      -0.21350592
H        1.10662090      -2.76495833      -1.16300413      -1.23461635      -0.73630666      -0.64752562
H       -0.32171858      -3.63822455      -0.56837127      -0.11000550      -0.58278142       0.47915229
H        1.06850278       1.06899380       4.82475152      -1.29871926       1.27826578      -2.34470249
H       -0.53444606       0.75011300       3.99169984      -0.07483798       1.00434038       0.33399540
