32
Properties=species:S:1:pos:R:3:forces:R:3 id=47844 bond=C-N smiles="[H:17][C:8]1=[C:7]([C:12]([N:10]([C:16]([C:14]1([H:27])[H:28])([H:31])[H:32])[C:11]([H:20])([H:21])[H:22])([H:23])[H:24])[C:6]2=[N:2][S:4][N:1]=[C:5]2[O:3][C:13]([H:25])([H:26])[C:15]([H:29])([H:30])[N:9]([H:18])[H:19]" dataset=PubChem energy=-29481.7798893969 pbc="F F F"
N       -1.21145821       0.79257745      -2.62939981       0.66279762       0.01495424       2.88491012
N       -1.16679907       2.68158895      -0.90314190       1.27124948      -1.11613378      -1.49324215
O       -0.50202853      -0.86044591      -1.03043810      -0.18211207       1.24253580      -0.53549166
S       -1.44367707       2.45864421      -2.57436637      -0.23561550      -0.97867227       1.76043682
C       -0.84275961       0.41812272      -1.38282017       0.68175605       0.42945664      -1.71067678
C       -0.65679896       1.55011386      -0.41368071      -2.00445511       0.60920837      -0.83456483
C       -0.18055454       1.54543311       0.97265794       3.02741044      -3.13048314       0.78193225
C        0.69439751       0.51817929       1.38361242      -2.14138262       2.34654423      -2.66140032
N        0.37896910      -4.02532928      -2.59750203      -0.00336917      -0.56229863       1.48769800
N        0.45096862       2.64330847       3.14557286       2.77497155       2.26643650       1.33510548
C        2.27737240       3.79429410       3.06163772      -1.36761707      -0.54225471       1.26021273
C       -0.30268615       2.71671564       1.87451168      -0.53213447       1.33638237       1.02659575
C       -0.63377207      -1.98126739      -1.92996267      -0.59148620       0.75947198      -0.54399067
C        1.16485578       0.32846071       2.76318713       0.71016877      -1.52213786       0.69013457
C        0.28637136      -3.09244841      -1.46369771       0.69573136       1.09820830      -1.17129334
C        0.64509592       1.33063049       3.80023189       0.26520287      -0.95746960      -0.79943017
H        0.99723035      -0.15277427       0.54975298      -0.24296583       0.12292978       1.25362628
H       -0.41833979      -4.04289310      -3.22060636       0.44874633       0.16620560       0.11355944
H        1.26981425      -3.97677486      -3.03136829       0.21902880       0.00435111      -0.68171661
H        3.16813711       3.39357374       2.55486258      -0.93113201      -0.32188578      -0.42571494
H        2.59603481       3.82566354       4.15438088      -1.12153788       0.01926768      -1.33996567
H        1.97017960       4.81187651       2.65981205       0.03216536      -1.67187469       0.57240369
H        0.02017821       3.65415556       1.35937639      -0.14116222      -0.88365224       0.28100008
H       -1.36350369       2.96782810       2.16404672       0.73399393      -0.52298477      -0.31109230
H       -1.66979134      -2.28640931      -1.89648274      -0.42978240      -0.33754207       0.37325355
H       -0.52769136      -1.79941361      -3.02357510       0.72206232       0.72310154       0.94493043
H        0.74809724      -0.66469674       3.02795239       0.32304657       0.16860959       0.09991233
H        2.24589610       0.16635407       2.82427498       0.00013701       0.27677113      -0.23347977
H        1.29490995      -2.64630001      -1.17165724      -1.23479015      -0.73619559      -0.64727618
H       -0.13342953      -3.51956623      -0.57702438      -0.10968912      -0.58239789       0.47896047
H        1.25679183       1.18765212       4.81609841      -1.29027553       1.25254729      -2.34546160
H       -0.34615701       0.86877132       3.98304673      -0.00528953       1.02435623       0.39014319
