24
Properties=species:S:1:pos:R:3:forces:R:3 id=43376 bond=C-N smiles="[H:16][C:7]1=[C:3]([S:1][C:5](=[C:9]([C:12]1([H:21])[H:22])[H:18])[N:11]([H:20])[C:6]2=[C:10]([C:13]([C:8](=[C:4]([S:2]2)[H:15])[H:17])([H:23])[H:24])[H:19])[H:14]" dataset=PubChem energy=-33718.00158383145 pbc="F F F"
S        0.41492235       2.78155413       0.11613305       0.02237198      -0.48501753       0.26457264
S       -0.68521478       0.46112856       1.97932267      -0.82643020       0.75646708      -0.48877124
C       -0.48220497       3.34969058      -1.27932294       0.63815509      -0.58452512      -2.88043094
C       -1.14423468      -0.57418953       3.30406785       3.31327860      -2.17216023       1.26929088
C        0.90603159       1.17166874      -0.48266526       1.12573173      -0.69578098      -4.31794993
C        0.86182136      -0.17059342       1.42574942      -0.32850683      -5.67382930      11.12901416
C       -0.18439393       2.94304147      -2.56103273      -1.12291993       1.14255772       2.11729941
C       -0.23910954      -1.35927247       3.96732688      -1.89295826       0.79076976      -0.35578537
C        1.09948040       0.92410430      -1.84079714      -1.13379831       1.01475095       3.27077991
C        1.61731146      -1.07487844       2.22779799      -3.74721559       2.48966563      -0.30289816
N        1.35590685       0.14742878       0.35086970       2.99463046       2.88232900      -8.55769597
C        0.89471880       1.94996157      -2.87953206      -0.39951791      -0.00045648      -1.06518688
C        1.22608206      -1.42918228       3.63659740      -0.15085896      -1.11507929      -0.31743209
H       -1.25490921       4.10867205      -1.13138111       0.36868513      -0.40644932       0.29008960
H       -2.15154722      -0.62507211       3.61171246      -1.02267132       0.39852197      -0.11851174
H       -0.79484051       3.39678445      -3.36537810       0.51838811      -0.51502412       0.48226727
H       -0.62597825      -1.98295508       4.82117772       0.50783085       0.70629044      -1.04365338
H        1.42331029      -0.05589131      -2.11775942       0.03074638      -0.43418201      -0.16542148
H        2.53991947      -1.42309068       1.86746860       1.01414643      -0.34066945      -0.51465797
H        2.05016036      -0.49968680      -0.06942483      -0.78034945       1.08702163       0.53805177
H        1.83343060       2.44897726      -3.04527254       0.55027071       0.63613490      -0.14394691
H        0.67692861       1.47802499      -3.84946032      -0.02489195       0.05351304       0.32528945
H        1.77511308      -0.83237301       4.35357165       0.24029576       0.21208702       0.35970627
H        1.52332321      -2.47493826       3.80020738       0.10466232       0.24603670       0.22763570
