24
Properties=species:S:1:pos:R:3:forces:R:3 id=43376 bond=C-N smiles="[H:16][C:7]1=[C:3]([S:1][C:5](=[C:9]([C:12]1([H:21])[H:22])[H:18])[N:11]([H:20])[C:6]2=[C:10]([C:13]([C:8](=[C:4]([S:2]2)[H:15])[H:17])([H:23])[H:24])[H:19])[H:14]" dataset=PubChem energy=-33713.42606118876 pbc="F F F"
S        0.73383209       2.98682300      -0.57765295      -0.15724681      -0.86602419       0.43385391
S       -1.00412452       0.25585969       2.67310867       0.41838808       0.58473687      -1.13216665
C       -0.16329523       3.55495945      -1.97310894       0.59434917      -0.55390435      -2.83832257
C       -1.46314442      -0.77945840       3.99785385       2.83161154      -2.16080234       1.10507534
C        1.22494133       1.37693761      -1.17645126       1.18668313      -3.17521392      -1.06324050
C        0.54291162      -0.37586229       2.11953542       1.51283140      -2.72888363       2.77775041
C        0.13451581       3.14831034      -3.25481873      -1.15048861       1.23568143       2.15647535
C       -0.55801928      -1.56454134       4.66111288      -1.89752981       0.85444234      -0.42491407
C        1.41839014       1.12937317      -2.53458314      -1.08969898       0.97945118       1.68182407
C        1.29840172      -1.28014731       2.92158399      -3.12640171       3.53418211      -2.63482603
N        1.67481659       0.35269765      -0.34291630       0.59493857       2.62988437       1.31950837
C        1.21362854       2.15523044      -3.57331806      -0.32989014      -0.06279817      -0.91944360
C        0.90717232      -1.63445115       4.33038340      -0.21107840      -0.53564655       0.08779189
H       -0.93599947       4.31394092      -1.82516711       0.35470321      -0.39441394       0.23725494
H       -2.47045696      -0.83034098       4.30549846      -1.06255224       0.28173328      -0.07261665
H       -0.47593077       3.60205332      -4.05916410       0.55741968      -0.52598955       0.46202957
H       -0.94488799      -2.18822395       5.51496372       0.56158881       0.72798066      -1.02316650
H        1.74222003       0.14937756      -2.81154542      -0.10728291      -0.41535264      -0.12991418
H        2.22100973      -1.62835955       2.56125460       0.85974375      -0.67396908      -0.58859546
H        2.36907010      -0.29441793      -0.76321083      -1.48219153       0.19494630       0.07615004
H        2.15234034       2.65424613      -3.73905854       0.60712274       0.63681404      -0.16719432
H        0.99583835       1.68329386      -4.54324632       0.03518063       0.00005242       0.32563665
H        1.45620334      -1.03764188       5.04735765       0.27881399       0.15686074       0.33742675
H        1.20441347      -2.68020713       4.49399338       0.22109148       0.27444095      -0.00897296
