18
Properties=species:S:1:pos:R:3:forces:R:3 id=5882 bond=C-C smiles="[H:16][C:10](=[C:11]([H:18])[C:13]([C:15]([C:14]([C:12]([F:1])([F:2])[I:9])([F:5])[F:6])([F:7])[F:8])([F:3])[F:4])[H:17]" dataset=PubChem energy=-36121.70555970805 pbc="F F F"
F        4.27125945      -0.55827838      -0.55580927      -1.30668531       0.42071396      -0.30369051
F        2.68747428      -1.02416486      -2.02616627       0.15251447       0.73135274       1.31930268
F       -0.64541481       2.94339477       0.84104133       0.12439130      -2.06943080      -0.59966495
F       -2.24648295       1.53550814       0.33827301       1.24708233      -0.39002055      -0.71885041
F        2.39777651       1.35418886       0.63606029      -0.31516071       0.02742716      -0.95009325
F        2.12493601      -0.72086925       0.99431663       0.01943064      -0.08849295      -1.08926837
F        0.10864201      -1.08462793      -0.59695954       0.42325032       2.05725904       0.30525611
F        0.50939562       0.75637248      -1.76479942      -0.28320184      -0.29595134       1.07644413
I        3.62932863       1.70723658      -2.29191620      -0.14843245      -0.55921195       0.49477816
C       -1.73158370       0.01861369       2.79041444       1.41998690       1.91569329      -1.41444114
C       -1.10092924       1.17493247       2.33046316      -0.82214755      -2.74945930       0.60752154
C        3.11534777      -0.08381343      -1.11925680       1.14274256      -0.33922602      -1.16713005
C       -1.01110278       1.60598789       0.87385836      -0.12933083       0.55119330       0.97556739
C        2.05957356       0.20980925      -0.01311807      -0.77630261      -0.23166646       1.81491609
C        0.55562749       0.22480864      -0.51873685      -1.00479274       0.17142937       0.10527337
H       -2.14087496      -0.80476190       2.15666735       0.42420365       1.13086392       0.39540653
H       -1.78103648      -0.14222301       3.86602651      -0.00529231       0.11212054      -0.30097797
H       -0.67978953       1.88681756       3.05422317      -0.13464584      -0.40975177      -0.52973235
