19
Properties=species:S:1:pos:R:3:forces:R:3 id=22096 bond=C-O smiles="[H:19][C:15]1([C:13]([C:11](=[C:10]([Cl:1])[Cl:2])[C:16]2([C:14]1([Cl:6])[Cl:7])[C:12]([O:9]2)([H:18])[Cl:3])([Cl:4])[Cl:5])[O:8][H:17]" dataset=PubChem energy=-99072.02937746962 pbc="F F F"
Cl       1.18662647       4.57193943      -0.02934697      -0.44176634      -0.03280398      -0.40707223
Cl      -0.84090778       3.44083234      -1.88607516       1.08710184       0.33378929       1.35622371
Cl       3.79722098       1.52096616       2.62742207      -1.16486793       0.65096166      -0.49488198
Cl      -0.07273104       0.24217805      -1.70756545       0.20067059      -0.29597170      -0.23081595
Cl      -2.38021728       1.21658051      -0.28122654      -0.08976636      -0.12960030       0.36990907
Cl       2.35359672      -0.86678652       0.92374715      -1.27651254       0.70959457       0.22822580
Cl       0.74263627      -0.23261146       3.34440026       0.45295940       0.14566332      -0.39579377
O       -0.66583608      -2.83045760       0.05277715      -0.41229096       1.95368686       0.85636122
O        1.20881763       2.48542638       2.42454109       0.97378079       0.56987950       0.43920537
C        0.18518592       3.24451752      -0.44944670      -0.57556988      -2.36046457       0.67386201
C        0.19592998       2.04800482       0.26106835       0.20302112       2.02821034      -2.07124982
C        2.43410901       2.33767923       1.76183996      -0.75942030      -1.37501717      -0.58600372
C       -0.64052412       0.86952161      -0.13441255      -0.44815481      -1.38413693      -0.94809046
C        0.94668082       0.13243326       1.60029576      -0.02854174      -2.34880230       0.25233281
C       -0.40947452      -0.19552485       0.95524469       0.24045364       1.14355818      -0.02644944
C        1.12696311       1.60864111       1.32606695       1.90439061       1.48392883       0.73597232
H        0.16037307      -3.16477386      -0.31470429       0.38817285       0.47783635       0.06611693
H        2.84222010       3.10758849       1.09730650      -0.43220288      -0.19438207       0.76746886
H       -1.19763132      -0.03951160       1.71642527       0.17844751      -1.37589785      -0.58150847
