19
Properties=species:S:1:pos:R:3:forces:R:3 id=22096 bond=C-O smiles="[H:19][C:15]1([C:13]([C:11](=[C:10]([Cl:1])[Cl:2])[C:16]2([C:14]1([Cl:6])[Cl:7])[C:12]([O:9]2)([H:18])[Cl:3])([Cl:4])[Cl:5])[O:8][H:17]" dataset=PubChem energy=-99077.3551056282 pbc="F F F"
Cl       1.11563404       3.84226574      -0.27926106      -0.40612469       0.04764189      -0.41403296
Cl      -0.91190021       2.71115865      -2.13598925       1.06144453       0.34932305       1.31353992
Cl       3.72622855       0.79129247       2.37750798      -1.10773694       0.59957544      -0.46700918
Cl      -0.14372347      -0.48749564      -1.95747954       0.18736096      -0.23880342      -0.17954596
Cl      -2.45120971       0.48690682      -0.53114063      -0.11184574      -0.17819838       0.29933023
Cl       2.28260429      -1.59646021       0.67383306      -1.33061434       0.62037082       0.18917912
Cl       0.67164384      -0.96228515       3.09448617       0.54867328       0.04175941      -0.38780533
O       -0.59484365      -2.10078391       0.30269124      -0.72632395      -7.26612217      -2.07815132
O        1.13782520       1.75575269       2.17462700       1.09695074       0.66748479       0.49886676
C        0.11419349       2.51484383      -0.69936079      -0.49016291      -2.40581584       0.79987218
C        0.12493755       1.31833113       0.01115426      -0.02914952       2.11815996      -2.37766470
C        2.36311658       1.60800554       1.51192587      -0.94265226      -1.24924203      -0.66351534
C       -0.71151655       0.13984792      -0.38432664      -0.07964134       0.63986541      -0.70941044
C        0.87568839      -0.59724043       1.35038167       0.23924467      -0.10577041       0.92697674
C       -0.48046695      -0.92519854       0.70533060      -0.05614364       4.94355150       1.91997948
C        1.05597068       0.87896742       1.07615286       2.13446129       1.20391371       0.91385341
H        0.23136550      -2.43510017      -0.06479020      -0.10313478      -0.10605559      -0.19128284
H        2.77122767       2.37791480       0.84739241      -0.42232745      -0.18735268       0.79012312
H       -1.26862375      -0.76918529       1.46651118       0.53494523       0.50294765      -0.17959887
