32
Properties=species:S:1:pos:R:3:forces:R:3 id=18919 bond=C-O smiles="[H:28][C:11]1([C:12]([C:13]2([C:7]([N:3]([C:8]([C:10]1([H:26])[H:27])([O:2]2)[H:23])[C:6]([H:19])([H:20])[C:9]([H:24])([H:25])[C:5]([H:17])([H:18])[O:1][C:4]([H:14])([H:15])[H:16])([H:21])[H:22])[H:32])([H:30])[H:31])[H:29]" dataset=PubChem energy=-16269.892664313264 pbc="F F F"
O       -0.78897118       3.79317350      -0.90506044       1.84669890       1.11835595       1.25235771
O        2.29416216      -0.99837296       1.43424586      -0.11017273       0.99943394       0.48641077
N        0.41931876      -0.20188396       0.46617176      -0.77765291       0.30469754      -0.44785431
C        0.47988895       5.80985793      -0.54503636      -0.20964484      -0.44021486       1.27241784
C       -0.38502013       2.63256712      -0.10530266       0.18383066       1.43403083      -0.61610431
C       -1.00195132       0.23235716       0.30653885       1.32266776       0.01551032      -0.13915318
C        1.12671817      -1.00835805      -0.57674554      -0.93343293       0.26332205       0.43321898
C        0.96793992      -0.51495319       1.77958402       0.25654135      -1.06313021      -1.23791785
C       -1.11369311       1.39984495      -0.67677143      -0.18724458       0.32287240       0.24161133
C        0.27780396      -1.64560919       2.52496073       0.09455609      -0.36211017      -0.00131365
C        0.11869732      -2.88348703       1.63372085      -0.11465343       0.89837897      -0.67744296
C        1.41296590      -3.12465577       0.84032264       0.52071823      -0.70006695       0.33494273
C        2.07576872      -1.83734636       0.30974143      -1.04936591      -0.12678166       0.13884564
H        0.12180058       6.57448491      -1.23480122      -0.50653956      -0.87666268      -0.24552714
H        1.54657343       5.59672841      -0.69288807      -0.69929227      -0.70305310      -0.17047696
H        0.30019379       6.14337548       0.51605324      -0.26408540      -1.05718619      -1.14866746
H       -0.64420604       2.75348706       0.97132841      -0.00909491       0.06208725      -0.61729398
H        0.71414272       2.47926874      -0.15930387      -0.66996806       0.01187828      -0.02880389
H       -1.59223115      -0.58021169      -0.08132514      -0.40146124      -0.54402055      -0.08573691
H       -1.46215808       0.55269395       1.25848070       0.59637385      -0.33793626      -0.19820253
H        0.45436023      -1.65086870      -1.20795110       0.34120304       0.47907926       0.73041594
H        1.67905749      -0.35483782      -1.27267232      -0.14793364      -0.19368451       0.30541300
H        0.99220480       0.37121407       2.40020987       0.51538011       0.21931174       0.05776683
H       -2.18463956       1.60895879      -0.84905341       0.46177522       0.11192037       0.16935912
H       -0.69794964       1.11878933      -1.64292577       0.09741180       0.06743534       0.00750638
H        0.93015570      -1.87562614       3.36610362      -0.14115522      -0.00504958       0.21534064
H       -0.68775170      -1.32494168       2.89661738      -0.17612143       0.07702032       0.18006892
H       -0.20356142      -3.74287634       2.22926733       0.24574104       0.05340878      -0.26368851
H       -0.66713374      -2.66470604       0.90766093      -0.18661666      -0.10097235       0.13158226
H        1.25548071      -3.77892094      -0.01933792      -0.11815082      -0.21126353       0.21015815
H        2.08208049      -3.63687997       1.56325111       0.10681672       0.35569725      -0.75078675
H        2.99982084      -2.02567201      -0.23613164       0.11449970      -0.07295191       0.46024924
