32
Properties=species:S:1:pos:R:3:forces:R:3 id=18919 bond=C-O smiles="[H:28][C:11]1([C:12]([C:13]2([C:7]([N:3]([C:8]([C:10]1([H:26])[H:27])([O:2]2)[H:23])[C:6]([H:19])([H:20])[C:9]([H:24])([H:25])[C:5]([H:17])([H:18])[O:1][C:4]([H:14])([H:15])[H:16])([H:21])[H:22])[H:32])([H:30])[H:31])[H:29]" dataset=PubChem energy=-16272.42093365732 pbc="F F F"
O       -0.63602822       4.03625600      -0.86166468       2.26472643       2.62377937       1.01670106
O        2.44710512      -0.75529046       1.47764162      -0.11184462       1.00182078       0.48884369
N        0.57226172       0.04119854       0.50956752      -0.75073976       0.31926956      -0.44786699
C        0.32694599       5.56677543      -0.58843212      -1.34053374      -2.57034510       1.10667478
C       -0.23207717       2.87564962      -0.06190690       0.21726278       1.02424997      -0.56102390
C       -0.84900836       0.47543966       0.34993461       1.27991395       0.01190524      -0.19827826
C        1.27966113      -0.76527555      -0.53334978      -0.93692830       0.26147451       0.43423930
C        1.12088288      -0.27187069       1.82297978       0.25661548      -1.07318465      -1.23845353
C       -0.96075015       1.64292745      -0.63337567      -0.09276475       0.40674992       0.39390631
C        0.43074692      -1.40252669       2.56835649       0.09627048      -0.36038925      -0.00012585
C        0.27164028      -2.64040453       1.67711661      -0.11500014       0.89829892      -0.67841136
C        1.56590886      -2.88157327       0.88371840       0.52050404      -0.69878120       0.33418777
C        2.22871168      -1.59426386       0.35313719      -1.04839151      -0.12759894       0.13926472
H       -0.03114238       6.33140241      -1.27819698      -0.31072757      -0.72263053      -0.10930965
H        1.39363047       5.35364591      -0.73628383      -0.58591607      -0.33977876      -0.09112264
H        0.14725083       5.90029298       0.47265748      -0.02222865      -0.72014822      -1.16781244
H       -0.49126308       2.99656956       1.01472417       0.01167857       0.10134770      -0.60957882
H        0.86708568       2.72235124      -0.11590811      -0.64381163       0.05955928       0.00169360
H       -1.43928819      -0.33712919      -0.03792938      -0.40034277      -0.55010919      -0.06751189
H       -1.30921512       0.79577645       1.30187646       0.59457041      -0.33859858      -0.19450006
H        0.60730319      -1.40778620      -1.16455534       0.34168092       0.47890217       0.73040867
H        1.83200045      -0.11175532      -1.22927656      -0.14627992      -0.19417984       0.30357162
H        1.14514776       0.61429657       2.44360563       0.51603305       0.21969624       0.05988111
H       -2.03169660       1.85204129      -0.80565765       0.46532694       0.12960470       0.16911780
H       -0.54500668       1.36187183      -1.59953001       0.09964327       0.06334606       0.00443667
H        1.08309866      -1.63254364       3.40949938      -0.14189870      -0.00498602       0.21518445
H       -0.53480874      -1.08185918       2.94001314      -0.17629097       0.07672447       0.18050709
H       -0.05061846      -3.49979384       2.27266309       0.24601491       0.05390720      -0.26381703
H       -0.51419078      -2.42162354       0.95105669      -0.18661005      -0.10148170       0.13159768
H        1.40842367      -3.53583844       0.02405784      -0.11814816      -0.21096423       0.21031298
H        2.23502345      -3.39379747       1.60664687       0.10659418       0.35622845      -0.75145911
H        3.15276380      -1.78258951      -0.19273588       0.11433903      -0.07283085       0.46047081
