32
Properties=species:S:1:pos:R:3:forces:R:3 id=18919 bond=C-O smiles="[H:28][C:11]1([C:12]([C:13]2([C:7]([N:3]([C:8]([C:10]1([H:26])[H:27])([O:2]2)[H:23])[C:6]([H:19])([H:20])[C:9]([H:24])([H:25])[C:5]([H:17])([H:18])[O:1][C:4]([H:14])([H:15])[H:16])([H:21])[H:22])[H:32])([H:30])[H:31])[H:29]" dataset=PubChem energy=-16272.002051065723 pbc="F F F"
O       -0.65868643       4.00024377      -0.86809368       2.27139671       2.56153332       1.05605419
O        2.42444691      -0.79130269       1.47121262      -0.11079606       1.00002683       0.48856642
N        0.54960351       0.00518631       0.50313852      -0.75339557       0.31473443      -0.44638128
C        0.34960420       5.60278766      -0.58200312      -1.21045008      -2.32590109       1.12554576
C       -0.25473538       2.83963739      -0.06833590       0.24541554       1.08697593      -0.54541248
C       -0.87166657       0.43942743       0.34350561       1.28524299       0.01431744      -0.18974658
C        1.25700292      -0.80128778      -0.53977878      -0.93679366       0.26229999       0.43469013
C        1.09822467      -0.30788292       1.81655078       0.25550691      -1.07115664      -1.24027257
C       -0.98340836       1.60691522      -0.63980467      -0.10648993       0.40340255       0.36844996
C        0.40808871      -1.43853892       2.56192749       0.09639870      -0.36095073      -0.00006902
C        0.24898207      -2.67641676       1.67068761      -0.11528139       0.89898546      -0.67844673
C        1.54325065      -2.91758550       0.87728940       0.52027755      -0.69885487       0.33438060
C        2.20605347      -1.63027609       0.34670819      -1.04917798      -0.12679630       0.13934063
H       -0.00848417       6.36741464      -1.27176798      -0.35959636      -0.77057556      -0.13862672
H        1.41628868       5.38965814      -0.72985483      -0.62388267      -0.42415565      -0.10784171
H        0.16990904       5.93630521       0.47908648      -0.07689381      -0.80327376      -1.17562542
H       -0.51392129       2.96055733       1.00829517       0.00988624       0.09045338      -0.61022383
H        0.84442747       2.68633901      -0.12233711      -0.65155221       0.04697903       0.00189910
H       -1.46194640      -0.37314142      -0.04435838      -0.40042866      -0.54941393      -0.07007638
H       -1.33187333       0.75976422       1.29544746       0.59500127      -0.33834270      -0.19508686
H        0.58464498      -1.44379843      -1.17098434       0.34169189       0.47888534       0.73023382
H        1.80934224      -0.14776755      -1.23570556      -0.14655615      -0.19395819       0.30366545
H        1.12248955       0.57828434       2.43717663       0.51587048       0.21982496       0.05958550
H       -2.05435481       1.81602906      -0.81208665       0.46350014       0.12637501       0.16863324
H       -0.56766489       1.32585960      -1.60595901       0.09906071       0.06349466       0.00462818
H        1.06044045      -1.66855587       3.40307038      -0.14172664      -0.00517766       0.21536565
H       -0.55746695      -1.11787141       2.93358414      -0.17626835       0.07681224       0.18036879
H       -0.07327667      -3.53580607       2.26623409       0.24600489       0.05376077      -0.26371620
H       -0.53684899      -2.45763577       0.94462769      -0.18649073      -0.10132728       0.13170969
H        1.38576546      -3.57185067       0.01762884      -0.11814979      -0.21101127       0.21023524
H        2.21236524      -3.42980970       1.60021787       0.10661502       0.35610981      -0.75117256
H        3.13010559      -1.81860174      -0.19916488       0.11448717      -0.07294201       0.46039589
