31
Properties=species:S:1:pos:R:3:forces:R:3 id=22308 bond=C-O smiles="[H:19][c:7]1[c:5]([n:2][c:6]([c:8]([c:9]1/[C:4](=[N:1]/[O:3][C:15]2([C:13]([C:11]([C:10]([C:12]([C:14]2([H:29])[H:30])([H:25])[H:26])([H:21])[H:22])([H:23])[H:24])([H:27])[H:28])[H:31])/[H:16])[H:20])[H:18])[H:17]" dataset=PubChem energy=-17699.052319833005 pbc="F F F"
N        0.57498498      -0.31274177       0.11620346       5.49311271      -3.68566765       5.81278292
N        3.99950545      -3.35825481       2.64685708      -0.56260707      -0.82566749       0.00398854
O       -0.61127562       0.58971434       0.19408984     104.23529348     -76.87014003     215.73136580
C        1.06647324      -0.49828471       1.36744541      -2.58089071      -0.77660890      -2.87281039
C        4.08593290      -2.85056533       1.35897356      -0.86143063       0.25401807       3.43666699
C        2.93550675      -3.10500468       3.47606546       1.47760969       1.11299260      -2.03976761
C        3.22591942      -1.82488193       1.01700461      -1.21129362      -0.49989871      -0.66580843
C        1.94603341      -2.24234547       2.98999411      -1.02640389       1.38433865       1.27732738
C        2.04681616      -1.55320443       1.77614659       2.10480191      -0.19535565      -0.86108402
C       -0.74519135       3.85257381      -0.28096678       0.84553179      -2.80768010      -0.47826667
C       -1.84237350       3.08363479       0.42908825       0.46380156      -1.05724438       0.74065020
C        0.46585903       2.93432945      -0.70066251      -2.70544434       0.17688182      -2.32543460
C       -2.15502513       1.75445968      -0.26355018      -3.52118542       1.57027325      -2.52649980
C        0.06174873       1.58349901      -1.29197790       0.46560510       2.63097620      -5.79827102
C       -0.92289580       0.82083246      -0.42606474    -103.09524814      76.31974856    -205.11887876
H        0.51368972      -0.11871870       2.24002248       0.12643992       0.52293264      -0.58580613
H        4.93188303      -3.16602601       0.74415881      -0.32943160       0.13532675       0.36908938
H        2.92595809      -3.38925065       4.56963354       0.29020221      -0.10256297      -1.68920617
H        3.42397635      -1.32219114       0.09091368      -0.24659132       0.34902649      -0.27928273
H        1.18538546      -1.88738741       3.71679049       0.20532534      -0.59234266      -0.70291618
H       -1.14435578       4.06586832      -1.20626928      -1.13023012       1.11026799      -2.06319595
H       -0.50868763       4.75029557       0.21401160       0.66506036       0.93606215       0.62877223
H       -2.72228993       3.72672480       0.43139307      -0.13143651      -0.28864177       0.40941867
H       -1.53557910       2.81676286       1.46015845      -0.28471190       0.51522575      -0.20006612
H        0.98781239       3.29559940      -1.56209780       0.60402012       1.24210155       0.01990100
H        1.07532879       2.85843343       0.08315115       2.79318289      -0.55789787       3.04533114
H       -2.99900449       1.17529869       0.14780913       0.63599049       0.21050023       0.57394506
H       -2.53253401       1.92520064      -1.30315687       0.45481805       0.13698182       0.68196880
H       -0.51494110       1.70651037      -2.20695163       0.24222605       0.67996440      -0.55246180
H        0.89018755       0.91326404      -1.62740781      -0.53269041       0.77227013       0.82598757
H       -1.28680040      -0.12933630      -0.96533705      -2.88473053      -1.80135127      -4.79554437
