31
Properties=species:S:1:pos:R:3:forces:R:3 id=22308 bond=C-O smiles="[H:19][c:7]1[c:5]([n:2][c:6]([c:8]([c:9]1/[C:4](=[N:1]/[O:3][C:15]2([C:13]([C:11]([C:10]([C:12]([C:14]2([H:29])[H:30])([H:25])[H:26])([H:21])[H:22])([H:23])[H:24])([H:27])[H:28])[H:31])/[H:16])[H:20])[H:18])[H:17]" dataset=PubChem energy=-17736.049708489856 pbc="F F F"
N        0.98742346      -0.61863341       0.93699627      -0.93075430       1.56549360       3.70361021
N        4.41194393      -3.66414645       3.46764989      -0.46201014      -0.96068554       0.05239388
O       -0.19883714       0.28382270       1.01488265       2.07570552      -1.41325946      -1.38658859
C        1.47891172      -0.80417635       2.18823822      -2.33963141      -0.40983624      -2.27668404
C        4.49837138      -3.15645697       2.17976637      -0.93553741       0.30863755       3.44096926
C        3.34794523      -3.41089632       4.29685827       1.47802894       1.20368429      -2.08936473
C        3.63835790      -2.13077357       1.83779742      -1.09861751      -0.60674423      -0.59318639
C        2.35847189      -2.54823711       3.81078692      -0.92517077       1.25010951       1.27035264
C        2.45925464      -1.85909607       2.59693940       1.86468347      -0.07506892      -1.03781301
C       -1.15762983       4.15846545      -1.10175959       0.80953977      -2.90019930      -0.56081382
C       -2.25481198       3.38952643      -0.39170456       0.16475670      -0.66010393       0.86483986
C        0.05342055       3.24022109      -1.52145532      -2.63962091       0.46429744      -2.53742002
C       -2.56746361       2.06035132      -1.08434299      -0.12387915      -1.14691502       0.82054149
C       -0.35068975       1.88939065      -2.11277071       0.67975112      -1.80369340       1.78955606
C       -1.33533428       1.12672410      -1.24685755      -1.74104735       0.15038197      -3.13475798
H        0.92612820      -0.42461034       3.06081529       0.08345605       0.33857370      -0.59793899
H        5.34432151      -3.47191765       1.56495162      -0.30879482       0.12692081       0.36830447
H        3.33839657      -3.69514229       5.39042635       0.30024090      -0.10869704      -1.67206541
H        3.83641483      -1.62808278       0.91170649      -0.26593650       0.35781439      -0.27925645
H        1.59782394      -2.19327905       4.53758330       0.19194200      -0.58006584      -0.71985770
H       -1.55679426       4.37175996      -2.02706209      -1.14246906       1.18816851      -2.07658356
H       -0.92112611       5.05618721      -0.60678121       0.67996913       0.88316065       0.61931016
H       -3.13472841       4.03261644      -0.38939974      -0.10035207      -0.23115828       0.34427613
H       -1.94801758       3.12265450       0.63936564      -0.34219948       0.40649676      -0.40761034
H        0.57537391       3.60149104      -2.38289061       0.58923419       1.30316797      -0.03691874
H        0.66289031       3.16432507      -0.73764166       2.68778565      -0.77924608       2.92032390
H       -3.41144297       1.48119033      -0.67298368       0.43091144       0.51220415       0.45328003
H       -2.94497249       2.23109228      -2.12394968       0.72378148      -0.16089272       0.41093526
H       -0.92737958       2.01240201      -3.02774444      -0.28118747       0.19228961      -0.13462443
H        0.47774907       1.21915568      -2.44820062      -0.23622493       0.83914234       0.63008808
H       -1.69923888       0.17655534      -1.78612986       1.11401581       0.74734304       1.85194091
