16
Properties=species:S:1:pos:R:3:forces:R:3 id=35467 bond=C-S smiles="[H:12][C:5]([H:13])([H:14])[C:6]([H:15])([H:16])[S:2][C:4]([H:10])([H:11])[S:1][C:3]([H:7])([H:8])[H:9]" dataset="DES370K Monomers" energy=-25987.37655835207 pbc="F F F"
S       -0.01969105      -0.74681227      -2.16274794       0.72503635       1.03910590      -0.17191101
S       -0.25012819      -1.62520896       0.74793921       0.18178334       1.19016283      -0.65822139
C        0.86641491       0.79671870      -2.71951381      -2.05302053      -0.54857049      -2.23470593
C        0.70728492      -0.62719165      -0.51660558       0.80658994      -0.16163569       1.19428071
C        1.11694264       0.15343459       2.55397026       1.31367061       0.50769549       0.02183661
C        0.63470291      -1.22156416       2.30660669      -0.22824392      -1.02116312      -0.14935408
H        0.40570582       1.73371182      -2.49432413      -1.04955825       0.33165090       0.68956283
H        1.78993333       0.86434041      -2.25890676       2.10705638      -0.38464944       0.38922271
H        0.88476927       0.83934437      -3.84021417       0.47647748      -0.52396888       1.03559445
H        1.78640818      -0.96577017      -0.48049762      -1.20188741       0.26693566      -0.27012021
H        0.69872402       0.45882923      -0.30262105      -0.17173814      -0.76986434       0.38357442
H        0.21254571       0.69744761       2.73539249       0.10294792       1.32612542      -0.17537969
H        1.82019531       0.51317839       1.79328016      -0.78040222       0.33113813      -0.21003533
H        1.77774119       0.16912213       3.43822399      -0.68291059      -0.12570228       0.04369618
H        1.48049914      -1.89689170       2.31306163      -0.17776015      -0.46782185       0.61333632
H       -0.13091279      -1.34336530       3.09911434       0.63604833      -0.98476435      -0.49928568
