47
Properties=species:S:1:pos:R:3:forces:R:3 id=42927 bond=C-N smiles="[H:33][c:11]1[c:8]([c:16]2[c:18]([c:12]([c:19]1[N:20]([H:35])[C:26]([H:44])([H:45])[C:27]([H:46])([H:47])[N:21]3[C:24]([C:22]([O:6][C:23]([C:25]3([H:42])[H:43])([H:38])[H:39])([H:36])[H:37])([H:40])[H:41])[H:34])[C:7](=[N:2][O:5]2)[c:17]4[c:10]([c:13]([c:14]([c:9]([c:15]4[O:4][H:29])[H:31])[O:3][H:28])[Br:1])[H:32])[H:30]" dataset=PubChem energy=-102752.2669357591 pbc="F F F"
Br       0.00917015      -2.52558795      -1.22446912      -0.18001036       0.02826415      -0.02587229
N       -1.25446280       3.70939192      -2.75712602       1.62161168      -0.11434079       1.34615733
O       -3.04582687      -2.49311462      -1.97664636       0.01629281       0.76394537       0.11488885
O       -3.43993779       2.21488794      -2.82114928       0.34517104      -1.49549398       0.66670999
O       -0.47742315       4.87386259      -2.44868295      -0.04262962      -0.04865775      -0.50126456
O        1.26952386      -3.48858289       3.81291863      -0.07959781       0.33062868      -0.93363585
C       -0.78365227       2.72069570      -2.00559561       0.17303014       1.14847744      -0.16437290
C        1.44148055       5.32831605      -0.87826627       0.83159472       1.11248705      -0.02835404
C       -3.22315451      -0.13053319      -2.31091731      -0.62007911       0.28197379       0.02436650
C       -0.54784461       0.23070839      -1.69459932      -0.10450323      -0.65132199       0.59885812
C        2.21504215       4.75353511       0.14488471      -1.33855586       0.72070334      -1.78734492
C        1.01522366       2.66640981      -0.13173490       1.35352535      -0.28284989       0.90307710
C       -1.11104103      -1.05253998      -1.66730302       0.37223253       0.82807574      -0.12878106
C       -2.46013399      -1.24985746      -1.96905487       0.03186741      -0.29288868       0.00970641
C       -2.66919537       1.16349622      -2.37300508      -0.44064464       0.01499011      -0.33490665
C        0.50379638       4.55816134      -1.53842919      -1.86847295      -1.83371706       0.15490280
C       -1.32335290       1.35863980      -1.99396222      -0.26390395      -0.12642263      -0.61492901
C        0.27556685       3.21686514      -1.16903704       1.19409590       0.72613366       0.38668240
C        2.03288452       3.43002638       0.52865987      -0.96338540      -0.48501499      -0.74365651
N        2.85798196       2.95768961       1.52213467      -0.19275778      -1.58322408       0.92707926
N        1.67665625      -0.89056090       2.66428134       0.79950545       2.91210265      -0.94887214
C        0.30269069      -2.94323591       2.86589405       0.59451578      -0.68198188      -0.13850916
C        2.59984470      -3.04161481       3.52924392      -0.38937743       0.39439942      -0.93934199
C        0.31030058      -1.43317763       2.87170622       0.97812914       1.43117002       1.60337889
C        2.67065526      -1.50774733       3.53290841       0.29282499       0.17901371       0.80517607
C        2.93994907       1.50667312       1.81327099       0.16462809      -0.15770061       0.03065671
C        1.81181470       0.97508565       2.70164377      -1.31288618      -1.66949918      -0.01819214
H       -2.49147363      -3.16856829      -1.55591576       0.09610090       0.53724011      -0.20895290
H       -2.89869305       3.02351936      -2.83290736      -0.06990145      -0.03508655      -0.12768554
H        1.65276913       6.37955840      -1.15913957      -0.38893952      -0.86455635       0.18441457
H       -4.29686137      -0.26903144      -2.48821395       0.60894081       0.10551289      -0.11919645
H        0.50806245       0.27843561      -1.40422528      -0.57188152       0.31746308      -0.37320975
H        2.95302323       5.39564403       0.57544556       0.36740902       0.00807718       0.41757592
H        0.86543912       1.62799796       0.14352713       0.01822999       0.28913340       0.06618875
H        3.65057448       3.53675302       1.74739141      -0.17492971      -0.28770287      -0.01226635
H       -0.68877899      -3.31510333       3.19575879       0.68690617       0.19752584      -0.28934255
H        0.52226770      -3.29027824       1.83403740      -0.03603686      -0.10551060       0.61461565
H        3.28368592      -3.46874837       4.26614401      -0.34792798       0.16424055       0.13239146
H        2.99825669      -3.37731985       2.53277013      -0.79219423      -0.00302124       0.57796180
H       -0.07174110      -1.13924627       3.87465594      -0.00621275       0.08194190      -0.43197024
H       -0.30509882      -0.99024956       2.10580633      -0.41872835      -0.16847873      -0.20499111
H        3.72104097      -1.30037884       3.27384755      -0.46667294       0.42943739      -0.39066852
H        2.55283714      -1.13396279       4.55456731      -0.05544440      -0.19616247       0.29104385
H        3.86899236       1.27072527       2.33598060       0.09421459       0.32887136      -0.35167034
H        2.93094686       0.97388379       0.87394420       0.10204735      -0.30066402      -0.28860314
H        0.85201944       1.41639092       2.35284121       0.40881765      -0.99876112       0.10393436
H        1.95067731       1.42215356       3.69572312      -0.02680194      -0.95404038       0.14116841
