42
Properties=species:S:1:pos:R:3:forces:R:3 id=25443 bond=C-S smiles="[H:41][C:22]12[C:12](=[C:13]([C:23]([C:20]1([Cl:5])[Cl:6])([C:19]([C:21]2([H:40])[S:10][C:17]([H:35])([H:36])[C:24]([H:42])([C:16]([H:32])([H:33])[H:34])[C:18]([H:37])([H:38])[S:11][P:25](=[S:1])([O:8][C:14]([H:26])([H:27])[H:28])[O:9][C:15]([H:29])([H:30])[H:31])([H:39])[Cl:4])[Cl:7])[Cl:3])[Cl:2]" dataset=PubChem energy=-134806.15075643966 pbc="F F F"
S        2.22993890      -2.16947898       4.07589939      -1.99825464      -0.07020390      -0.11198169
Cl      -0.93928634       4.31912269      -3.83342956      -1.28511800       0.61766227       0.01480890
Cl       0.79656857       1.88721611      -5.62040971       0.76994517       1.81692272       2.52034083
Cl       4.30872763       2.17360450      -1.23433600      -1.80677360       0.34746058      -1.13207891
Cl       4.08986510       5.40347375      -2.20811246      -0.69034814      -1.09112202      -0.59322217
Cl       2.90311349       5.51215972      -4.80938075      -0.61493679       0.21308387       0.51153742
Cl       3.86370051       2.32752372      -4.79783033       0.02394752       0.80023089       1.45349468
O       -0.50367602      -2.87587366       5.10445764       0.99349479       0.29301944      -2.87676667
O        0.66099319      -4.41298422       3.09873345       0.08370728       1.31994096      -0.57231921
S       -0.80564162       2.30251207      -0.03861139       1.73700987       1.42447832      -1.38508033
S       -0.66974696      -1.90891585       2.05515328       0.18064907      -1.09707049      -0.26092237
C        0.65865660       3.96422686      -3.53733991      -0.69570469      -3.72844000      -2.18639523
C        1.31404550       2.93908919      -4.20675729      -0.40099635       2.38890172       0.98584618
C       -0.65557160      -4.19792113       5.55383613       0.66821824      -1.65378670       1.01453963
C        1.69728748      -4.29009756       2.01920155       1.11534549       1.02772390      -0.60872698
C       -2.59579762       1.78681913       2.38696506      -0.59088527       0.46780387       0.43713325
C       -0.54181006       0.93565818       1.04245558      -0.36856289       2.86730371       4.45984001
C       -1.92887219      -0.63715801       2.49032154      -1.69624165      -2.14373432      -0.46806462
C        2.67872096       2.52396860      -2.13275240      -0.44242629      -1.56065100       0.81371771
C        2.79125274       4.61770619      -3.26544617       1.06563763       0.67488015       0.12679953
C        1.73094679       3.44734038      -1.33833931       1.52461674       1.12850812      -1.64158506
C        1.45293392       4.53321113      -2.43370055      -0.29232159       1.53875933       0.29970239
C        2.74059761       3.11382450      -3.59329603       0.94412916      -2.19299573      -0.46025453
C       -1.94677242       0.60602682       1.63214114      -1.41307531       0.18639837      -2.62080513
P        0.40431303      -2.92768130       3.68756750       2.07780528       2.82054176       1.58519345
H       -1.22631749      -4.21592268       6.49266222       0.17345448       0.21292389      -0.41877258
H        0.38550529      -4.63992104       5.76379373      -1.68094916       0.29841010      -0.39356343
H       -1.21129188      -4.71200881       4.76310899       0.23281502      -0.65095101       0.57973754
H        2.78844086      -4.07142481       2.36092093      -2.44287914      -0.24615676      -0.03951871
H        1.70252565      -5.25768027       1.58104833      -0.25592718      -0.71542897      -0.45527160
H        1.40710655      -3.49708518       1.23223424       0.33865475      -1.32306570       1.44483468
H       -1.91100057       2.04242041       3.20890119      -0.49278222       0.10149233      -0.02638324
H       -2.80504926       2.71746722       1.81859639       0.80552043      -0.74385866      -0.14851651
H       -3.63423856       1.60443845       2.76250675       1.06148461      -0.58891415       0.05668394
H        0.11135561       1.13086703       1.99897268      -0.87578959       0.04169716      -1.90741795
H       -0.15485700       0.13041411       0.59356439       1.30781569      -2.85181073      -1.83542611
H       -1.63085743      -0.35521511       3.42317727       0.43075762       0.80254414       2.80480347
H       -2.95969423      -1.16820285       2.56874564       1.81884867       1.13582950      -0.25299066
H        2.11188210       1.60852339      -2.16929696       0.69699623      -0.83051802      -0.20228971
H        2.33557976       3.91455234      -0.58138131      -0.69888078      -0.12008234       1.13142698
H        1.13796266       5.53279580      -2.04457329       0.06343112      -1.05824053      -0.45716266
H       -2.60442241       0.39014054       0.73723809       0.62843379       0.13335767       0.82565471
