42
Properties=species:S:1:pos:R:3:forces:R:3 id=25443 bond=C-S smiles="[H:41][C:22]12[C:12](=[C:13]([C:23]([C:20]1([Cl:5])[Cl:6])([C:19]([C:21]2([H:40])[S:10][C:17]([H:35])([H:36])[C:24]([H:42])([C:16]([H:32])([H:33])[H:34])[C:18]([H:37])([H:38])[S:11][P:25](=[S:1])([O:8][C:14]([H:26])([H:27])[H:28])[O:9][C:15]([H:29])([H:30])[H:31])([H:39])[Cl:4])[Cl:7])[Cl:3])[Cl:2]" dataset=PubChem energy=-134809.53572399708 pbc="F F F"
S        2.83011384      -1.89860443       3.76837448      -2.00193832      -0.06673159      -0.11310459
Cl      -1.53946128       4.04824814      -3.52590465      -1.32420603       0.63514911      -0.03782558
Cl       0.19639363       1.61634156      -5.31288480       0.76655340       1.82261207       2.53578197
Cl       3.70855269       1.90272995      -0.92681109      -1.82017722       0.33222565      -1.16272408
Cl       3.48969016       5.13259920      -1.90058755      -0.66977445      -1.08190134      -0.61561858
Cl       2.30293855       5.24128517      -4.50185584      -0.61665704       0.21444185       0.50372106
Cl       3.26352557       2.05664917      -4.49030542       0.04786051       0.79444611       1.39689750
O        0.09649892      -2.60499911       4.79693273       0.98356538       0.29542832      -2.88088376
O        1.26116813      -4.14210967       2.79120854       0.07169575       1.32659822      -0.56725072
S       -0.20546668       2.57338662      -0.34613630      -5.92697313      -0.98374085       1.07757729
S       -0.06957202      -1.63804130       1.74762837       0.18466700      -1.09451047      -0.26877218
C        0.05848166       3.69335231      -3.22981500      -0.68504400      -3.68694333      -2.11779460
C        0.71387056       2.66821464      -3.89923238      -0.38332083       2.40348420       1.00124245
C       -0.05539666      -3.92704658       5.24631122       0.66811515      -1.65493928       1.01444074
C        2.29746242      -4.01922301       1.71167664       1.11747042       1.02938381      -0.61206236
C       -1.99562268       2.05769368       2.07944015      -0.58291226       0.48292477       0.40896021
C        0.05836488       1.20653273       0.73493067      -0.26553840       2.68161082       4.74586863
C       -1.32869725      -0.36628346       2.18279663      -1.72733056      -2.09581547      -0.47643144
C        2.07854602       2.25309405      -1.82522749       0.45728962      -1.54921469       0.05138707
C        2.19107780       4.34683164      -2.95792126       0.90313312       0.69572892       0.23023128
C        1.13077185       3.17646583      -1.03081440       5.96664265       2.53294603      -2.11305263
C        0.85275898       4.26233658      -2.12617564       0.36129130       1.96317228      -0.31716625
C        2.14042267       2.84294995      -3.28577112       1.07898496      -2.25137460      -0.31363031
C       -1.34659748       0.87690137       1.32461623      -1.19912941       0.21408667      -2.69595022
P        1.00448797      -2.65680675       3.38004259       2.09020909       2.81193133       1.58531185
H       -0.62614255      -3.94504813       6.18513731       0.17340559       0.21306727      -0.41873465
H        0.98568023      -4.36904649       5.45626882      -1.68094775       0.29854682      -0.39386027
H       -0.61111694      -4.44113426       4.45558408       0.23297544      -0.65091278       0.57999390
H        3.38861580      -3.80055026       2.05339602      -2.44300676      -0.24551250      -0.04026876
H        2.30270059      -4.98680572       1.27352342      -0.25591540      -0.71526477      -0.45505298
H        2.00728149      -3.22621063       0.92470933       0.34017084      -1.32185396       1.44509856
H       -1.31082563       2.31329496       2.90137628      -0.49274950       0.09044051      -0.00785382
H       -2.20487432       2.98834177       1.51107148       0.80604901      -0.77686225      -0.13907170
H       -3.03406362       1.87531300       2.45498184       1.06721612      -0.59147570       0.05812588
H        0.71153055       1.40174158       1.69144777      -0.78978349       0.03017764      -1.92806119
H        0.44531794       0.40128866       0.28603948       1.40004069      -2.84016508      -1.82724237
H       -1.03068249      -0.08434056       3.11565236       0.42485626       0.78910314       2.80978463
H       -2.35951929      -0.89732830       2.26122073       1.82799334       1.13750322      -0.24128279
H        1.51170716       1.33764884      -1.86177205       0.70192014      -0.76043199      -0.19894962
H        1.73540482       3.64367779      -0.27385640       0.47655326       0.47545273       0.12639124
H        0.53778772       5.26192125      -1.73704838       0.05219171      -1.06214756      -0.42445136
H       -2.00424747       0.66101509       0.42971318       0.64559987       0.15901190       0.81021830
