42
Properties=species:S:1:pos:R:3:forces:R:3 id=25443 bond=C-S smiles="[H:41][C:22]12[C:12](=[C:13]([C:23]([C:20]1([Cl:5])[Cl:6])([C:19]([C:21]2([H:40])[S:10][C:17]([H:35])([H:36])[C:24]([H:42])([C:16]([H:32])([H:33])[H:34])[C:18]([H:37])([H:38])[S:11][P:25](=[S:1])([O:8][C:14]([H:26])([H:27])[H:28])[O:9][C:15]([H:29])([H:30])[H:31])([H:39])[Cl:4])[Cl:7])[Cl:3])[Cl:2]" dataset=PubChem energy=-134806.35533313843 pbc="F F F"
S        2.26391106      -2.15414646       4.05849232      -1.99817983      -0.07055738      -0.11223059
Cl      -0.97325850       4.30379017      -3.81602249      -1.28757718       0.61858939       0.01345727
Cl       0.76259641       1.87188359      -5.60300264       0.76959732       1.81665578       2.52027053
Cl       4.27475547       2.15827198      -1.21692893      -1.80793218       0.34815906      -1.13344423
Cl       4.05589294       5.38814123      -2.19070539      -0.68885029      -1.09080553      -0.59300852
Cl       2.86914133       5.49682720      -4.79197368      -0.61563782       0.21384895       0.51114539
Cl       3.82972835       2.31219120      -4.78042326       0.02454011       0.80023739       1.45291960
O       -0.46970386      -2.86054114       5.08705057       0.99313993       0.29303187      -2.87617168
O        0.69496535      -4.39765170       3.08132638       0.08301146       1.32014184      -0.57210592
S       -0.77166946       2.31784459      -0.05601846       1.81221168       1.51191168      -1.47538750
S       -0.63577480      -1.89358333       2.03774621       0.18159325      -1.09754823      -0.26099878
C        0.62468444       3.94889434      -3.51993284      -0.69137002      -3.72818312      -2.18353202
C        1.28007334       2.92375667      -4.18935022      -0.40258795       2.38989088       0.98699952
C       -0.62159944      -4.18258861       5.53642906       0.66823002      -1.65375774       1.01453519
C        1.73125964      -4.27476504       2.00179448       1.11543231       1.02776522      -0.60881622
C       -2.56182546       1.80215165       2.36955799      -0.59100987       0.46901172       0.43618555
C       -0.50783790       0.95099070       1.02504851      -0.34402122       2.84556693       4.47645741
C       -1.89490003      -0.62182549       2.47291447      -1.69652987      -2.14219146      -0.46949220
C        2.64474880       2.50863608      -2.11534533      -0.43253365      -1.57738464       0.79583497
C        2.75728058       4.60237367      -3.24803910       1.05693791       0.67183948       0.13188840
C        1.69697463       3.43200786      -1.32093224       1.38636424       1.05077973      -1.51540994
C        1.41896176       4.51787861      -2.41629348      -0.28837502       1.54513078       0.28366223
C        2.70662545       3.09849198      -3.57588896       0.95078252      -2.19145199      -0.45101424
C       -1.91280026       0.62135934       1.61473407      -1.40298349       0.19513083      -2.62894156
P        0.43828519      -2.91234878       3.67016043       2.07776246       2.82029307       1.58508807
H       -1.19234533      -4.20059016       6.47525515       0.17344782       0.21291899      -0.41876240
H        0.41947745      -4.62458852       5.74638666      -1.68092269       0.29842021      -0.39358012
H       -1.17731972      -4.69667629       4.74570192       0.23281230      -0.65095422       0.57972840
H        2.82241302      -4.05609229       2.34351386      -2.44286178      -0.24612951      -0.03954257
H        1.73649781      -5.24234775       1.56364126      -0.25591558      -0.71543617      -0.45527510
H        1.44107871      -3.48175266       1.21482717       0.33872305      -1.32305681       1.44485987
H       -1.87702841       2.05775293       3.19149412      -0.49275824       0.10097369      -0.02594140
H       -2.77107710       2.73279974       1.80118932       0.80536738      -0.74495695      -0.14763412
H       -3.60026640       1.61977097       2.74509968       1.06161106      -0.58889351       0.05656539
H        0.14532777       1.14619955       1.98156561      -0.87431505       0.03873898      -1.90960185
H       -0.12088484       0.14574663       0.57615732       1.31069435      -2.85092571      -1.83190427
H       -1.59688527      -0.33988259       3.40577020       0.43046252       0.80238717       2.80477921
H       -2.92572207      -1.15287033       2.55133857       1.81926573       1.13624097      -0.25263137
H        2.07790994       1.59319087      -2.15188989       0.70016871      -0.82363964      -0.20243462
H        2.30160760       3.89921982      -0.56397424      -0.68861730      -0.11491403       1.10699106
H        1.10399050       5.51746328      -2.02716622       0.06339725      -1.05795553      -0.45714205
H       -2.57045025       0.40547306       0.71983102       0.62739167       0.13375661       0.82448036
