42
Properties=species:S:1:pos:R:3:forces:R:3 id=25443 bond=C-S smiles="[H:41][C:22]12[C:12](=[C:13]([C:23]([C:20]1([Cl:5])[Cl:6])([C:19]([C:21]2([H:40])[S:10][C:17]([H:35])([H:36])[C:24]([H:42])([C:16]([H:32])([H:33])[H:34])[C:18]([H:37])([H:38])[S:11][P:25](=[S:1])([O:8][C:14]([H:26])([H:27])[H:28])[O:9][C:15]([H:29])([H:30])[H:31])([H:39])[Cl:4])[Cl:7])[Cl:3])[Cl:2]" dataset=PubChem energy=-134808.58632381275 pbc="F F F"
S        2.87541006      -1.87816106       3.74516505      -2.00100343      -0.06650064      -0.11167631
Cl      -1.58475750       4.02780477      -3.50269522      -1.32328688       0.63476837      -0.03900081
Cl       0.15109741       1.59589819      -5.28967537       0.76738751       1.82659007       2.54234721
Cl       3.66325647       1.88228658      -0.90360166      -1.82767417       0.33272854      -1.16543063
Cl       3.44439394       5.11215583      -1.87737812      -0.67119879      -1.08131261      -0.62197890
Cl       2.25764233       5.22084180      -4.47864641      -0.61432541       0.21454741       0.50314943
Cl       3.21822935       2.03620580      -4.46709599       0.05324839       0.79198499       1.38079443
O        0.14179514      -2.58455574       4.77372330       0.98373524       0.29410025      -2.87948559
O        1.30646435      -4.12166630       2.76799911       0.07273535       1.32603182      -0.56713036
S       -0.16017046       2.59382999      -0.36934573     -11.50190213      -3.51260366       3.78205803
S       -0.02427580      -1.61759793       1.72441894       0.18485361      -1.09409594      -0.26857361
C        0.01318544       3.67290894      -3.20660557      -0.69385364      -3.68015672      -2.11038290
C        0.66857434       2.64777127      -3.87602295      -0.37687042       2.40503066       1.00154502
C       -0.01010044      -3.90660321       5.22310179       0.66823691      -1.65394622       1.01402385
C        2.34275864      -3.99877964       1.68846721       1.11692635       1.02962621      -0.61189432
C       -1.95032646       2.07813705       2.05623072      -0.58287684       0.48098000       0.40688380
C        0.10366110       1.22697610       0.71172124      -0.37062879       2.72565943       4.76812304
C       -1.28340103      -0.34584009       2.15958720      -1.73732014      -2.09175317      -0.47440078
C        2.03324980       2.23265068      -1.80201806       0.73571744      -1.53446737      -0.15160961
C        2.14578158       4.32638827      -2.93471183       0.90868340       0.70537688       0.22796674
C        1.08547563       3.15602246      -1.00760497      10.86360807       4.74955243      -4.41730621
C        0.80746276       4.24189321      -2.10296621       0.50759909       2.08315334      -0.46850479
C        2.09512645       2.82250658      -3.26256169       1.09009143      -2.26717486      -0.30392832
C       -1.30130126       0.89734474       1.30140680      -1.18304619       0.19204281      -2.68431526
P        1.04978419      -2.63636338       3.35683316       2.08798077       2.81414615       1.58133631
H       -0.58084633      -3.92460476       6.16192788       0.17333346       0.21301652      -0.41863931
H        1.03097645      -4.34860312       5.43305939      -1.68082495       0.29843798      -0.39386392
H       -0.56582072      -4.42069089       4.43237465       0.23296411      -0.65094241       0.57990001
H        3.43391202      -3.78010689       2.03018659      -2.44299852      -0.24545274      -0.04026344
H        2.34799681      -4.96636235       1.25031399      -0.25589317      -0.71539832      -0.45504316
H        2.05257771      -3.20576726       0.90149990       0.34021919      -1.32159128       1.44521506
H       -1.26552941       2.33373833       2.87816685      -0.49242613       0.08985429      -0.00537874
H       -2.15957810       3.00878514       1.48786205       0.80668980      -0.78053591      -0.13985820
H       -2.98876740       1.89575637       2.43177241       1.06684798      -0.59163453       0.05997392
H        0.75682677       1.42218495       1.66823834      -0.76990188       0.03574332      -1.91941123
H        0.49061416       0.42173203       0.26283005       1.41617645      -2.83851708      -1.83333749
H       -0.98538627      -0.06389719       3.09244293       0.42513229       0.78744067       2.81074861
H       -2.31422307      -0.87688493       2.23801130       1.82847338       1.13498733      -0.23914345
H        1.46641094       1.31720547      -1.83856262       0.68606091      -0.75505167      -0.19206028
H        1.69010860       3.62323442      -0.25064697       0.79121773       0.62788032       0.01382968
H        0.49249150       5.24147788      -1.71383895       0.04956060      -1.07343630      -0.40310189
H       -1.95895125       0.68145846       0.40650375       0.65030826       0.16234982       0.81146418
