22
Properties=species:S:1:pos:R:3:forces:R:3 id=39062 bond=C-C smiles="[H:10][C:1]1=[C:3]([P:5]([C:4](=[C:2]1[H:11])[H:13])[C:7]([H:17])([H:18])[C:9]([H:21])([H:22])[C:8]([H:19])([H:20])[C:6]([H:14])([H:15])[H:16])[H:12]" dataset=PubChem energy=-17799.049579952247 pbc="F F F"
C        2.04462697       4.52883532       1.20222459      -2.10165821      -0.38752369      -0.10891328
C        0.54909623       4.74941495       1.09517178       1.83211955      -1.83342482      -0.21903546
C        2.49990381       3.20698574       1.20483086      -4.20200013       0.59174894      -0.21911715
C       -0.20958213       3.57101825       0.98528961       2.37607969       0.18932080       0.24056811
P        0.93325595       2.21018722       1.10199890       1.54678612       1.80957396       0.13805197
C        0.10057622      -3.39836214       0.37751160      -0.70660846       0.55308696      -0.82117286
C        0.62038030       0.37969008       1.09263698      -0.17544942      -0.07576651      -1.09693085
C       -0.50518659      -2.28402803      -0.53523355       0.88374392       0.80336699       0.78204691
C        0.75044447      -0.22859011      -0.32036402       0.02068683      -1.87660551       0.82539747
H        2.70481564       5.38964035       1.27069107      -0.06174887      -0.28743246      -0.03631248
H        0.09455724       5.73237231       1.01608503       0.24732081      -0.20479686       0.08402971
H        3.50043429       2.88945463       1.22745595       0.83396636      -0.49038629       0.14326324
H       -1.25247060       3.52613237       0.76397691      -0.34777205      -0.13831002       0.16765911
H       -0.56056103      -4.28881977       0.24769848       0.44668665       0.50867299       0.19665685
H        1.11437800      -3.70161484       0.04692200      -0.58261536       0.39309561       0.40172961
H        0.06031571      -3.09868048       1.43000532       0.27620196      -0.20530860      -0.24729016
H       -0.40851627       0.30529418       1.39225624      -0.43353361       0.01203205       0.47070222
H        1.25286971      -0.12571916       1.82555184      -0.17007310       0.23188881      -0.10155228
H       -0.43488952      -2.61528037      -1.57216149       0.31083879       0.65234268      -0.00514413
H       -1.59673855      -2.09596704      -0.32446455       1.40718163       0.35955353       0.08317685
H        0.41997875       0.45343283      -1.07327487      -0.68663221      -0.02996500      -0.48130609
H        1.82563294      -0.41639385      -0.49437442      -0.71225968      -0.57765031      -0.19463305
