47
Properties=species:S:1:pos:R:3:forces:R:3 id=702 bond=C-C smiles="[H:23][c:3]1[c:7]2[c:8]([c:4]([c:6]([c:5]1[O:1][H:21])[O:2][H:22])[H:24])[C:20]([C:19]([C:18]([C:12]2([H:31])[H:32])([H:43])[H:44])([H:45])[H:46])([H:47])[C:15]([H:37])([H:38])[N:9]([C:13]([H:33])([H:34])[C:16]([H:39])([H:40])[C:10]([H:25])([H:26])[H:27])[C:14]([H:35])([H:36])[C:17]([H:41])([H:42])[C:11]([H:28])([H:29])[H:30]" dataset=PubChem energy=-23667.30546464958 pbc="F F F"
O       -5.29410174      -0.33276795       2.25200370      -0.06233840      -2.11633701       1.25171809
O       -3.46083358      -1.74451272       3.56461874      -0.11139538       0.35655455      -0.83518448
C       -3.75263693       0.24742524       0.47319446       0.41396584      -0.79256413      -1.14398148
C       -1.87436178      -1.27456300       1.83197013       0.82823702       0.65155525       1.49574303
C       -4.11922934      -0.48043577       1.61381295       2.07451398       0.72813303      -0.20078848
C       -3.14572408      -1.20433096       2.34215776      -0.60908427       0.16962721      -0.72661901
C       -2.43700817       0.13522272      -0.06424012      -0.09687139      -0.54671464       1.06371603
C       -1.47280290      -0.54428260       0.72592765      -1.09430329       0.22012781      -1.62802713
N        2.08016226       0.73791961       0.91840149       0.45204413      -1.95157756       0.23396636
C        4.43241164      -0.36903320      -0.60517081      -0.37484227       0.92096038       0.96010959
C        3.21525008       4.29357072       1.13036604      -0.69068199      -0.87883870       0.28531200
C       -2.08936217       0.69934289      -1.43686541       1.17349563       0.88216506       2.53560326
C        3.00971458      -0.13163946       1.69513634      -0.37170654       1.05927647      -1.68831605
C        2.61746523       1.99815424       0.51036547       1.81970372      -3.96166401      -3.32998377
C        0.61038253       0.60035146       1.11836544       3.04137604       0.28723423       2.60724813
C        4.37830254      -0.23276315       0.96646977       1.24708362      -1.77782772       0.71664628
C        2.20341284       3.08537647       1.21237183      -1.76910731       6.58962178       3.34332402
C       -0.62575915       0.63176720      -1.84089121       1.42680418       2.33675655       0.96032787
C        0.21400538      -0.49849395      -1.28286692       0.01423986      -0.71356693       1.80224563
C       -0.01206240      -0.49384563       0.38035107      -0.35306383      -1.87293633      -3.39034333
H       -5.71204903       0.40910001       1.92300120      -1.53382529       2.21928785      -0.91931495
H       -4.36249068      -1.43351976       3.69046465      -0.19216095      -0.22493470       0.52583135
H       -4.48878958       0.80627701      -0.15033867       0.39353824      -0.48357671       0.84455657
H       -1.11384561      -1.63249247       2.53984705      -0.24908675      -0.27911905      -0.59097685
H        3.58913443       0.23439537      -1.03367766       1.13014440      -0.36108549       0.20875768
H        5.44569585      -0.08061646      -1.01046976      -1.25857690      -0.19097938       0.43839097
H        4.21959421      -1.38691179      -0.88417801       0.06678403      -0.43032364      -0.11899256
H        3.03675826       5.06161281       1.87757541       0.12198560      -0.26673110       0.36971656
H        4.20640332       3.84548541       1.20321024       0.13784386       0.44249531       0.26075737
H        3.16253407       4.84321996       0.20831747      -0.06930327      -0.12982235      -0.72314734
H       -2.53861716       0.20068492      -2.20116791      -2.14612293      -1.56966973      -1.71673707
H       -2.42130282       1.73401852      -1.45333966      -0.02838257       0.10848387      -0.26263609
H        3.17524144       0.28107645       2.68845025       0.12192840      -0.11558547       0.35287502
H        2.56531235      -1.10368900       1.78206721      -0.32420805      -0.45698905       0.10022629
H        2.18845543       2.20452137      -0.42262157       0.00024673      -0.31101294      -2.34428174
H        3.70591971       2.02345331       0.32944644      -0.45350725      -0.74167775       0.37802938
H        0.46905521       0.36140884       2.22547630      -0.16322734       0.47355291      -1.11408067
H        0.16696703       1.54979952       0.96083394      -0.59442679       0.77516264      -0.31589820
H        5.01552245      -1.05271749       1.47668317      -1.35506041       0.54038672      -0.97159457
H        4.98728988       0.55626262       1.34478227       0.24942630       1.27175046      -0.38979785
H        1.25338573       3.40629741       0.71316123       0.33792801       0.17508505       1.40714437
H        2.06188459       2.80592748       2.25719202      -0.29370399       0.45723943       0.16062589
H       -0.60496560       0.78074580      -2.90258964       0.27449987      -0.49104916      -0.71364258
H       -0.17380288       1.58584805      -1.48923882       0.02839716      -0.47911755      -0.01549145
H       -0.20131316      -1.43641321      -1.65872344      -0.06399577      -0.14962840       0.30701667
H        1.31816259      -0.56751756      -1.57629546      -1.58744033       0.77863095       0.58956147
H        0.37395660      -1.43775336       0.74213073       0.48983010      -0.15333446      -0.06164924
