47
Properties=species:S:1:pos:R:3:forces:R:3 id=702 bond=C-C smiles="[H:23][c:3]1[c:7]2[c:8]([c:4]([c:6]([c:5]1[O:1][H:21])[O:2][H:22])[H:24])[C:20]([C:19]([C:18]([C:12]2([H:31])[H:32])([H:43])[H:44])([H:45])[H:46])([H:47])[C:15]([H:37])([H:38])[N:9]([C:13]([H:33])([H:34])[C:16]([H:39])([H:40])[C:10]([H:25])([H:26])[H:27])[C:14]([H:35])([H:36])[C:17]([H:41])([H:42])[C:11]([H:28])([H:29])[H:30]" dataset=PubChem energy=-23665.824657865884 pbc="F F F"
O       -5.15374499      -0.70131786       2.01403544      -0.03969533      -2.11908693       1.24168542
O       -3.32047683      -2.11306263       3.32665048      -0.10311252       0.35933874      -0.84846201
C       -3.61228018      -0.12112467       0.23522620       0.41583985      -0.79754731      -1.14565053
C       -1.73400503      -1.64311291       1.59400187       0.83620578       0.64887168       1.49593435
C       -3.97887259      -0.84898568       1.37584469       2.05885132       0.73601925      -0.19535958
C       -3.00536733      -1.57288087       2.10418950      -0.61025712       0.16132704      -0.71361938
C       -2.29665142      -0.23332719      -0.30220838      -0.09048302      -0.54483337       1.05632511
C       -1.33244615      -0.91283251       0.48795939      -1.10558197       0.24158262      -1.61215878
N        2.22051901       0.36936970       0.68043323       1.05706064       0.31322181       0.27602817
C        4.57276839      -0.73758311      -0.84313907      -0.35623426       0.90037604       0.95872477
C        3.07489333       4.66212063       1.36833430      -0.39416366      -1.69198291      -0.10676154
C       -1.94900542       0.33079298      -1.67483367       1.17238310       0.88174076       2.53485389
C        3.15007133      -0.50018937       1.45716808      -0.21418665       0.93038545      -1.49825203
C        2.75782198       1.62960433       0.27239721      -1.17088298       0.71823364       1.60826257
C        0.75073928       0.23180155       0.88039718       2.74380446       0.28202895       2.52705392
C        4.51865929      -0.60131306       0.72850151       1.25922230      -1.75763673       0.71273882
C        2.06305609       3.45392638       1.45034009       0.84219146      -0.09340800      -1.75578659
C       -0.48540240       0.26321729      -2.07885947       1.43753764       2.36755729       0.96087334
C        0.35436213      -0.86704386      -1.52083518      -0.00189021      -0.70937000       1.79491827
C        0.12829435      -0.86239554       0.14238281      -0.29617012      -1.89154320      -3.37885083
H       -5.57169228       0.04055010       1.68503294      -1.53678892       2.22192271      -0.91921115
H       -4.22213393      -1.80206967       3.45249639      -0.19398367      -0.22430861       0.52807072
H       -4.34843283       0.43772710      -0.38830693       0.39731665      -0.48373748       0.84608884
H       -0.97348886      -2.00104238       2.30187879      -0.25085051      -0.27958173      -0.58632691
H        3.72949118      -0.13415454      -1.27164592       1.14751401      -0.36502761       0.17842132
H        5.58605260      -0.44916637      -1.24843802      -1.27015311      -0.18772482       0.43935009
H        4.35995096      -1.75546170      -1.12214627       0.06489188      -0.42726372      -0.12221594
H        2.89640151       5.43016272       2.11554367       0.07931304      -0.25391829       0.49385895
H        4.06604657       4.21403532       1.44117850       0.15914062       0.55037434       0.26205968
H        3.02217732       5.21176987       0.44628573      -0.07977395      -0.13702712      -0.69559264
H       -2.39826041      -0.16786499      -2.43913617      -2.14804954      -1.57024901      -1.71450544
H       -2.28094607       1.36546861      -1.69130792      -0.02252216       0.10554202      -0.26064758
H        3.31559819      -0.08747346       2.45048199       0.03732126      -0.07083832       0.25541964
H        2.70566910      -1.47223891       1.54409895      -0.34943263      -0.44375310       0.06647459
H        2.32881218       1.83597146      -0.66058983      -0.92379484       1.09018812      -1.09083137
H        3.84627646       1.65490340       0.09147818      -0.63093953       0.05764675       0.93887962
H        0.60941196      -0.00714107       1.98750804      -0.05001018       0.48493793      -1.13649641
H        0.30732378       1.18124961       0.72286568      -0.44159457       0.86208337      -0.32835301
H        5.15587920      -1.42126740       1.23871491      -1.37159103       0.54649615      -0.97531360
H        5.12764663       0.18771271       1.10681401       0.23101510       1.27152617      -0.38649070
H        1.11302898       3.77484732       0.95112949       0.67495226      -0.80148396       0.54155202
H        1.92152784       3.17447739       2.49516028      -0.09769738      -0.33836469      -0.34022142
H       -0.46460885       0.41219589      -3.14055790       0.27476446      -0.49841223      -0.71168202
H       -0.03344613       1.21729814      -1.72720708       0.01610796      -0.49193935      -0.01959812
H       -0.06095641      -1.80496312      -1.89669170      -0.05257742      -0.15050966       0.31366632
H        1.45851934      -0.93606747      -1.81426372      -1.58007872       0.76893940       0.57381495
H        0.51431335      -1.80630327       0.50416247       0.47689294      -0.16986919      -0.06485528
