33
Properties=species:S:1:pos:R:3:forces:R:3 id=4037 bond=C-P smiles="[H:19][c:2]1[c:3]([c:7]([c:13]([c:8]([c:4]1[H:21])[H:25])[P:18]2(=[S:1])[N:14]([c:9]3[c:5]([c:11]([c:12]([c:6]([c:10]3[N:15]2[H:27])[H:23])[C:17]([H:31])([H:32])[H:33])[C:16]([H:28])([H:29])[H:30])[H:22])[H:26])[H:24])[H:20]" dataset=PubChem energy=-37883.53858149866 pbc="F F F"
S        0.68942640       2.98497614      -2.08732743      -0.33198138      -0.42337869       0.49892119
C       -4.76335436       2.37761016      -0.26893169       0.04138833      -0.36384749       0.09679909
C       -4.12750155       1.25537892       0.28156790       0.78311055       1.12884184      -0.31272385
C       -4.01586205       3.35535045      -0.90907681       1.26966892      -0.42482390      -0.22233507
C        2.55840050       0.67654105       1.96882443       0.16357491      -0.78768592      -0.06629958
C        2.11309229      -1.33459309       0.04255606       0.80102230       0.41543045       1.65564862
C       -2.73129470       1.14298762       0.23374876       0.02960058       0.40818011       0.07948043
C       -2.61028940       3.19219775      -1.05238867       0.03110168      -0.15868340       0.10101101
C        1.58203320       0.85171768       0.99073125       2.14390997      -1.53576687       1.02967588
C        1.37813585      -0.15637144       0.04477577       0.97656646      -1.24412188       0.28058784
C        3.32014500      -0.50781015       2.04497306      -0.27043130      -0.09629631      -0.79841694
C        3.09941302      -1.50539651       1.06445711      -0.61549078       0.16670371      -0.85610575
C       -1.95672113       2.08174033      -0.47243226       1.00992859      -0.36507850       0.01552354
N        0.84509582       1.99614367       0.79958229      -1.78697693       0.19932837      -0.88830923
N        0.43885389       0.14426741      -0.93949790      -1.20071643       1.40565322       0.15628889
C        4.42893826      -0.70883969       3.07348828      -0.66202300      -0.65464871       0.09455107
C        3.98622357      -2.72594920       0.97221927      -0.24867539       0.18010980       0.23729405
P        0.03484242       1.78347108      -0.67652554      -2.42191278       2.29065704      -1.75613435
H       -5.84825951       2.47257538      -0.16860074       0.43976836       0.00985045      -0.12114154
H       -4.71847445       0.53896374       0.79681682      -0.23072474      -0.53648541       0.36657013
H       -4.48631627       4.22332616      -1.35462213       0.03184109      -0.07934921       0.11813753
H        2.77757417       1.46703002       2.66259603      -0.09471503       0.24238670       0.18816374
H        1.95107054      -2.11238757      -0.70786066       0.05850916       0.38852798       0.27314438
H       -2.22795922       0.39381208       0.83807707      -0.15157082      -0.20720151      -0.40713076
H       -2.03283054       3.94474550      -1.60905671      -0.26159342      -0.52401792       0.32463728
H        1.28835904       2.89936360       0.83925678       0.18032344      -0.02548618       0.19690057
H        0.74066625       0.01092043      -1.89811201      -0.13138434      -0.07815670       0.16082707
H        4.13147889      -1.47303024       3.84257202       0.27663703       0.75974984      -0.65158343
H        5.30932151      -1.09083465       2.56764512       0.14040855      -0.09837888       0.03087101
H        4.73233996       0.20365560       3.57402329      -0.25308851       0.14156196       0.07452590
H        4.18748723      -3.11197272       1.96678500       0.20247234      -0.12910902      -0.00234099
H        3.52115403      -3.52890482       0.39518129       0.09081595       0.23149814       0.00233587
H        4.92883979      -2.43676534       0.49865412      -0.01207813      -0.23643391       0.10304163
