33
Properties=species:S:1:pos:R:3:forces:R:3 id=4037 bond=C-P smiles="[H:19][c:2]1[c:3]([c:7]([c:13]([c:8]([c:4]1[H:21])[H:25])[P:18]2(=[S:1])[N:14]([c:9]3[c:5]([c:11]([c:12]([c:6]([c:10]3[N:15]2[H:27])[H:23])[C:17]([H:31])([H:32])[H:33])[C:16]([H:28])([H:29])[H:30])[H:22])[H:26])[H:24])[H:20]" dataset=PubChem energy=-37864.02449080631 pbc="F F F"
S        0.23927848       3.05239316      -2.04119675       3.72772911      -0.21479181      -1.34330065
C       -4.31320644       2.31019314      -0.31506237       0.14596354      -0.19408487      -0.05268049
C       -3.67735363       1.18796190       0.23543722       1.24845822       0.61370213      -0.13880628
C       -3.56571413       3.28793343      -0.95520749       1.21685507      -0.34875912      -0.22656654
C        2.10825258       0.74395807       2.01495511       0.22111661      -0.92099843      -0.01854379
C        1.66294437      -1.26717607       0.08868674       0.88653388       0.37815058       1.77870062
C       -2.28114678       1.07557060       0.18761808      -2.78701100       0.28999112       0.92375408
C       -2.16014148       3.12478073      -1.09851935      -4.21869735       0.83354253       0.77092358
C        1.13188528       0.91913470       1.03686193       2.17678711      -1.09568897       1.17593762
C        0.92798793      -0.08895442       0.09090645       0.93516200      -1.38328538      -0.15110575
C        2.86999708      -0.44039313       2.09110374      -0.27519924      -0.07383628      -0.76985384
C        2.64926510      -1.43797949       1.11058779      -0.64117396       0.12016634      -0.86486364
C       -1.50657321       2.01432331      -0.51856294     -95.89021588      14.42858189       9.48191441
N        0.39494790       2.06356069       0.84571297      -0.21590817      -0.02903619      -0.30629405
N       -0.01129403       0.21168443      -0.89336722       0.17407305       0.69480972      -0.06696827
C        3.97879034      -0.64142267       3.11961896      -0.65976261      -0.66072654       0.08299146
C        3.53607565      -2.65853218       1.01834995      -0.23537185       0.18973252       0.24099303
P       -0.41530550       1.85088810      -0.63039486      93.84440737     -12.17164543     -11.58781921
H       -5.39811159       2.40515836      -0.21473142       0.41927297      -0.00925396      -0.10203145
H       -4.26832653       0.47154672       0.75068614      -0.20343826      -0.53587639       0.34157951
H       -4.03616835       4.15590914      -1.40075281       0.04267897      -0.09846843       0.12053624
H        2.32742625       1.53444704       2.70872671      -0.08486558       0.25334151       0.18200128
H        1.50092262      -2.04497055      -0.66172998       0.06937567       0.39241878       0.25774796
H       -1.77781130       0.32639506       0.79194639      -0.18087151      -0.07196419      -0.46973616
H       -1.58268262       3.87732848      -1.65518739      -0.64652389      -0.75107379       0.70409755
H        0.83821112       2.96678062       0.88538746       0.37051885      -0.11630009       0.24064673
H        0.29051833       0.07833745      -1.85198133       0.09180660      -0.16441827       0.22260418
H        3.68133097      -1.40561322       3.88870270       0.28202074       0.75274661      -0.64107073
H        4.85917359      -1.02341763       2.61377580       0.14894104      -0.10080052       0.03504857
H        4.28219204       0.27107262       3.62015397      -0.25036520       0.14594523       0.07633297
H        3.73733931      -3.04455570       2.01291568       0.20894631      -0.13754560       0.00383134
H        3.07100611      -3.46148780       0.44131197       0.08924429       0.22742914      -0.00221393
H        4.47869187      -2.36934832       0.54478480      -0.00412579      -0.24393533       0.10056884
