11
Properties=species:S:1:pos:R:3:forces:R:3 id=1153 bond=C-S smiles="[H:8][C:4]([H:9])([S:1][H:6])[S:3][C:5]([H:10])([H:11])[S:2][H:7]" dataset=PubChem energy=-34684.09198389513 pbc="F F F"
S       -2.28694937       1.59629955       1.25482025      -0.27130567       0.09166964      -0.02135677
S        2.74100854      -1.46827052      -0.19746123      -0.43839959       0.36919682      -0.01756707
S        0.15259387      -0.15200881       0.77343593      -0.11474166       0.37222792       0.01749541
C       -0.54364465       1.56209447       0.78336587       1.10441132       0.08188373       0.51666366
C        1.74798002       0.07828491      -0.10045538      -0.32911019      -0.09091781       0.01395402
H       -2.43955085       0.34011423       1.67699804       0.19643697      -0.12096216       0.02760215
H        3.04659941      -1.66441390       1.10799624      -0.29290950       0.40308090      -0.32868144
H        0.03116777       2.21415737       1.47639098      -0.36129610      -0.63118304      -0.32704349
H       -0.47205803       2.02464773      -0.19246695       0.00544641      -0.19036136      -0.29647565
H        2.33153810       0.85964533       0.34616435       0.23393142       0.23558720       0.45541791
H        1.51226451       0.43039905      -1.10783885       0.26999229      -0.51697423      -0.03961904
