20
Properties=species:S:1:pos:R:3:forces:R:3 id=44546 bond=C-C smiles="[H:15][C:10]([H:16])([H:17])[N:9]([C:11]([H:18])([H:19])[H:20])[N:8]([H:14])[C:7](=[S:6])[C:13]([C:12]([F:1])([F:2])[F:3])([F:4])[F:5]" dataset=PubChem energy=-32688.760729764865 pbc="F F F"
F        1.60468035       0.29165739       2.10109471      -0.83120031      -2.64681306       1.40778775
F        0.38816258      -0.65803591       3.59018646      -0.37305008      -1.11465176      -0.53267171
F       -0.03172211       1.24933323       2.88062011      -2.02908579       1.64027601      -0.12516188
F       -0.24992783      -1.62184587       0.86044781       2.50208949      -3.51940945      -0.18787217
F       -1.84443302      -1.04104629       2.18175839       1.34752660      -1.77703988       3.94813480
S       -2.61975384       0.06768306       0.31822085      -0.81673542       1.37977383      -1.43743952
C       -1.03812563       0.04479070       0.84117152     -40.03259726      78.56458628     -88.37524418
N       -0.20739299       0.78672697      -0.04806948      -0.27531023      -0.38113728      -0.33649310
N        1.22677481       0.71571688      -0.01555819      -2.14848390      -0.05864800      -1.62317590
C        1.82953667       0.12225379      -1.19286138      -1.49619887       0.98491502      -1.10301278
C        1.74427938       2.01800855       0.41128656      -0.53779629       1.29195435      -1.05355461
C        0.29890276       0.05480525       2.45970331       3.47594819       0.26726044       3.83763922
C       -0.74749751      -0.50562373       1.45637022      37.56536062     -74.28865313      84.12803456
H       -0.78783679       0.77542426      -0.92387993       1.46898403       0.60425226       0.49697539
H        2.80341434       0.48230237      -1.09057480       1.88351743      -0.16678837      -0.33309092
H        1.45990711       0.51527558      -2.18967277       0.05841650      -0.07409514       0.96117820
H        1.76513934      -0.95433621      -1.27037555      -0.00535993      -0.18940032       0.51882562
H        1.50796139       2.18497987       1.47967344       0.21573784       0.26037609      -1.14811614
H        2.83439445       2.10014732       0.25704047      -0.54626292      -0.34297690       0.16623238
H        1.25533140       2.80337448      -0.23549873       0.59734480      -0.42619091       0.79577045
