20
Properties=species:S:1:pos:R:3:forces:R:3 id=44546 bond=C-C smiles="[H:15][C:10]([H:16])([H:17])[N:9]([C:11]([H:18])([H:19])[H:20])[N:8]([H:14])[C:7](=[S:6])[C:13]([C:12]([F:1])([F:2])[F:3])([F:4])[F:5]" dataset=PubChem energy=-32707.171424701337 pbc="F F F"
F        1.94502117      -0.35290687       2.82152475      -0.94489552      -1.52859375      -1.41866528
F        0.72850340      -1.30260017       4.31061650      -0.31923485      -1.25587467      -0.35319727
F        0.30861871       0.60476897       3.60105015      -1.87279245       1.63813179      -0.06071671
F        0.09041299      -2.26641013       1.58087785       0.01207817       1.43625268      -0.12938325
F       -1.50409220      -1.68561055       2.90218843       1.75739751       2.03477107      -1.21351708
S       -2.96009466       0.71224732      -0.40220919       1.47230554      -0.93781141       2.26319450
C       -1.37846645       0.68935496       0.12074148      -1.00624581       1.13065406      -3.03110089
N       -0.54773381       1.43129123      -0.76849952      -0.26356262      -2.47603809       1.65927294
N        0.88643399       1.36028114      -0.73598823      -1.57415939      -0.35573644       0.47069317
C        1.48919585       0.76681805      -1.91329142      -1.47684125       0.93567602      -1.08673849
C        1.40393856       2.66257281      -0.30914348      -0.45483590       0.84603051      -0.79608518
C        0.63924358      -0.58975901       3.18013335       1.92256571       1.42224140       1.70703885
C       -0.40715669      -1.15018799       2.17680026      -1.13094366      -2.33880620      -0.06681407
H       -1.12817761       1.41998852      -1.64430997       1.83978747       0.60676384       0.59714630
H        2.46307352       1.12686663      -1.81100484       1.87516384      -0.17822744      -0.32913167
H        1.11956629       1.15983984      -2.91010281       0.05230192      -0.05632112       0.97751782
H        1.42479852      -0.30977195      -1.99080559       0.00115326      -0.18061259       0.51353889
H        1.16762057       2.82954413       0.75924340       0.09944082      -0.06156416      -0.72340885
H        2.49405363       2.74471158      -0.46338957      -0.56359348      -0.32352318       0.17040477
H        0.91499058       3.44793874      -0.95592877       0.56352281      -0.36018989       0.84461046
