8
Properties=species:S:1:pos:R:3:forces:R:3 id=44342 bond=N-N smiles="[H:5][N:3]([H:6])/[N:1]=[N:2]/[N:4]([H:7])[H:8]" dataset=PubChem energy=-6026.0307204295295 pbc="F F F"
N        0.41361552       0.25698567      -0.08326636       0.88755872       0.44441442       4.44130666
N        0.58599230       0.77582000       1.10944458       2.74742832      -1.44825839      -3.46074843
N       -0.86990204       0.35505989      -0.36129615      -3.99412994      -1.16118541      -2.51417634
N        1.93409366       0.61395940       1.33850660       0.52329128       1.23476790       2.29870720
H       -1.50772979      -0.48173275      -0.33718280       1.62115884       1.04266240      -0.11488782
H       -1.29605808       1.14706263       0.03989353      -0.68022109       0.74560416       0.78899961
H        2.45010096       1.26702459       1.96591415      -1.32388746      -0.69855725      -0.88342895
H        2.45831866       0.30704093       0.55036205       0.21857373      -0.15942145      -0.55557400
