8
Properties=species:S:1:pos:R:3:forces:R:3 id=44342 bond=N-N smiles="[H:5][N:3]([H:6])/[N:1]=[N:2]/[N:4]([H:7])[H:8]" dataset=PubChem energy=-6025.974029973206 pbc="F F F"
N        0.44610868       0.25308436      -0.07774530       0.46715968       0.44032466       4.03892292
N        0.61848546       0.77191869       1.11496564       0.56654164      -1.31404853      -3.72241344
N       -0.83740888       0.35115858      -0.35577509      -4.12804276      -1.21794671      -2.64973562
N        1.90160050       0.61786071       1.33298554       3.01952027       1.33081416       2.97017303
H       -1.47523663      -0.48563406      -0.33166174       1.59641687       1.04858795      -0.06099913
H       -1.26356492       1.14316132       0.04541459      -0.67766276       0.73592438       0.74133454
H        2.41760780       1.27092590       1.96039309      -1.22783408      -0.77071614      -0.80847674
H        2.42582550       0.31094224       0.54484099       0.38372254      -0.25280650      -0.50851772
