42
Properties=species:S:1:pos:R:3:forces:R:3 id=6368 bond=C-N smiles="[H:21][C:6]1([C:8]([C:12]([C:16]([C:13]([C:9]1([H:27])[H:28])([H:35])[H:36])([H:41])/[N:1]=[C:3](/[N:5]([H:20])[C:17]2([C:14]([C:10]([C:7]([C:11]([C:15]2([H:39])[H:40])([H:31])[H:32])([H:23])[H:24])([H:29])[H:30])([H:37])[H:38])[H:42])[N:4]([H:19])[O:2][H:18])([H:33])[H:34])([H:25])[H:26])[H:22]" dataset=PubChem energy=-20416.49238561547 pbc="F F F"
N        0.31842441       0.03060831       1.04038196       0.29828815      -1.38039047      -0.21168976
O        1.39757343      -2.85053716      -0.73242027      -0.03959008      -0.60405860      -0.50073030
C        0.68735345      -0.73724268       0.00552609      -2.21739238       4.32535684       4.23885540
N        1.58038415      -1.73046051       0.10581132       0.28794680      -0.46428477      -1.40532963
N        0.17344262      -0.27130804      -1.21618230      -0.41028819      -1.42945331       1.00644166
C       -0.37722526       0.64238409       5.27046679      -0.06294466      -0.27064546      -0.70474789
C        0.42470350       2.84762921      -2.96337194      -0.21316423       1.42014494       1.68323442
C        0.77846342       1.44802096       4.54185365      -2.48342782      -0.83340868       0.64144071
C       -0.32678065      -0.84197518       4.78849315      -0.29427682       0.54561312       4.65567686
C        1.11949970       2.53218474      -1.62086744      -0.47717814      -0.52238222      -0.31980436
C       -0.39637617       1.70438506      -3.46377558      -1.59525866      -1.32862759       0.32735380
C        0.50155825       1.34465411       3.05058311       1.50240408       0.30943666       0.64580190
C       -0.34732107      -0.97265241       3.37602996      -0.50495540      -1.57587054      -4.59120365
C        2.01539423       1.30405350      -1.75314469      -0.64698290      -0.85936371       1.66271309
C        0.56125891       0.44222400      -3.51412481      -0.45351290       1.47233026      -0.71664601
C        0.59511297      -0.07504919       2.57108258       0.01705301       0.12296552      -1.87410535
C        1.19240954       0.05450805      -2.15072364       0.64711416       0.73126331      -3.14110021
H        0.57174560      -2.74872075      -1.25344915       0.53920991       0.36819540       0.80920350
H        1.80791940      -1.98369298       1.04432105      -0.17570816      -0.50840853       0.26835209
H       -0.49998221       0.48390420      -1.01544542       0.78910673      -0.74629467      -0.04793817
H       -0.46261016       0.75964079       6.36860751       0.79520303      -0.32487735      -0.49541593
H       -1.39238200       1.05055114       4.96847771       1.23935796      -0.19924507      -0.19811290
H       -0.05806122       3.81907262      -2.75411934      -0.57949421      -0.57935717      -0.46736595
H        1.14485218       3.10163607      -3.71123785       0.76768933      -0.05016577      -0.50774758
H        1.78247597       1.21192237       4.76853131       1.03129485      -1.44705924       0.33670173
H        0.74940716       2.37569716       5.03213452      -0.42308602       2.03760930      -0.32657376
H        0.65259240      -1.29011879       5.03550815      -0.53361563       0.10968355       1.06554787
H       -1.22568629      -1.34020207       5.34097050       1.82775911       0.20777740      -1.19249046
H        1.65129652       3.39885129      -1.29087908       0.74491510       0.46484913       0.01710153
H        0.36361941       2.43015446      -0.83945508      -0.06466392      -0.38419472      -0.07971864
H       -1.36360488       1.46454157      -2.89385075       1.63958477       0.30870301       0.19574005
H       -0.93607852       1.93927933      -4.39954657       1.07811849      -0.24370607      -0.21548066
H        1.19339259       1.90714707       2.46425818       0.75749459       0.47687759      -0.27755236
H       -0.40669165       1.75103810       2.78446387      -2.31865703       0.75931823      -0.30014916
H       -1.32991335      -0.70170221       3.01059245      -0.40316747      -0.24068650      -0.41429633
H       -0.11926517      -2.04871759       3.08414220      -0.61296212       1.13884659       0.21765319
H        2.75657203       1.54385807      -2.46201176       0.90513724      -0.07506058      -1.07290934
H        2.54214813       1.02671759      -0.83927972      -0.02967523       0.44749732       0.22816500
H        0.04914158      -0.31616758      -4.03452772      -0.86029775      -1.43797403       0.00932946
H        1.34818824       0.66651954      -4.24959320       0.14936534       0.23057258       0.53264099
H        1.63659336      -0.26182613       2.74925398       0.72666003      -1.02882940       0.02662013
H        1.81101324      -0.86211787      -2.35486717      -0.34012625       1.05729420       0.49063634
