10
Properties=species:S:1:pos:R:3:forces:R:3 id=4110 bond=N-P smiles="[H:10][N:7]([P:8]([F:1])[F:2])[P:9]([F:3])([F:4])([F:5])[F:6]" dataset=PubChem energy=-36353.38550226752 pbc="F F F"
F        2.70179517       1.45513636      -1.19615156      -0.66099884       0.84883115       0.03222029
F        2.19236106       1.89643747       1.58241421       0.42065616       2.38513171       0.58229804
F        0.85699276       0.21590508       2.15505288      -2.35689731      -1.11525015      -0.94375138
F       -1.31168403       1.35580937       1.00271998      -1.92970076       1.58760197       2.99504695
F        0.27584443      -1.07152034      -0.10976191       0.88458812     -15.06367160      -1.09148060
F       -1.25915053      -0.74585034       1.46634303       0.66166539      -0.78795036       0.47829313
N        0.19662766       0.56938924       0.11713451      82.36259708     105.68897335    -187.58480610
P        1.75225992       1.25979698       0.21795553       7.38013028       0.26175872      -2.10245313
P       -0.14124432       0.17684219       0.87382649     -88.10433808     -95.80618863     188.93441761
H        0.02797005       0.17982634      -0.81776077       1.35769064       1.99181511      -1.29385798
