10
Properties=species:S:1:pos:R:3:forces:R:3 id=4110 bond=N-P smiles="[H:10][N:7]([P:8]([F:1])[F:2])[P:9]([F:3])([F:4])([F:5])[F:6]" dataset=PubChem energy=-36398.0594862352 pbc="F F F"
F        3.12413516       1.94582018      -2.14201654      -0.69395954       0.21257937       1.49786942
F        2.61470105       2.38712129       0.63654923      -0.30014166       0.27628457       0.09044051
F        0.43465277      -0.27477874       3.10091786      -1.14612479      -0.10857132      -1.36641719
F       -1.73402402       0.86512555       1.94858496       1.52058326       0.22414085      -0.22736088
F       -0.14649556      -1.56220416       0.83610307       0.45954298       0.77790549       0.46085179
F       -1.68149052      -1.23653416       2.41220801       0.38315742      -0.75423170       0.61891531
N        0.61896765       1.06007306      -0.82873047       3.61985424       1.70029722       1.68569613
P        2.17459991       1.75048080      -0.72790945      -3.01145319      -2.68380722      -2.43141724
P       -0.56358431      -0.31384163       1.81969147      -0.88411414       0.21339727      -0.20974222
H        0.45031004       0.67051016      -1.76362575       0.06650116       0.14384000      -0.13026159
