36
Properties=species:S:1:pos:R:3:forces:R:3 id=8322 bond=C-S smiles="[H:30][c:17]1[c:9]([c:13]([c:15]([c:18]2[c:19]1[c:16]([c:5]([n:3][c:14]2[H:27])[N:20]([H:31])[C:22]([H:35])([H:36])[S:4][C:21]([H:32])([H:33])[H:34])[H:29])[H:28])[c:12]3[c:8]([c:10]([c:6]([c:7]([c:11]3[Cl:2])[H:24])[H:23])[F:1])[H:25])[H:26]" dataset=PubChem energy=-46928.89292591914 pbc="F F F"
F        6.01223268       0.05330247       4.75356902      -0.59913065       0.28743138      -0.59143659
Cl       3.80701079       2.97503555       0.06498207       0.17871616      -0.28965316       0.60878645
N       -2.23480092       1.81160427       0.40519433       0.96148300       1.50357724       0.57954903
S       -5.58952103      -1.45280146      -1.33834134       1.20263590       0.80740650      -2.20205914
C       -2.47824965       0.50006946       0.25616677       0.15024720      -1.70236530       0.01196396
C        6.22333135       1.64590633       3.00818933      -0.42648676       0.15016482       0.03816119
C        5.66811503       2.39152659       1.94932402      -0.21755429      -0.50518042       0.32101755
C        4.12053813       0.53596632       3.31751479       1.35703063       0.20385877       0.26079690
C        2.03430499      -0.61788189       1.53199895      -2.09827203      -0.62080395      -0.73954017
C        5.44845284       0.71801556       3.71140159      -0.27428870       0.99829856      -1.05815556
C        4.35836019       2.15545738       1.52705433       0.66724804      -0.33767298       0.27081358
C        3.60117330       1.19355107       2.19866921      -0.59228988      -0.28773069      -0.31500325
C        2.26318802       0.74396104       1.70842363       0.01778579       1.98756672       0.10817825
C       -1.02709005       2.18670691       0.80130881      -0.86522868      -0.60914465      -0.68517074
C        1.27474417       1.70369232       1.44157799       0.52411606      -1.67994791       0.59593919
C       -1.51707432      -0.48866456       0.44397815      -0.60582648       0.96648592       0.13829778
C        0.76002960      -1.05229663       1.10988481       2.73880357      -0.40427725       0.90790960
C        0.00947769       1.24654901       1.02470003       0.82723337       1.32219447       0.61085054
C       -0.22921214      -0.13232338       0.88542852      -1.69891345       0.81626200      -0.91630470
N       -3.77180300       0.18992328      -0.12186227      -0.18696776       0.09159962       0.11432243
C       -4.33368191      -0.77763208      -3.55154428      -1.36457440      -0.10329548      -0.00807191
C       -4.40578518      -1.12316787       0.01284148       0.42396995       0.57750171      -0.22710661
H        7.23362150       1.78753198       3.35064329       0.19594731       0.19288421      -0.17191484
H        6.21206273       3.13871992       1.38978000       0.35049516      -0.13046471       0.25373412
H        3.51001682      -0.11503046       3.89034332      -0.50826653      -0.56961281       0.18953238
H        2.84056773      -1.30410993       1.70029975       0.10985986      -0.28363506       0.06608077
H       -0.79130266       3.26111734       0.92338777      -0.43659828      -0.71417944      -0.11940632
H        1.46822514       2.74252594       1.67389323      -0.10846662      -0.04990961      -0.26153390
H       -1.79033695      -1.50195860       0.28045012       0.09609834      -0.61058844      -0.01591951
H        0.52006266      -2.09230196       0.96972328       0.21201506      -0.19812055       0.00603346
H       -4.36555586       1.01561725      -0.12761973       0.02903235      -0.58857476      -0.02315022
H       -4.40922246       0.31091846      -3.66278753      -0.21471805      -0.43287683       0.79773626
H       -3.31115422      -1.10032626      -3.54243144       0.28210653      -0.31914802       0.79129923
H       -4.84334836      -1.24713882      -4.43134651      -0.07832443       0.02861435       1.42954410
H       -3.68133936      -1.93320858       0.03407641       0.18914839       0.38243138      -0.18329021
H       -4.93691883      -1.22232520       0.98031370      -0.23139904       0.11412209      -0.58624026
