13
Properties=species:S:1:pos:R:3:forces:R:3 id=39542 bond=C-S smiles="[H:7][C:3]([H:8])([H:9])[S:2][C:5]([H:12])([H:13])[C:4]([H:10])([H:11])[S:1][H:6]" dataset="DES370K Monomers" energy=-24916.13932008096 pbc="F F F"
S        0.52401234       2.50626002       0.06527174       6.09196857      11.36440532      -4.30439765
S       -0.85874338      -1.39112173       0.04772685       0.24002004       0.03717167      -0.16037038
C       -2.63268144      -0.99412988      -0.05723868       0.45927451       1.44417311      -0.24757227
C       -0.13615316       1.24172284       0.55537038      -4.89584807      -9.33202528       3.51629450
C       -0.09379507       0.16969072      -0.54029758      -1.22702591      -0.09801108      -0.03180181
H        0.14753899       3.38380347       1.02359111       0.14501897      -0.18318187      -0.24107699
H       -3.21036107      -1.82686888       0.32177137       0.05354510      -0.14494201      -0.08756914
H       -2.84154875      -0.78504054      -1.11876125      -0.27917951      -0.20192596       0.53739396
H       -2.86842878      -0.08352360       0.54618220       0.15030733      -0.79392852      -0.46105676
H       -1.13262625       1.51507558       0.83588605      -1.03102965      -0.88427623       0.19364672
H        0.33627479       0.82087995       1.41682749       0.14377409      -0.63440745       0.73440964
H       -0.60391958       0.54801194      -1.44421393       0.07907078      -0.28457593       0.37834018
H        0.93452476      -0.01339830      -0.83841336       0.06687332      -0.28297425       0.17414384
