13
Properties=species:S:1:pos:R:3:forces:R:3 id=39542 bond=C-S smiles="[H:7][C:3]([H:8])([H:9])[S:2][C:5]([H:12])([H:13])[C:4]([H:10])([H:11])[S:1][H:6]" dataset="DES370K Monomers" energy=-24916.861698818484 pbc="F F F"
S        0.68005146       2.80515063      -0.05056975      -1.20692796      -2.47274384       0.99371141
S       -1.01478250      -1.69001234       0.16356834       0.25148084       0.26724070       0.03223640
C       -2.78872056      -1.29302049       0.05860281       0.40248391       1.45260011      -0.23793132
C       -0.29219228       0.94283223       0.67121187       0.85389679       1.05839491      -1.19128558
C       -0.24983419      -0.12919989      -0.42445609      -0.61565362       1.19432682      -0.38482307
H        0.30357811       3.68269408       0.90774962      -0.08239046      -0.52665780      -0.08412490
H       -3.36640019      -2.12575949       0.43761286       0.05401610      -0.14174338      -0.08351057
H       -2.99758787      -1.08393115      -1.00291976      -0.26716603      -0.20335954       0.53856964
H       -3.02446790      -0.38241421       0.66202369       0.13623654      -0.82624737      -0.47628211
H       -1.28866537       1.21618497       0.95172754      -0.40580550       0.46679519      -0.18173662
H        0.18023567       0.52198934       1.53266898       0.80046513       0.47952803       0.53339496
H       -0.75995870       0.24912133      -1.32837244       0.08031019      -0.38671196       0.37693537
H        0.77848564      -0.31228891      -0.72257187      -0.00302159      -0.35809319       0.16635817
