19
Properties=species:S:1:pos:R:3:forces:R:3 id=33935 bond=C-S smiles="[H:8][C:3]([H:9])([H:10])[S:1][C:5]([H:14])([H:15])[C:7]([H:18])([H:19])[C:6]([H:16])([H:17])[S:2][C:4]([H:11])([H:12])[H:13]" dataset="DES370K Monomers" energy=-27058.203037322208 pbc="F F F"
S       -0.42819866       1.85615181       1.42226915       2.62587953       0.79376632       1.13733003
S        0.08387846      -2.15685106      -1.34590801      -0.03270550      -0.63950804       0.12785106
C        1.29797759       2.48133779       2.28708001      -0.96214444      -0.22225163      -0.82475688
C        0.09554798      -3.05023719      -2.95080395       0.38663123       0.33232846       0.43079021
C        0.19660309       0.90635835      -0.01475894       0.66479693      -0.38725982       0.74975314
C       -0.68433692      -0.59461577      -1.84668489       0.49707532      -0.25289201      -0.44094024
C       -1.02312412       0.30189495      -0.66218545      -0.14935520      -0.30469036      -0.43614088
H        1.84812417       3.18831992       1.64780791      -0.68183400      -0.14330198       0.01946139
H        1.13017967       2.96099187       3.27452035      -0.37613716      -0.49847257      -0.80798967
H        1.96708252       1.63131917       2.40358182      -0.38966042      -0.22418817       0.10511636
H       -0.88841393      -2.97208071      -3.42359277       0.21946137      -0.36256783       0.16120812
H        0.83519206      -2.56419397      -3.58407231      -0.05997506      -0.10531576      -0.15067788
H        0.43448523      -4.09163166      -2.76605721      -0.52599410       0.72888759      -0.10604625
H        0.91059414       0.10481883       0.27718402      -0.43743732       0.67088227       0.05054811
H        0.68624190       1.56708466      -0.73021712       0.05313074      -0.00706704       0.13387183
H       -1.57584658      -0.85912604      -2.40482803      -0.16832270       0.14864109      -0.06326018
H        0.03446824      -0.12000325      -2.52888008      -0.39171658       0.17537361       0.14720186
H       -1.58888843       1.13401174      -1.04619713      -0.52464507       0.23041741      -0.17750607
H       -1.66240802      -0.23306087       0.04860202       0.25512020       0.06735067      -0.06031363
