19
Properties=species:S:1:pos:R:3:forces:R:3 id=33935 bond=C-S smiles="[H:8][C:3]([H:9])([H:10])[S:1][C:5]([H:14])([H:15])[C:7]([H:18])([H:19])[C:6]([H:16])([H:17])[S:2][C:4]([H:11])([H:12])[H:13]" dataset="DES370K Monomers" energy=-27058.151435997734 pbc="F F F"
S       -0.25324836       1.91951525       1.50991890      -4.87370892      -1.96395292      -2.58408118
S        0.25882876      -2.09348762      -1.25825826      -0.03493466      -0.63707043       0.12439498
C        1.12302729       2.41797435       2.19943026       5.06204467       1.91047539       2.06614884
C        0.27049828      -2.98687375      -2.86315420       0.38972358       0.32857043       0.43297114
C        0.37155339       0.96972179       0.07289081       0.21616569      -0.37272476       0.75070731
C       -0.50938662      -0.53125233      -1.75903514       0.46216030      -0.24441358      -0.43945251
C       -0.84817382       0.36525839      -0.57453570      -0.07987172      -0.36131391      -0.53462394
H        1.67317387       3.12495648       1.56015816      -0.03240027       0.09113364       0.35545458
H        0.95522937       2.89762843       3.18687060       0.06993808      -0.36984960      -0.65780037
H        1.79213222       1.56795573       2.31593207       0.26745171       0.03091712       0.48696735
H       -0.71346363      -2.90871727      -3.33594302       0.21941266      -0.36143257       0.16230054
H        1.01014236      -2.50083053      -3.49642256      -0.06008263      -0.10505255      -0.15093990
H        0.60943553      -4.02826822      -2.67840746      -0.52573445       0.72820774      -0.10731671
H        1.08554444       0.16818227       0.36483377      -0.37925777       0.66202232       0.12336768
H        0.86119220       1.63044810      -0.64256737       0.10083702       0.04540996       0.12680365
H       -1.40089628      -0.79576260      -2.31717828      -0.16501020       0.14011290      -0.07074702
H        0.20941854      -0.05663981      -2.44123033      -0.38962483       0.17286185       0.14374358
H       -1.41393813       1.19737518      -0.95854738      -0.51681858       0.22520570      -0.17132776
H       -1.48745772      -0.16969743       0.13625177       0.26772771       0.08061633      -0.06185155
