38
Properties=species:S:1:pos:R:3:forces:R:3 id=45871 bond=C-P smiles="[H:17][C:3]1([C:5]([C:9]([C:13]([C:10]([C:6]1([H:23])[H:24])([H:31])[H:32])([H:37])[P:15](=[S:1])([C:14]2([C:11]([C:7]([C:4]([C:8]([C:12]2([H:35])[H:36])([H:27])[H:28])([H:19])[H:20])([H:25])[H:26])([H:33])[H:34])[H:38])[S:2][H:16])([H:29])[H:30])([H:21])[H:22])[H:18]" dataset=PubChem energy=-43793.92654506865 pbc="F F F"
S       -0.20027981      -2.39931557      -0.86892145       0.71742453      -0.14033977       0.23119521
S       -2.43880222      -0.25052581      -0.71946852      -1.09275370       0.82957847      -0.19652977
C        2.36852756       2.47447063      -2.80179956       0.21937260       0.06573757       0.55162197
C       -0.05220331      -0.05346615       4.50855619      -0.53370833      -0.55487617       0.54452432
C        3.03108837       1.23492070      -2.19901612      -0.01374904       0.45348046      -0.32250384
C        1.29214748       3.01801731      -1.86826828      -0.01428633       0.31214132      -0.41374571
C       -1.32540534       0.46631036       3.80189616       1.03089145      -0.20159654       0.44530604
C        0.55077894      -1.30456719       3.87773664      -0.88593531      -0.14114599      -0.12011035
C        2.01846197       0.25053929      -1.67910769      -1.34233427      -0.98568697       0.54258419
C        0.21230739       1.99782588      -1.51593127       0.93419137       0.03793327       0.66204982
C       -0.98819969       0.69294732       2.33268685       0.02901690       0.01552307       0.44154188
C        0.75451278      -1.08065602       2.39289434       1.02149318       0.30679090      -0.52438692
C        0.95546758       0.90661523      -0.77668109      -1.68905712      -1.92133670      -0.20121137
C       -0.57980392      -0.67607448       1.77281506       0.22733710       0.84242332      -0.53282932
P       -0.54494534      -0.64275238      -0.05720668       3.02990868       0.22162510      -1.08682224
H       -2.34317777      -1.39310190      -1.43241494      -0.16707482       0.30857659       0.10686029
H        3.13867357       3.24545981      -2.92770913      -0.24081673      -0.14655345      -0.27132721
H        1.90866425       2.26003207      -3.76001432       0.05763330      -0.10246519      -0.24691502
H        0.68451547       0.71874621       4.47985918       0.56373680       0.70812865      -0.05220553
H       -0.23903440      -0.24551616       5.56577713      -0.15172113       0.05359865       0.00130171
H        3.63275006       0.72858085      -2.95104077       0.23145673       0.06197680       0.08206145
H        3.67936542       1.58282210      -1.40173652       0.22662029      -0.11619571       0.19815710
H        1.76060751       3.39777996      -0.95019653      -0.20168902       0.00662152      -0.17623398
H        0.79624732       3.82693268      -2.38103416      -0.02530733       0.61143806       0.03102551
H       -1.63903163       1.36913517       4.31320507      -0.14956857       0.20832584      -0.08678811
H       -2.12750433      -0.26366816       3.88825853      -0.08683415      -0.03077475      -0.02088286
H       -0.16594336      -2.14034603       3.99891526       0.35325656       0.27367361      -0.03695936
H        1.47378447      -1.61157200       4.35412151       0.15320165       0.10682485       0.16335692
H        2.47125235      -0.57570336      -1.13586262       0.22968086       0.04037659       0.02320247
H        1.52019426      -0.23346309      -2.52467134      -0.10731542       0.12014809       0.07244409
H       -0.27344928       1.63521935      -2.41403868      -0.12140897      -0.17015993      -0.05672068
H       -0.50915596       2.49542965      -0.88225797      -0.36420757      -0.06992931       0.08411248
H       -1.85762332       1.07544735       1.82654364      -0.32826600       0.23786076      -0.33923124
H       -0.16769490       1.44235757       2.24224980      -0.51067545      -0.60420583      -0.06642354
H        1.54197647      -0.28673980       2.20080883      -0.98774707      -0.63693079       0.28394197
H        1.16693755      -1.97316191       1.93820793      -0.16165423      -0.23566716      -0.20845585
H        1.43836131       1.28974946       0.10410321      -0.12823654       0.07773549       0.62078083
H       -1.36210869      -1.41362712       2.00993056       0.27725848       0.15881103      -0.12533687
