35
Properties=species:S:1:pos:R:3:forces:R:3 id=19411 bond=C-O smiles="[H:21][C:4]1([C:11]2([C:7]([C:14]3([C:8]([C:12]1([C:6]([C:13]([C:5]2([H:23])[H:24])([C:9]3([H:31])[H:32])[O:1][H:15])([H:25])[H:26])[H:35])([H:29])[H:30])[C:10]([H:33])([C:3]([H:18])([H:19])[H:20])[N:2]([H:16])[H:17])([H:27])[H:28])[H:34])[H:22]" dataset=PubChem energy=-16335.651099758401 pbc="F F F"
O        3.44704582      -0.73302303       1.51534244       5.18848535      -1.14483587       0.27595501
N        0.46977408       0.56948637      -2.56967048       0.13637672      -1.28853931       0.74616941
C       -1.13310203       2.10963514      -1.70261245      -0.11056166       0.37551504       0.27924514
C       -0.47279999       0.09121791       2.57417531       0.67580138      -0.26620277       1.04751517
C        1.92968514       0.72919681       2.58971949      -0.54035456       0.19770363      -0.73433855
C        1.27776655      -1.47374520       1.62514992      -0.67284428      -0.59052851      -0.51152372
C        0.30389305       1.86591473       1.03134434      -1.15100231       0.03179875      -0.09871059
C       -0.45753763      -0.41506275       0.17029776       0.51270005       0.89767386      -0.48797293
C        1.95984938       0.36479296       0.10974299      -0.78767015       0.31708267      -1.23320924
C        0.25406911       1.50243130      -1.44464879      -0.41082017      -0.54440511      -0.81331133
C        0.49600288       1.27381071       2.41410835       0.12185795      -0.33198194       0.42583076
C       -0.20185534      -1.01789257       1.53475292       0.85109989       1.31498493       0.39599909
C        2.21603563      -0.28172752       1.45700140      -3.74976900       1.37493799       0.11672945
C        0.48737477       0.80961806      -0.05440347      -0.03548004       0.60054609      -0.38249082
H        4.09766795      -0.01601176       1.36614844      -0.69247764      -0.68712857       0.14337654
H        0.46142889       1.06608299      -3.45164447      -0.29009241      -0.30725232       0.13887962
H       -0.24612794      -0.19202736      -2.53599577       0.90159540       1.20922033      -0.42187320
H       -1.37233279       2.94093111      -1.03507869      -0.19895654      -0.24786471       0.12212456
H       -1.13791154       2.55118730      -2.71767454      -0.03313845      -0.40639552       0.46214561
H       -1.89509699       1.31104895      -1.65040951       0.20187519       0.58049207      -0.00718379
H       -1.46196840       0.48916948       2.47407861      -0.79016005      -0.03217413      -0.14688687
H       -0.39017567      -0.31290463       3.60625358      -0.02469550       0.16393226      -0.56810021
H        2.66398194       1.53152302       2.50484402       0.05616306       0.08247857       0.14056608
H        2.05335870       0.20998379       3.53570719       0.03291057       0.11727930       0.16732160
H        1.45374241      -1.97884628       2.57052369       0.12362411       0.16385038       0.25148407
H        1.50835051      -2.23969123       0.85140707      -0.18968613       0.58413174       0.28779689
H        1.03099968       2.64451054       0.88019161       0.28597450       0.48967033      -0.18346968
H       -0.70126174       2.33128622       0.95185082       0.52528960      -0.27650291       0.18933050
H       -1.50564382      -0.11583528       0.02822043       0.28592886      -0.13284649       0.15852194
H       -0.19220201      -1.14772341      -0.57300667      -0.11885778      -0.35482272      -0.46430485
H        2.16869356      -0.33068427      -0.70447545       0.28873653      -0.09311137       0.18772369
H        2.61507537       1.24871466      -0.03379958      -0.23030836      -0.38895335       0.13820376
H        0.98261758       2.30768469      -1.57808880       0.13019053      -0.15208796       0.30153725
H        0.26705247       2.07449081       3.13767500       0.15197486      -0.50705062      -0.01534833
H       -0.86536715      -1.82919952       1.71952434      -0.44387140      -0.75101869       0.09189169
