35
Properties=species:S:1:pos:R:3:forces:R:3 id=19411 bond=C-O smiles="[H:21][C:4]1([C:11]2([C:7]([C:14]3([C:8]([C:12]1([C:6]([C:13]([C:5]2([H:23])[H:24])([C:9]3([H:31])[H:32])[O:1][H:15])([H:25])[H:26])[H:35])([H:29])[H:30])[C:10]([H:33])([C:3]([H:18])([H:19])[H:20])[N:2]([H:16])[H:17])([H:27])[H:28])[H:34])[H:22]" dataset=PubChem energy=-16326.625643790447 pbc="F F F"
O        3.28560186      -0.67383674       1.50769116      60.68434596     -20.70523453       2.93436815
N        0.63121804       0.51030008      -2.56201920       0.14766898      -1.29381626       0.73198996
C       -0.97165807       2.05044885      -1.69496117      -0.10522733       0.38748837       0.23665701
C       -0.31135603       0.03203162       2.58182659       0.73092528      -0.28103269       1.02946066
C        2.09112910       0.67001052       2.59737077      -2.58918955       1.37323519       0.05660863
C        1.43921051      -1.53293149       1.63280120      -2.85681088      -0.74786484      -0.46969660
C        0.46533701       1.80672844       1.03899562      -1.10718012      -0.01599954      -0.09417135
C       -0.29609367      -0.47424904       0.17794904       0.55913875       0.88913825      -0.46373367
C        2.12129334       0.30560667       0.11739427      -3.01514842       1.27279956      -2.33518773
C        0.41551307       1.44324501      -1.43699751      -0.53403008      -0.51459939      -0.78730202
C        0.65744684       1.21462442       2.42175963       0.17245145      -0.10086734       0.70555388
C       -0.04041138      -1.07707886       1.54240420       0.74217458       1.09176499       0.43221390
C        2.37747959      -0.34091381       1.46465268     -54.90767017      18.86401726      -2.24168548
C        0.64881873       0.75043177      -0.04675219       0.05014509       0.74981868      -0.70708743
H        3.93622399       0.04317453       1.35849716       0.96987669      -0.76860174       0.15753339
H        0.62287285       1.00689670      -3.44399319      -0.29677597      -0.30703019       0.13659137
H       -0.08468398      -0.25121365      -2.52834449       0.89967146       1.21088225      -0.41822436
H       -1.21088883       2.88174482      -1.02742741      -0.19638702      -0.24965653       0.12463751
H       -0.97646758       2.49200101      -2.71002326      -0.04595683      -0.39860891       0.45213801
H       -1.73365303       1.25186266      -1.64275823       0.20181980       0.57844769      -0.00518137
H       -1.30052444       0.42998319       2.48172989      -0.79260607      -0.03009884      -0.14700620
H       -0.22873171      -0.37209092       3.61390486      -0.02551375       0.16090347      -0.55979281
H        2.82542590       1.47233673       2.51249530       0.23294531       0.08907470      -0.01042102
H        2.21480266       0.15079750       3.54335847       0.07881929       0.02977891       0.17540180
H        1.61518637      -2.03803257       2.57817497       0.21417316       0.21447509       0.29907851
H        1.66979447      -2.29887752       0.85905835      -0.09183429       0.62495465       0.22694141
H        1.19244364       2.58532425       0.88784289       0.29032046       0.49828308      -0.18410007
H       -0.53981778       2.27209993       0.95950210       0.52092717      -0.27274809       0.18700557
H       -1.34419986      -0.17502157       0.03587171       0.28477332      -0.12983747       0.15653309
H       -0.03075805      -1.20690970      -0.56535539      -0.11890197      -0.36207033      -0.47181276
H        2.33013752      -0.38987056      -0.69682417       0.34105407      -0.19426959       0.21614829
H        2.77651933       1.18952837      -0.02614830      -0.06242749      -0.32601430       0.27331383
H        1.14406154       2.24849840      -1.57043752       0.13054032      -0.14771877       0.30171854
H        0.42849643       2.01530452       3.14532628       0.02511878      -0.45713340      -0.02482772
H       -0.70392319      -1.88838581       1.72717562      -0.53167214      -0.73274829       0.08661699
