35
Properties=species:S:1:pos:R:3:forces:R:3 id=19411 bond=C-O smiles="[H:21][C:4]1([C:11]2([C:7]([C:14]3([C:8]([C:12]1([C:6]([C:13]([C:5]2([H:23])[H:24])([C:9]3([H:31])[H:32])[O:1][H:15])([H:25])[H:26])[H:35])([H:29])[H:30])[C:10]([H:33])([C:3]([H:18])([H:19])[H:20])[N:2]([H:16])[H:17])([H:27])[H:28])[H:34])[H:22]" dataset=PubChem energy=-16335.109747459435 pbc="F F F"
O        3.62867027      -0.79960762       1.52395013      -3.07594976       1.30093149      -0.09829061
N        0.28814963       0.63607096      -2.57827817       0.12495269      -1.28405641       0.76621216
C       -1.31472648       2.17621973      -1.71122014      -0.11860513       0.36754661       0.31100913
C       -0.65442444       0.15780250       2.56556762       0.64300795      -0.26060389       1.06953184
C        1.74806069       0.79578140       2.58111180       0.62505006      -0.17338036      -0.73731847
C        1.09614210      -1.40716061       1.61654223       0.48666697      -0.90592427      -0.46541907
C        0.12226860       1.93249932       1.02273665      -1.16879430       0.06516828      -0.10150552
C       -0.63916208      -0.34847816       0.16169007       0.48720286       0.89687465      -0.50815732
C        1.77822493       0.43137755       0.10113530       0.50193851      -0.04780224      -1.05765504
C        0.07244466       1.56901589      -1.45325648      -0.32530208      -0.55920252      -0.86177916
C        0.31437843       1.34039530       2.40550066       0.01108401      -0.48355717       0.19752905
C       -0.38347979      -0.95130798       1.52614523       0.84130795       1.55397463       0.35502838
C        2.03441118      -0.21514293       1.44839371       1.75288610      -0.34750920       0.35994741
C        0.30575032       0.87620265      -0.06301116      -0.18816239       0.50877445      -0.15684672
H        4.27929240      -0.08259635       1.37475613      -1.10041773      -0.29974069       0.07580979
H        0.27980444       1.13266758      -3.46025216      -0.28215594      -0.30826393       0.14082544
H       -0.42775239      -0.12544277      -2.54460346       0.90182029       1.20877170      -0.42728862
H       -1.55395724       3.00751570      -1.04368638      -0.20049741      -0.24633732       0.11985792
H       -1.31953599       2.61777189      -2.72628223      -0.02353716      -0.41231394       0.47018410
H       -2.07672144       1.37763354      -1.65901720       0.20145522       0.58203983      -0.00961977
H       -1.64359285       0.55575407       2.46547092      -0.78557485      -0.03690389      -0.14660379
H       -0.57180012      -0.24632004       3.59764589      -0.02386510       0.16636280      -0.57607607
H        2.48235749       1.59810761       2.49623633      -0.03149328       0.05421545       0.19871727
H        1.87173425       0.27656838       3.52709950       0.00219210       0.17220932       0.16283996
H        1.27211796      -1.91226169       2.56191600       0.07136838       0.14753405       0.22108510
H        1.32672606      -2.17310664       0.84279938      -0.24237008       0.57443202       0.32125442
H        0.84937523       2.71109513       0.87158392       0.28115649       0.48030139      -0.18141791
H       -0.88288619       2.39787081       0.94324313       0.53206699      -0.28064776       0.18964308
H       -1.68726827      -0.04925069       0.01961274       0.29172656      -0.13821663       0.16208073
H       -0.37382646      -1.08113882      -0.58161436      -0.11928445      -0.34837284      -0.45898810
H        1.98706911      -0.26409968      -0.71308314       0.25228143      -0.03217103       0.16659867
H        2.43345092       1.31529925      -0.04240727      -0.31358005      -0.44668298       0.10027032
H        0.80099313       2.37426928      -1.58669649       0.12841501      -0.15769440       0.30397897
H        0.08542802       2.14107540       3.12906731       0.23760077      -0.53376771      -0.00522502
H       -1.04699160      -1.76261493       1.71091665      -0.37346416      -0.77708768       0.09904296
