35
Properties=species:S:1:pos:R:3:forces:R:3 id=19411 bond=C-O smiles="[H:21][C:4]1([C:11]2([C:7]([C:14]3([C:8]([C:12]1([C:6]([C:13]([C:5]2([H:23])[H:24])([C:9]3([H:31])[H:32])[O:1][H:15])([H:25])[H:26])[H:35])([H:29])[H:30])[C:10]([H:33])([C:3]([H:18])([H:19])[H:20])[N:2]([H:16])[H:17])([H:27])[H:28])[H:34])[H:22]" dataset=PubChem energy=-16334.004662666595 pbc="F F F"
O        3.37641408      -0.70712903       1.51199500      17.97451053      -5.47092279       0.87711998
N        0.54040582       0.54359237      -2.56632304       0.14121265      -1.29066056       0.73979822
C       -1.06247029       2.08374114      -1.69926501      -0.10791529       0.37991375       0.26331385
C       -0.40216825       0.06532391       2.57752275       0.69712589      -0.27180332       1.03893408
C        2.00031688       0.70330281       2.59306693      -1.26790633       0.53818971      -0.56564616
C        1.34839829      -1.49963920       1.62849736      -1.41464315      -0.54864163      -0.51326324
C        0.37452479       1.84002073       1.03469178      -1.13571161       0.01314395      -0.09632114
C       -0.38690589      -0.44095675       0.17364520       0.53095464       0.89527665      -0.47760680
C        2.03048112       0.33889896       0.11309043      -1.58213452       0.61208904      -1.50414165
C        0.32470085       1.47653730      -1.44130135      -0.45593164      -0.53427522      -0.79934027
C        0.56663462       1.24791671       2.41745579       0.14612522      -0.24331942       0.53462493
C       -0.13122360      -1.04378657       1.53810036       0.81712312       1.22171766       0.41168968
C        2.28666737      -0.30762152       1.46034884     -14.93829322       5.10474772      -0.39508895
C        0.55800651       0.78372406      -0.05105603       0.00392884       0.65740894      -0.50469512
H        4.02703621       0.00988224       1.36280100      -0.20474783      -0.83064804       0.16785639
H        0.53206063       1.04018899      -3.44829703      -0.29294860      -0.30707431       0.13794301
H       -0.17549620      -0.21792136      -2.53264833       0.90108608       1.20968294      -0.42010815
H       -1.30170105       2.91503711      -1.03173125      -0.19801995      -0.24855228       0.12315565
H       -1.06727980       2.52529330      -2.71432710      -0.03793365      -0.40347257       0.45830659
H       -1.82446525       1.28515495      -1.64706207       0.20195726       0.57970130      -0.00627443
H       -1.39133666       0.46327548       2.47742605      -0.79115769      -0.03076009      -0.14693989
H       -0.31954393      -0.33879863       3.60960102      -0.02515626       0.16273731      -0.56468425
H        2.73461368       1.50562902       2.50819146       0.11628438       0.08992713       0.09204527
H        2.12399044       0.18408979       3.53905463       0.05064924       0.08357040       0.16874554
H        1.52437415      -2.00474028       2.57387113       0.15550073       0.17988151       0.26899184
H        1.57898225      -2.26558523       0.85475451      -0.15619168       0.59639803       0.26639425
H        1.10163142       2.61861654       0.88353905       0.28779040       0.49347838      -0.18393969
H       -0.63063000       2.30539222       0.95519826       0.52338412      -0.27512179       0.18862913
H       -1.43501208      -0.14172928       0.03156787       0.28506752      -0.13102228       0.15751525
H       -0.12157027      -1.17361741      -0.56965923      -0.11880282      -0.35773664      -0.46711685
H        2.23932530      -0.35657827      -0.70112801       0.30850713      -0.13091423       0.20015039
H        2.68570711       1.22282066      -0.03045214      -0.17323905      -0.36202547       0.17848872
H        1.05324932       2.28179069      -1.57474136       0.13056513      -0.14997152       0.30110156
H        0.33768421       2.04859681       3.14102244       0.10576502      -0.48952948      -0.01907322
H       -0.79473541      -1.85509352       1.72287178      -0.47742145      -0.74277850       0.08950225
