11
Properties=species:S:1:pos:R:3:forces:R:3 id=20575 bond=C-P smiles="[H:5][C:2]([H:6])([H:7])[P:4](=[S:1])([H:11])[C:3]([H:8])([H:9])[H:10]" dataset=PubChem energy=-22294.671063113667 pbc="F F F"
S       -0.92138436      -1.07986544       0.13420409      -1.21429957      -1.48411172      -1.68350661
C        1.73363636       0.27450616       0.10843378       0.28267681      -0.68000485      -1.00591331
C       -0.22102230       0.96044067       1.38501178     -19.72672037      36.09558665     104.21036574
P       -0.02429049       0.62977643       0.37441539      19.95666267     -35.93914594    -103.57760965
H        2.19433020       0.03774465       1.07525500      -0.14147806      -0.01667892      -0.14773265
H        1.83559725      -0.58805799      -0.56078786       0.07883483       0.32380846       0.30188823
H        2.24549744       1.10071326      -0.34141213       0.49815020       0.64326185      -0.14134330
H       -0.49315637       0.10361159       2.00367068       0.18005726       0.53221579       0.61662109
H        0.70244614       1.36989657       1.77885316      -0.71347617       0.95774376       1.11150641
H       -1.02885204       1.69046751       1.39024983       0.19378825      -0.33248630       1.36180826
H       -0.39925005       1.65349902      -0.51292855       0.60849672      -0.10260539      -1.05523925
