11
Properties=species:S:1:pos:R:3:forces:R:3 id=20575 bond=C-P smiles="[H:5][C:2]([H:6])([H:7])[P:4](=[S:1])([H:11])[C:3]([H:8])([H:9])[H:10]" dataset=PubChem energy=-22302.678940705 pbc="F F F"
S       -0.91381776      -1.09258330       0.09533500      -1.08414309      -1.20358078      -1.48209808
C        1.74120296       0.26178830       0.06956469       0.24660587      -0.51018784      -0.73970694
C       -0.22858890       0.97315853       1.42388087     -13.29066168      24.76812864      71.08648675
P       -0.01672389       0.61705857       0.33554630      13.47518988     -25.18679286     -70.71600930
H        2.20189680       0.02502679       1.03638591      -0.13704621      -0.00797959      -0.17848388
H        1.84316385      -0.60077585      -0.59965695      -0.00106681       0.32259968       0.30617154
H        2.25306404       1.08799540      -0.38028122       0.49188487       0.63129664      -0.13265106
H       -0.50072297       0.11632945       2.04253977       0.14998899       0.54283840       0.49516023
H        0.69487954       1.38261443       1.81772225      -0.51341781       0.91198138       0.99413449
H       -1.03641864       1.70318537       1.42911892       0.13681769      -0.19804364       1.11314424
H       -0.39168345       1.64078116      -0.55179764       0.52822836      -0.06517621      -0.74888964
