44
Properties=species:S:1:pos:R:3:forces:R:3 id=19237 bond=C-N smiles="[H:20][c:4]1[c:6]([c:9]([c:8]([c:5]([c:7]1/[C:3](=[N:1]/[O:2][C:14]([H:33])([H:34])[C:16]([H:37])([H:38])[N:11]([H:25])[H:26])/[C:15]([H:35])([H:36])[C:18]([H:41])([H:42])[C:19]([H:43])([H:44])[C:17]([H:39])([H:40])[C:13]([H:30])([H:31])[H:32])[H:21])[N:10]([H:23])[H:24])[C:12]([H:27])([H:28])[H:29])[H:22]" dataset=PubChem energy=-22489.13021495669 pbc="F F F"
N        0.30995317      -1.21983816       0.50043615       1.77213204       1.37691996       0.45346366
O       -0.72868122      -1.71115234      -0.35809866       1.45180155       1.86816421      -0.82551015
C        1.12845730      -0.22252937       0.10318979      -3.23494259      -2.13669609      -1.16432758
C        3.18050085       1.25043998       0.67368928      -1.24267479       0.34490405      -1.31394157
C        2.48028861      -0.42715289       2.22754833      -0.38928433       1.26956925      -2.40095257
C        4.18794261       1.65794966       1.56119224      -0.53955575      -0.28693628      -0.78750711
C        2.25160610       0.19868795       0.99470731       1.11021356       0.37123166       0.99583037
C        3.58267294      -0.09173884       3.04275593      -4.33556215      17.15081496     -25.86258987
C        4.42243324       1.00743393       2.74682482       0.75981796       0.62803558      -1.01419466
N        3.68696111      -0.66390472       3.93980976       4.23231129     -19.05595493      27.41321454
N       -4.13691533      -3.26028253      -0.28750101       1.26386676       0.29291903       1.20421394
C        5.60032688       1.41162930       3.63069805      -0.20713424      -0.73621254      -0.78549112
C       -1.91763366       4.10699914      -0.97030595      -0.59223605      -0.31630967      -0.31530324
C       -1.76692284      -2.39397218       0.31882867       0.06188838      -0.91685854       0.31911972
C        0.87192224       0.52567581      -1.23076156       0.55523902       0.32109751       1.15782474
C       -2.97623194      -2.36886527      -0.60079876      -0.93973873       0.08450309      -1.02972138
C       -1.92500628       3.00913451       0.08567341       0.12992149       0.09612138      -0.10807005
C        0.12736987       1.87812636      -0.95320407       0.61652846      -0.22213874       0.28773785
C       -1.26727463       1.70779560      -0.35924379       0.43906048      -0.23029023       0.26154761
H        3.05484258       1.81703923      -0.28532455       0.16886053      -0.67612822       1.11087551
H        1.83451341      -1.19881882       2.59714528      -0.27726762      -0.32488346      -0.08146634
H        4.82566105       2.49909566       1.29651501      -0.15720853      -0.18530747      -0.09529612
H        3.16143864      -1.55166739       3.99084111       0.70204698       0.71141555       0.79626190
H        4.59155625      -0.65266651       4.38527699      -0.27372083      -0.36704573       0.92011850
H       -4.81100763      -3.21377160      -1.03129224       0.02153625      -0.09339536      -0.14450111
H       -3.81334032      -4.21871831      -0.16991208      -0.24376977       0.28344135      -0.23530380
H        6.47545944       1.77085064       3.05097231      -0.67571578      -0.30326169       0.23371533
H        5.28417765       2.19849691       4.28152736       0.00234957       0.46016914       0.67658305
H        5.93521915       0.55945858       4.23464378       0.19323790       0.31272199       0.03072408
H       -2.45605243       3.70631406      -1.86419311       0.56773484       0.67649292       0.42723798
H       -2.39509572       5.02837632      -0.61737899      -0.17244489      -0.33676061      -0.10517896
H       -0.89693726       4.39420769      -1.20237747       0.04835187      -0.12815124      -0.35372125
H       -1.96744169      -1.90158131       1.25977673      -0.10788227      -0.06218982       0.27603652
H       -1.48226560      -3.44397904       0.48005415       0.12805384       0.21245234       0.26523670
H        0.26486342      -0.07799216      -1.87657586      -0.32717873      -0.39691778      -0.13566540
H        1.84233545       0.65914518      -1.74651829      -0.55323204       0.23639482       0.32581866
H       -3.33351005      -1.33838036      -0.60453084      -0.12623296      -0.07003144      -0.15286050
H       -2.67362393      -2.61998560      -1.62332288       0.52942021       0.35814945       0.14457762
H       -1.42168153       3.38438294       0.96714976       0.12804514       0.00185152       0.34100627
H       -2.94295085       2.76325248       0.36900496      -0.20167151       0.14039344       0.13872286
H        0.74062132       2.50120757      -0.26330433      -0.35740645      -0.32683082      -0.55366110
H        0.00062578       2.39844892      -1.89217964       0.35435822       0.22230277      -0.25788150
H       -1.90901221       1.19958404      -1.07886211      -0.00004451      -0.10174545      -0.01876436
H       -1.16034461       1.06677536       0.51598717      -0.28407017      -0.14701689      -0.03480838
