47
Properties=species:S:1:pos:R:3:forces:R:3 id=28820 bond=C-S smiles="[H:22][c:3]1[c:2]([c:4]([c:6]([c:7]([c:5]1[H:24])[N:9]2[C:16]([C:19]([N:10]([C:20]([C:17]2([H:42])[H:43])([H:47])[C:13]([H:33])([H:34])[H:35])[C:15]([H:38])([H:39])[C:18]([H:44])([H:45])[C:14]([H:36])([H:37])[N:8]([H:25])[H:26])([H:46])[C:12]([H:30])([H:31])[H:32])([H:40])[H:41])[S:1][C:11]([H:27])([H:28])[H:29])[H:23])[H:21]" dataset=PubChem energy=-32348.27942780193 pbc="F F F"
S        3.05902595       1.67744766       3.84383060      20.41272685      -9.11941097      -1.01433026
C        0.22855668       4.08437973       4.60634926       3.10700353      -0.63481810       2.11000654
C       -0.74037947       3.51377660       3.82599166      -1.41154268       1.74263492      -0.85657463
C        1.51413129       3.35984665       4.67121485      -2.52971698       1.09932653      -0.95166206
C       -0.45273294       2.47716409       2.94923547      -2.32752316      -0.12158686      -0.60062288
C        1.75277207       2.17726332       3.85212424     -19.36031598       8.49167515       0.54106319
C        0.70183808       1.73203438       2.95074442      -0.57917231       0.44797008      -1.32324616
N       -0.82041754      -2.92988533      -4.84624979       0.38848749      -0.68123045       1.45535702
N        0.78646996       0.80584609       1.81813481       2.11740467       0.91180143       1.19141437
N        0.51224674      -0.12216622      -0.96018359      -0.96332899      -1.07886992       0.17392533
C        3.52946943       1.40851776       5.57788492      -0.97827896      -0.22796148       0.64625307
C        2.09592031       1.68318432      -1.64795396      -0.48700159      -1.39939176      -1.26284921
C        0.87978850      -2.21227473       0.31188014       0.04854232       0.52525308      -0.47657709
C       -0.91877963      -1.66670174      -4.05636713      -0.42933571      -0.85897238      -1.96909692
C       -0.23874243      -0.22661155      -2.26018593      -0.82424837      -1.49283870       3.45390173
C        1.70163916       1.18126666       0.69930727      -0.16866836       0.37775139       1.73686945
C       -0.26514729      -0.13441110       1.52303847       0.59604387       0.40367313      -1.12741209
C       -0.18729188      -1.67947143      -2.72631952       0.56246819       0.60738343      -2.34905977
C        0.98318742       1.18105644      -0.64192436       3.21287552      -0.38896266      -0.26900523
C        0.01117776      -0.96427423       0.25712701      -0.18151622       0.34843969      -3.08954252
H        0.03577505       5.04447799       5.21139648       0.46095868      -1.77492664      -1.05901927
H       -1.69121064       4.11142116       3.71161058       0.98970758      -1.06463691       0.08561925
H        2.43286286       3.70504266       5.21332720      -1.48214303       0.11007473      -0.55272652
H       -1.26040473       2.25752812       2.17752591       1.27483587       0.14407087       1.17162282
H       -1.06222572      -3.72523683      -4.22780964       0.04169344       0.69887240      -1.01295934
H       -1.28887524      -2.99663752      -5.75103447      -0.01937679       0.35801946       0.82482336
H        3.04399461       0.46731529       5.95920779       0.81594715       0.74346440      -0.47111062
H        3.04435033       2.23100041       6.12077214       0.73107663      -0.44278703       0.15610218
H        4.62367171       1.42106234       5.66531302      -0.53833427      -0.10742552       0.06682452
H        1.65200852       2.00493616      -2.62118790       0.29295409      -0.48605142       0.62789921
H        2.76922999       0.79038742      -1.83315918      -0.64770000       1.17874713       0.10726709
H        2.68897627       2.54495483      -1.34935186      -0.13176812      -0.13996243       0.55473054
H        1.82104144      -1.91478413       0.63149485       2.00903776       0.45714549       0.76469877
H        1.08278699      -2.65198034      -0.69216868      -0.76194786       0.20579206       0.94636568
H        0.50787483      -2.88538688       1.05506899      -0.35660842      -0.78767182       0.14066219
H       -1.95161786      -1.35938066      -3.97015163      -0.54085861      -0.04164037       0.63850015
H       -0.52891423      -0.89023024      -4.69981405       0.56132801       0.24789280      -0.07578875
H        0.17112718       0.48534767      -2.92362878       0.67278958       0.27925429      -0.87689383
H       -1.33498516       0.02803472      -2.18144342       0.78372394       0.04520170       0.28947466
H        2.01230929       2.26451128       0.80830777      -0.07094883      -1.38399741       0.39074315
H        2.57376049       0.47710490       0.83888894      -0.57976560       1.01079905      -1.11660721
H       -1.19165839       0.41189145       1.33353737      -0.35536838      -0.40196281       0.22785823
H       -0.33328773      -0.84926564       2.31447544      -0.56246738      -0.26952342       0.73645846
H        0.83638830      -2.03790015      -2.90850350      -0.16797431       0.41805537       0.08055548
H       -0.62322452      -2.41938228      -2.09665462      -0.58747457      -0.10112115       0.88605329
H        0.22608371       1.89550537      -0.63784978      -1.54402846       1.53175628       0.31609007
H       -0.93295874      -1.40435881      -0.06632403      -0.50185491       0.62250702       0.13958643
