47
Properties=species:S:1:pos:R:3:forces:R:3 id=28820 bond=C-S smiles="[H:22][c:3]1[c:2]([c:4]([c:6]([c:7]([c:5]1[H:24])[N:9]2[C:16]([C:19]([N:10]([C:20]([C:17]2([H:42])[H:43])([H:47])[C:13]([H:33])([H:34])[H:35])[C:15]([H:38])([H:39])[C:18]([H:44])([H:45])[C:14]([H:36])([H:37])[N:8]([H:25])[H:26])([H:46])[C:12]([H:30])([H:31])[H:32])([H:40])[H:41])[S:1][C:11]([H:27])([H:28])[H:29])[H:23])[H:21]" dataset=PubChem energy=-32351.27218004889 pbc="F F F"
S        3.21270288       1.61864582       3.84285488       1.36200118      -1.01917831      -0.93281808
C        0.07487975       4.14318157       4.60732498       2.85196636      -0.57176468       1.91982153
C       -0.89405640       3.57257844       3.82696738      -1.21929412       1.80678927      -0.77136251
C        1.36045436       3.41864849       4.67219057      -1.04176938      -0.15052863      -1.32998743
C       -0.60640987       2.53596593       2.95021119      -2.36473924      -0.18890245      -0.49827508
C        1.59909514       2.23606516       3.85309996      -2.16501957       1.79788393       0.71148600
C        0.54816115       1.79083622       2.95172014       0.59288340       0.13791499      -1.21657496
N       -0.97409447      -2.87108349      -4.84527407       0.38854771      -0.68047926       1.45553034
N        0.63279303       0.86464793       1.81911053       1.96732584       0.93034862       1.20039876
N        0.35856981      -0.06336438      -0.95920787      -0.96822181      -1.07776153       0.17076396
C        3.68314636       1.34971592       5.57690920      -1.63816973      -0.27930725       0.49772417
C        1.94224338       1.74198616      -1.64697824      -0.48422606      -1.39820110      -1.26031477
C        0.72611157      -2.15347289       0.31285586       0.04928185       0.52552179      -0.47518872
C       -1.07245656      -1.60789990      -4.05539141      -0.42932621      -0.85922093      -1.96923987
C       -0.39241936      -0.16780971      -2.25921021      -0.82361683      -1.49384975       3.45421826
C        1.54796223       1.24006850       0.70028299      -0.14235331       0.39872446       1.75524839
C       -0.41882422      -0.07560926       1.52401419       0.59163700       0.41513222      -1.13795171
C       -0.34096881      -1.62066959      -2.72534380       0.56248449       0.60709238      -2.34961232
C        0.82951049       1.23985828      -0.64094864       3.21089857      -0.40156561      -0.26260982
C       -0.14249917      -0.90547239       0.25810273      -0.18339589       0.34773145      -3.09249691
H       -0.11790188       5.10327983       5.21237220       0.47695265      -1.79995397      -1.05239029
H       -1.84488757       4.17022300       3.71258630       0.98601454      -1.06703222       0.09487390
H        2.27918593       3.76384450       5.21430292      -1.40734106      -0.00655426      -0.41869778
H       -1.41408166       2.31632996       2.17850163       1.29651015       0.12917511       1.16947412
H       -1.21590265      -3.66643499      -4.22683392       0.04181265       0.69876048      -1.01303527
H       -1.44255217      -2.93783568      -5.75005875      -0.01932403       0.35802250       0.82481474
H        3.19767154       0.40851345       5.95823207       0.88041610       0.79952788      -0.38788573
H        3.19802726       2.17219857       6.11979642       0.67592318      -0.28160112       0.17174354
H        4.77734864       1.36226050       5.66433730      -0.55545109      -0.04383417      -0.04274498
H        1.49833159       2.06373800      -2.62021218       0.29187449      -0.48649936       0.62852517
H        2.61555306       0.84918926      -1.83218346      -0.64806445       1.17933704       0.10759887
H        2.53529934       2.60375667      -1.34837614      -0.13197393      -0.14114927       0.55504284
H        1.66736451      -1.85598229       0.63247057       2.00860681       0.45644615       0.76488246
H        0.92911006      -2.59317850      -0.69119296      -0.76252480       0.20631870       0.94667131
H        0.35419790      -2.82658504       1.05604471      -0.35600248      -0.78753742       0.14048966
H       -2.10529479      -1.30057882      -3.96917591      -0.54101961      -0.04164401       0.63837974
H       -0.68259116      -0.83142840      -4.69883833       0.56134616       0.24790784      -0.07574266
H        0.01745025       0.54414951      -2.92265306       0.67288294       0.27913421      -0.87658286
H       -1.48866209       0.08683656      -2.18046770       0.78316665       0.04519311       0.28923758
H        1.85863236       2.32331312       0.80928349      -0.07027747      -1.39434501       0.39977706
H        2.42008356       0.53590674       0.83986466      -0.57831580       1.00690594      -1.11300667
H       -1.34533532       0.47069329       1.33451309      -0.36185362      -0.40311966       0.22530998
H       -0.48696466      -0.79046380       2.31545116      -0.56029861      -0.27086157       0.73620580
H        0.68271137      -1.97909831      -2.90752778      -0.16817735       0.41825599       0.08074598
H       -0.77690145      -2.36058044      -2.09567890      -0.58737598      -0.10112575       0.88600081
H        0.07240678       1.95430721      -0.63687406      -1.54468524       1.53248118       0.31515479
H       -1.08663567      -1.34555697      -0.06534831      -0.50160852       0.62220262       0.13965757
