47
Properties=species:S:1:pos:R:3:forces:R:3 id=28820 bond=C-S smiles="[H:22][c:3]1[c:2]([c:4]([c:6]([c:7]([c:5]1[H:24])[N:9]2[C:16]([C:19]([N:10]([C:20]([C:17]2([H:42])[H:43])([H:47])[C:13]([H:33])([H:34])[H:35])[C:15]([H:38])([H:39])[C:18]([H:44])([H:45])[C:14]([H:36])([H:37])[N:8]([H:25])[H:26])([H:46])[C:12]([H:30])([H:31])[H:32])([H:40])[H:41])[S:1][C:11]([H:27])([H:28])[H:29])[H:23])[H:21]" dataset=PubChem energy=-32317.467613165456 pbc="F F F"
S        2.86692979       1.75094996       3.84505025     155.58087612     -63.69255170      -1.14115015
C        0.42065284       4.01087743       4.60512961       3.64901931      -1.00525172       2.20267247
C       -0.54828331       3.44027430       3.82477201      -2.09189032       1.74957675      -0.90561412
C        1.70622745       3.28634435       4.66999520      -5.47004881       4.54176290       0.40308528
C       -0.26063678       2.40366179       2.94801582      -1.78502187       0.09535181      -0.70642494
C        1.94486823       2.10376102       3.85090459    -151.33141107      59.45011417      -0.16365752
C        0.89393424       1.65853208       2.94952477      -3.84145874       1.01225999      -2.30264681
N       -0.62832138      -3.00338763      -4.84746944       0.38956413      -0.68154961       1.45517783
N        0.97856612       0.73234379       1.81691516       2.66777553       0.92290565       1.19607041
N        0.70434290      -0.19566852      -0.96140324      -0.95259786      -1.07705519       0.18541072
C        3.33737327       1.48202006       5.57910457       1.13710634       0.08151549       1.45391399
C        2.28801647       1.60968202      -1.64917361      -0.49331435      -1.40138029      -1.27330155
C        1.07188466      -2.28577703       0.31066049       0.04597589       0.52391096      -0.47935490
C       -0.72668347      -1.74020404      -4.05758678      -0.43079206      -0.85844198      -1.96939350
C       -0.04664627      -0.30011385      -2.26140558      -0.82824025      -1.48986109       3.44980015
C        1.89373532       1.10776436       0.69808762      -0.28222461       0.35186266       1.66302940
C       -0.07305113      -0.20791340       1.52181882       0.63192818       0.35504023      -1.03600355
C        0.00480428      -1.75297373      -2.72753917       0.56419082       0.60743485      -2.34763381
C        1.17528358       1.10755414      -0.64314401       3.22821179      -0.36032737      -0.30221361
C        0.20327392      -1.03777653       0.25590736      -0.16565026       0.35224001      -3.08598463
H        0.22787121       4.97097569       5.21017683       0.48314412      -1.74529208      -1.03466139
H       -1.49911448       4.03791886       3.71039093       1.01130423      -1.06726119       0.07170700
H        2.62495902       3.63154036       5.21210755      -1.63663107       0.29587206      -0.98633266
H       -1.06830857       2.18402582       2.17630626       1.26364653       0.12457218       1.17514721
H       -0.87012956      -3.79873913      -4.22902929       0.04109650       0.69892070      -1.01317489
H       -1.09677908      -3.07013982      -5.75225412      -0.01953021       0.35830160       0.82496292
H        2.85189845       0.54081759       5.96042744       0.68100027       0.56233777      -0.82927902
H        2.85225417       2.30450271       6.12199179       0.86206123      -0.91634980       0.26327029
H        4.43157555       1.49456464       5.66653267      -0.41933803      -0.24112277       0.46994027
H        1.84410468       1.93143386      -2.62240755       0.29706675      -0.48482838       0.62702996
H        2.96132615       0.71688512      -1.83437883      -0.64715610       1.17747275       0.10663640
H        2.88107243       2.47145253      -1.35057151      -0.13154494      -0.13629411       0.55319631
H        2.01313760      -1.98828643       0.63027520       2.01042181       0.45777450       0.76440052
H        1.27488315      -2.72548264      -0.69338833      -0.76121304       0.20524039       0.94679441
H        0.69997099      -2.95888918       1.05384934      -0.35706757      -0.78760672       0.13995121
H       -1.75952170      -1.43288296      -3.97137128      -0.54007170      -0.04179461       0.63871061
H       -0.33681807      -0.96373254      -4.70103370       0.56115311       0.24793142      -0.07573848
H        0.36322334       0.41184537      -2.92484843       0.67246845       0.27919969      -0.87739088
H       -1.14288900      -0.04546758      -2.18266307       0.78659304       0.04516091       0.29034295
H        2.20440545       2.19100898       0.80708812      -0.07664778      -1.35100448       0.37272710
H        2.76585665       0.40360260       0.83766929      -0.58403080       1.01109542      -1.12173267
H       -0.99956223       0.33838915       1.33231772      -0.33577090      -0.38765550       0.23239629
H       -0.14119157      -0.92276794       2.31325579      -0.57267186      -0.26024028       0.73957588
H        1.02848446      -2.11140245      -2.90972315      -0.16775473       0.41747317       0.08027696
H       -0.43112836      -2.49288458      -2.09787427      -0.58780588      -0.10102368       0.88574208
H        0.41817987       1.82200307      -0.63906943      -1.54001542       1.53021180       0.31871888
H       -0.74086258      -1.47786111      -0.06754368      -0.50311288       0.62586959       0.14397626
