47
Properties=species:S:1:pos:R:3:forces:R:3 id=28820 bond=C-S smiles="[H:22][c:3]1[c:2]([c:4]([c:6]([c:7]([c:5]1[H:24])[N:9]2[C:16]([C:19]([N:10]([C:20]([C:17]2([H:42])[H:43])([H:47])[C:13]([H:33])([H:34])[H:35])[C:15]([H:38])([H:39])[C:18]([H:44])([H:45])[C:14]([H:36])([H:37])[N:8]([H:25])[H:26])([H:46])[C:12]([H:30])([H:31])[H:32])([H:40])[H:41])[S:1][C:11]([H:27])([H:28])[H:29])[H:23])[H:21]" dataset=PubChem energy=-32349.744565537763 pbc="F F F"
S        3.09744518       1.66274720       3.84358667      12.71028726      -5.88793240      -0.99632546
C        0.19013745       4.09908019       4.60659319       3.02793013      -0.60882215       2.05788533
C       -0.77879870       3.52847706       3.82623559      -1.34373371       1.76043308      -0.83133655
C        1.47571206       3.37454711       4.67145878      -2.07564794       0.68034974      -1.09423992
C       -0.49115217       2.49186455       2.94947940      -2.34923063      -0.15003236      -0.57507237
C        1.71435284       2.19196378       3.85236817     -12.21137492       5.70992858       0.61119277
C        0.66341885       1.74673484       2.95098835      -0.18915457       0.37052959      -1.25842042
N       -0.85883677      -2.91518487      -4.84600586       0.38849786      -0.68105797       1.45540562
N        0.74805073       0.82054655       1.81837874       2.06687317       0.91607654       1.19399826
N        0.47382751      -0.10746576      -0.95993966      -0.96486186      -1.07869874       0.17284814
C        3.56788866       1.39381730       5.57764099      -1.20493073      -0.24780186       0.58472730
C        2.05750108       1.69788478      -1.64771003      -0.48612513      -1.39901258      -1.26201575
C        0.84136927      -2.19757427       0.31212407       0.04881310       0.52546524      -0.47626620
C       -0.95719886      -1.65200128      -4.05612320      -0.42929052      -0.85900193      -1.96911223
C       -0.27716166      -0.21191109      -2.25994200      -0.82400011      -1.49311606       3.45406692
C        1.66321993       1.19596712       0.69955120      -0.15974416       0.38289410       1.74330224
C       -0.30356652      -0.11971064       1.52328240       0.59415386       0.40779412      -1.13204126
C       -0.22571111      -1.66477097      -2.72607559       0.56241531       0.60728150      -2.34925604
C        0.94476819       1.19575690      -0.64168043       3.21192027      -0.39259447      -0.26620059
C       -0.02724147      -0.94957377       0.25737094      -0.18239870       0.34815466      -3.09022166
H       -0.00264418       5.05917845       5.21164041       0.46403084      -1.78251131      -1.05797852
H       -1.72962987       4.12612162       3.71185451       0.98821777      -1.06515344       0.08836496
H        2.39444363       3.71974312       5.21357113      -1.45837299       0.07439386      -0.50810952
H       -1.29882396       2.27222858       2.17776984       1.28048418       0.14090420       1.17169782
H       -1.10064495      -3.71053637      -4.22756571       0.04174862       0.69884241      -1.01297533
H       -1.32729447      -2.98193706      -5.75079054      -0.01936064       0.35801235       0.82482355
H        3.08241384       0.45261483       5.95896386       0.83624284       0.76287115      -0.44014772
H        3.08276956       2.21629995       6.12052821       0.71282815      -0.38940477       0.15797316
H        4.66209094       1.40636188       5.66506909      -0.54820808      -0.08818025       0.02797191
H        1.61358929       2.01963662      -2.62094397       0.29259169      -0.48618900       0.62810771
H        2.73081076       0.80508788      -1.83291525      -0.64783235       1.17897349       0.10734516
H        2.65055704       2.55965529      -1.34910793      -0.13185332      -0.14039494       0.55482746
H        1.78262221      -1.90008367       0.63173878       2.00893357       0.45705265       0.76470992
H        1.04436776      -2.63727988      -0.69192475      -0.76208443       0.20591681       0.94645801
H        0.46945560      -2.87068642       1.05531292      -0.35643124      -0.78764459       0.14060820
H       -1.99003709      -1.34468020      -3.96990770      -0.54089120      -0.04165466       0.63845095
H       -0.56733346      -0.87552978      -4.69957012       0.56133210       0.24788891      -0.07576704
H        0.13270795       0.50004813      -2.92338485       0.67280494       0.27919693      -0.87678984
H       -1.37340439       0.04273518      -2.18119949       0.78356684       0.04518847       0.28936388
H        1.97389006       2.27921174       0.80855170      -0.07069164      -1.38744073       0.39359566
H        2.53534126       0.49180536       0.83913287      -0.57934161       1.01020601      -1.11556162
H       -1.23007762       0.42659191       1.33378130      -0.35722600      -0.40266336       0.22724355
H       -0.37170696      -0.83456518       2.31471937      -0.56171138      -0.27003247       0.73624264
H        0.79796907      -2.02319969      -2.90825957      -0.16804130       0.41811919       0.08061251
H       -0.66164375      -2.40468182      -2.09641069      -0.58746413      -0.10111453       0.88604794
H        0.18766448       1.91020583      -0.63760585      -1.54418978       1.53190172       0.31572434
H       -0.97137797      -1.38965835      -0.06608010      -0.50174347       0.62232842       0.13950683
