35
Properties=species:S:1:pos:R:3:forces:R:3 id=14867 bond=C-C smiles="[H:14][C:2](=[C:3]1[C:8]([C:10]([C:12]([C:11]([C:9]1([H:30])[O:1][C:4]([H:16])([H:17])[H:18])([H:33])[H:34])([H:35])[C:13]([C:5]([H:19])([H:20])[H:21])([C:6]([H:22])([H:23])[H:24])[C:7]([H:25])([H:26])[H:27])([H:31])[H:32])([H:28])[H:29])[H:15]" dataset=PubChem energy=-14855.99315182222 pbc="F F F"
O       -1.15457358       2.20568860       2.22716609       1.21155961      -1.02635784       1.66593967
C       -0.45538767       4.00437796       0.14140153       1.68840151      -2.55720929       2.22776434
C        0.29143082       2.82963622       0.40951923      -1.18801388       4.97170753      -3.78078789
C       -1.21121921       1.55720985       3.56420997      -0.85448745       0.99969928      -0.10676872
C       -0.30381077      -1.21171935      -0.98396145       3.52056183       0.65983345      -2.29490531
C        2.25522035      -1.85192140      -0.79880665      -0.84804279      -0.57623127      -1.62371636
C        0.70024358      -2.07062657       1.10457088      -0.26408012      -0.54879561       0.19805105
C        1.52534018       2.51116335      -0.48034832      -0.30770031      -2.35209047       0.86944654
C        0.07808987       1.94514084       1.53624907       0.61235627      -0.05353835       0.81714056
C        1.46503995       1.01296341      -1.01263949      -1.87551762       1.56473729       1.50136697
C        0.16282062       0.46964730       1.18063954       0.92327274       0.48329917       2.42961202
C        1.23083196      -0.02323419       0.18285260       3.22001055      13.93002769       3.28821959
C        1.00362486      -1.21954604      -0.16594438      -3.55163378     -12.61615075      -1.77380976
H       -1.10334410       4.39108288       0.94636664      -0.08950324      -0.64782140      -0.72333331
H       -0.26730467       4.72551214      -0.64453467       0.36541408      -0.47816009      -0.16326842
H       -2.09369029       0.92264831       3.62584260      -0.11943701       0.06541949      -0.36914614
H       -1.34455039       2.32174683       4.35486820       0.15337640      -0.08977224      -0.67936894
H       -0.40096321       0.91785252       3.91360143       0.48047681       0.28127838      -0.75816381
H        0.08373368      -0.76464136      -1.89961146      -0.89608852      -0.18555956      -0.47680201
H       -1.12180322      -0.66373153      -0.66767572      -1.07790044       1.19403634       0.94601106
H       -0.64088100      -2.13247402      -1.21737443      -0.93334067      -3.26570082      -0.70019331
H        2.04894489      -2.83302505      -1.24419617      -0.18372135       0.22510874      -0.01832596
H        3.06758326      -2.04958589      -0.10764621      -0.07911252       0.48976826       0.38488348
H        2.58446211      -1.19641884      -1.60745715       0.31981579      -0.30411839       0.09467126
H        1.27452439      -1.60405166       1.92120696       0.07212888      -0.90280140      -0.12555602
H       -0.39711112      -1.95520408       1.41764028       1.66586977      -0.79622849      -0.54726292
H        1.06680602      -3.11135419       0.86654199      -0.95603744       0.91892012       0.78580377
H        2.41546724       2.46060812       0.14162311       0.10576005       0.50243259       0.48711226
H        1.76487313       3.22046530      -1.26397475      -0.56196083       0.12143525      -0.05258166
H        0.99420885       2.21330082       2.13069883      -0.80079210      -0.41930343       0.38366914
H        2.31106255       0.78352154      -1.59356305       1.22918152      -0.25695393      -0.39646586
H        0.63654821       1.00555158      -1.70008728      -0.36382402      -0.15149400      -0.15952140
H       -0.81116309       0.14522291       0.87795747      -0.38404680       0.09571435       0.06283205
H        0.36951934       0.04154104       2.22966388      -0.41050024       0.14868000      -1.94835308
H        2.20144497      -0.03037483       0.68325177       0.17759684       0.57873126       0.55613133
