20
Properties=species:S:1:pos:R:3:forces:R:3 id=26937 bond=C-N smiles="[H:16][c:7]1[c:9]([c:8]([c:11]([c:12]([c:10]1[Cl:2])/[N:4]=[N:5]/[N:13]([C:14]([H:18])([H:19])[H:20])[O:6][H:15])[Cl:3])[H:17])[Cl:1]" dataset=PubChem energy=-51448.42109371557 pbc="F F F"
Cl       4.95882352       2.43509256       3.77988682       0.24702067      -0.11042956      -0.17542842
Cl       2.45949526       1.90612816      -0.91385426      -0.44527220      -0.42020286       0.47703010
Cl      -0.00021425       0.52989817       3.84733282      -0.40875110      -0.27289375       0.05245918
N       -0.84797434       0.46162794       0.27667915       0.88925064      -1.60294572      -3.15354179
N       -0.79342965      -0.15242792      -0.86008888      -1.43711771       1.33576274       3.56458811
O       -3.20682029      -0.13277174      -0.90946466       0.53821612       0.03994718       0.40943807
C        3.53863175       1.91602587       1.49817000       0.83986974       0.24065261      -0.15681738
C        2.51197001       1.36706685       3.57096039      -0.14206774      -0.13496446       0.05167600
C        3.62054260       1.82583713       2.87760125      -1.06040362      -0.03035725      -0.26841195
C        2.38928898       1.56164287       0.81623826      -1.07028934      -0.39018879      -0.25829403
C        1.34929891       0.98150389       2.88461075       0.12324085       0.17913050      -1.20467313
C        1.26280986       1.03983747       1.47376762       0.12499221       0.12939578      -0.34048862
N       -1.96504358      -0.49369234      -1.46378285       2.19982245       1.83820902       1.13070875
C       -1.93481616      -1.42397064      -2.56772524      -0.23092646      -1.32286585       0.07338922
H       -3.02357367       0.54270982      -0.20675704       0.19229159      -0.78118291      -0.85728136
H        4.35798081       2.27753579       0.88712854      -0.00404515       0.06613643       0.34030492
H        2.55609115       1.33600037       4.65704976      -0.25269157      -0.06197442      -0.29273188
H       -2.66414145      -1.22179336      -3.36686999       0.31350917       0.42239293       0.52988802
H       -0.91924582      -1.47240716      -2.97662788      -0.34688897       0.44314124       0.21125307
H       -2.14144186      -2.44699842      -2.19629198      -0.07078538       0.43213654      -0.13322841
