20
Properties=species:S:1:pos:R:3:forces:R:3 id=26937 bond=C-N smiles="[H:16][c:7]1[c:9]([c:8]([c:11]([c:12]([c:10]1[Cl:2])/[N:4]=[N:5]/[N:13]([C:14]([H:18])([H:19])[H:20])[O:6][H:15])[Cl:3])[H:17])[Cl:1]" dataset=PubChem energy=-51452.45743829875 pbc="F F F"
Cl       4.53478205       2.31893439       3.53940030       0.24665909      -0.10965152      -0.17527088
Cl       2.03545379       1.78996999      -1.15434078      -0.34691205      -0.32672625       0.60500580
Cl      -0.42425572       0.41374000       3.60684630      -0.30197609      -0.24530608      -0.04870061
N       -0.42393287       0.57778611       0.51716567      -0.36844062      -0.47151946      -0.57544661
N       -0.36938818      -0.03626975      -0.61960236      -0.67532801      -0.25938423       1.02361026
O       -2.78277882      -0.01661357      -0.66897814       0.45322036      -0.03042243       0.14952528
C        3.11459028       1.79986770       1.25768348       0.71220780       0.23459807      -0.29334736
C        2.08792854       1.25090868       3.33047387      -0.30678119      -0.16854076      -0.02376668
C        3.19650113       1.70967896       2.63711473      -0.99731280      -0.01856046      -0.23594570
C        1.96524751       1.44548470       0.57575174       0.00508748      -0.09173424      -0.14401345
C        0.92525744       0.86534572       2.64412423       0.50682715       0.33272151      -0.49028757
C        0.83876839       0.92367930       1.23328110      -0.97953547      -0.42147476      -1.81622852
N       -1.54100211      -0.37753417      -1.22329633       2.19191967       2.29501710       1.97884643
C       -1.51077469      -1.30781247      -2.32723872      -0.19771683      -1.21569577       0.09633222
H       -2.59953220       0.65886799       0.03372948       0.42377389      -0.80492028      -0.73491625
H        3.93393934       2.16137762       0.64664202      -0.01047837       0.07002384       0.36466623
H        2.13204968       1.21984220       4.41656324      -0.24573666      -0.06419469      -0.31977600
H       -2.24009998      -1.10563519      -3.12638347       0.31319578       0.41191967       0.53019910
H       -0.49520435      -1.35624899      -2.73614136      -0.34376940       0.44438028       0.22623466
H       -1.71740039      -2.33084025      -1.95580546      -0.07894743       0.43784395      -0.11662448
