20
Properties=species:S:1:pos:R:3:forces:R:3 id=26937 bond=C-N smiles="[H:16][c:7]1[c:9]([c:8]([c:11]([c:12]([c:10]1[Cl:2])/[N:4]=[N:5]/[N:13]([C:14]([H:18])([H:19])[H:20])[O:6][H:15])[Cl:3])[H:17])[Cl:1]" dataset=PubChem energy=-51452.492097664326 pbc="F F F"
Cl       4.45939690       2.29828405       3.49664714       0.27423334      -0.09190426      -0.15621102
Cl       1.96006864       1.76931965      -1.19709394      -0.29872455      -0.23522083       0.57469211
Cl      -0.49964087       0.39308966       3.56409314      -0.31828582      -0.24158365      -0.07534218
N       -0.34854772       0.59843645       0.55991883      -5.18699597      -2.03593596      -3.31459005
N       -0.29400303      -0.01561941      -0.57684920      -1.33047504      -0.55716776       0.51266844
O       -2.70739367       0.00403677      -0.62622498       0.52496039      -0.03225343       0.07873039
C        3.03920513       1.77921736       1.21493032       0.67095728       0.23207378      -0.35057173
C        2.01254339       1.23025834       3.28772071      -0.37745046      -0.20398094      -0.01262802
C        3.12111598       1.68902862       2.59436157      -0.96978420      -0.02691806      -0.22943457
C        1.88986236       1.42483436       0.53299858       0.69845894       0.06506216       0.00115156
C        0.84987229       0.84469538       2.60137107       0.98988931       0.51258507       0.00559318
C        0.76338324       0.90302896       1.19052794       3.21101326       1.00297322       0.83615496
N       -1.46561696      -0.35688383      -1.18054317       2.22578834       2.32100885       2.06795184
C       -1.43538954      -1.28716213      -2.28448556      -0.19884725      -1.22027270       0.06462297
H       -2.52414705       0.67951833       0.07648264       0.42407169      -0.80826721      -0.71919828
H        3.85855419       2.14072728       0.60388886      -0.00110282       0.07552657       0.37339659
H        2.05666453       1.19919186       4.37381008      -0.22845609      -0.06144293      -0.31558844
H       -2.16471483      -1.08498485      -3.08363031       0.31539459       0.41131065       0.53501831
H       -0.41981920      -1.33559865      -2.69338820      -0.34192683       0.44613320       0.22879717
H       -1.64201524      -2.31018991      -1.91305230      -0.07971655       0.44884249      -0.10651148
