41
Properties=species:S:1:pos:R:3:forces:R:3 id=2673 bond=C-S smiles="[H:29][c:10]1[c:6]([c:13]([c:7]([c:11]([c:16]1[N:18]2[c:17]3[c:12]([c:8]([c:14]([c:9]([c:15]3[C:4](=[C:5]2[H:24])[S:3][C:22]([H:38])([H:39])[C:23]([H:40])([H:41])[N:19]([C:20]([H:32])([H:33])[H:34])[C:21]([H:35])([H:36])[H:37])[H:28])[Cl:2])[H:27])[H:31])[H:30])[H:26])[F:1])[H:25]" dataset=PubChem energy=-48031.6893811315 pbc="F F F"
F       -1.20641473       7.06182269      -2.67827125       0.33023794      -1.36339891       0.37189884
Cl       4.46555086      -2.05067034      -1.23537310       0.30593415      -0.13171319      -0.19267882
S        1.35726686       0.29430713       3.41981673       0.65385114       2.06798294      -1.08518555
C        1.42004969       1.03360333       1.70892243      -2.10136093       0.90925956       0.10978165
C        0.67897227       2.18554740       1.34004532       0.09441794      -0.41149253       2.06959656
C       -1.46334246       5.15824584      -1.24571629      -1.43769700       0.57051153       0.17752145
C        0.68624173       5.56632213      -2.32942219      -0.92985423      -1.10517042       1.25543923
C        2.98385116       0.09632467      -2.00272842       0.79449251       0.07742027      -1.88954206
C        2.94018861      -0.45856650       0.32370254       0.41002885      -0.36102728      -1.53039394
C       -0.94097236       4.04947023      -0.52382870       0.78374752      -0.29322928      -1.41653084
C        1.25719931       4.49398117      -1.58406086      -0.68432132      -0.43792286       0.55154563
C        2.16527709       1.18875031      -1.84632297       0.02749231       0.22593816       0.74291367
C       -0.69949177       5.92408876      -2.09818907       2.69778551      -0.32453491      -0.14010108
C        3.44325896      -0.69077654      -0.96614905      -1.14417498      -0.01232454       1.90887589
C        2.03136059       0.58677395       0.47564527       0.74810852      -0.07162369       1.78163551
C        0.42321611       3.70596127      -0.69035788      -0.23049510      -0.24495073      -0.30904533
C        1.70968816       1.49832736      -0.54361363       0.27927916      -1.20641551      -0.98702957
N        0.86228937       2.43440418      -0.01889171      -0.52269495       2.98602569      -0.33785616
N       -0.90569477      -3.05654383       2.34335995      -1.78125256       2.07475326       0.79876184
C       -0.09706573      -4.24915004       2.03122509       0.59965959      -0.03927862       1.86336081
C       -2.17276804      -3.09949661       3.21067977       2.40974105      -0.37891337      -0.06399267
C        0.80440320      -1.38632286       3.34005070      -2.06904276      -0.15903296       1.50726651
C       -0.28559879      -1.65282273       2.36367345      -0.18631852      -1.50475006      -3.24600483
H        0.07355690       2.89265256       2.05417792       1.29113095      -1.56578165      -1.90479057
H       -2.53597239       5.51502924      -1.23977597       1.23098339      -0.90426403       0.50392176
H        1.32201436       6.00363712      -3.08612318      -0.26918055       0.49441340       0.17469052
H        3.33714100      -0.09711368      -3.03522368      -0.20843852      -0.02815756       0.87701072
H        3.24294611      -1.08967693       1.14581982      -0.11087817       0.09731062       0.06795200
H       -1.58282283       3.29223971      -0.04230304       0.28436933       0.93388618      -0.04905541
H        2.35729512       4.26112823      -1.68142648      -1.56165685       0.18438848      -0.01692411
H        2.00282833       1.73217993      -2.75279875      -0.53597240       0.57848778       0.02251573
H        0.49285222      -4.55555606       2.99418473      -0.71443581       0.03003262      -1.82596948
H        0.60845663      -4.13334489       1.18776685      -0.13385389       0.79230492       0.61944435
H       -0.66621093      -5.12043214       1.64498246      -0.31234238       0.65749792       0.79305790
H       -2.87368767      -2.38900518       2.81569290       0.14158392       1.15570452       0.25487896
H       -1.99620454      -3.00841904       4.35305929      -0.34633762      -0.11790883      -1.86753170
H       -2.73007862      -3.96878171       2.95621729       0.03689970      -1.36685487       0.31344911
H        0.39131401      -1.63707662       4.35940695       0.78465827       0.48193054      -0.73924224
H        1.59541662      -2.01218295       3.11729932       1.67438565      -1.34436396      -0.12695216
H       -1.00160830      -0.78171099       2.33228231       0.17730990      -1.46057559       0.21261696
H        0.21712108      -1.65770030       1.35490740      -0.47866119       0.51053906       0.74550890
