29
Properties=species:S:1:pos:R:3:forces:R:3 id=5950 bond=C-C smiles="[H:12][C:3]([H:13])([H:14])[C:9]([H:28])([C:4]([H:15])([H:16])[H:17])[N:2]([C:8]([H:26])([H:27])[C:7]([H:24])([H:25])[S:1][H:11])[C:10]([H:29])([C:5]([H:18])([H:19])[H:20])[C:6]([H:21])([H:22])[H:23]" dataset=PubChem energy=-20938.03370105626 pbc="F F F"
S       -2.93859563      -0.10336737      -1.89325616      -0.14565710       0.45160011      -0.62705419
N        0.47925638       0.67061286       0.53529631      -4.11451444       0.85042151      -1.94587657
C        2.87005367       1.29558947       0.60687404       0.97068588       0.56623193       0.15342884
C        1.82538798       0.48410585      -1.48631213       1.74218932       0.00550121       0.20304647
C        0.51990313       1.53701707       2.96086790       0.31076204       2.26038256      -1.51612297
C        0.96074038      -0.84666077       2.26367964       1.98599971      -0.06752393       2.43645896
C       -1.51513110      -0.42975489      -0.83574650      -0.82990541       3.47744127       2.36884753
C       -0.78161738       1.02896013      -0.27220486       0.30190875      -2.94911147      -0.05061836
C        1.57650545       1.19722833      -0.20339630       1.60686541       2.22726042       1.13180276
C        0.24277880       0.42829453       1.98497679      -0.61604983      -0.65800818      -1.23626031
H       -3.35696707       0.96445282      -1.20096085      -0.10142318      -0.06126256      -0.05145697
H        3.08678498       2.35290750       0.90275647       0.03480083      -0.95042190      -0.41677119
H        2.81438603       0.75145198       1.51565506      -0.18393119      -0.42538546       0.84100223
H        3.73872509       0.83265232       0.10735317      -0.35225597       0.56840921      -0.09476080
H        2.61591091       1.03486326      -2.02751873      -0.77293359      -0.16108237      -0.20591967
H        0.94157955       0.29405876      -2.00854156      -1.17513965       0.15860292      -1.25660300
H        2.25506761      -0.47616593      -1.28680024       0.25616140      -0.75893744       0.28642283
H        0.28771442       1.31852737       3.97385098      -0.48268530      -0.47852463       0.73947898
H       -0.16355411       2.34325441       2.58510973       0.75794783      -0.17823735       0.78455652
H        1.56041863       1.92875036       2.96762230      -0.65967817      -0.34285464      -0.25894440
H        0.35505359      -1.69864265       2.23065474      -1.14374853      -1.17574831       0.05611266
H        1.41624167      -0.76937560       3.28640678      -0.42533806      -0.44273655      -0.62444765
H        1.78733983      -1.08976046       1.61914172       0.20473632       0.38528965      -0.42193902
H       -0.84201692      -1.03202144      -1.37342451       0.87570726      -0.74169828      -0.25191797
H       -2.02152524      -0.89107613       0.03553080       1.28543228      -0.12053571      -0.33213636
H       -0.66238163       1.76215967      -1.11026869       0.46634436      -0.99775629       0.59355788
H       -1.46415195       1.51115468       0.39539969      -0.74904397       0.00698682       0.42571255
H        1.41009011       2.28019174      -0.45694969      -0.38882645      -0.70572894      -0.03311111
H       -0.86967346       0.22223681       2.13127746       1.34284312       0.25853954      -0.69393855
