49
Properties=species:S:1:pos:R:3:forces:R:3 id=18008 bond=C-N smiles="[H:28][c:8]1[c:9]([n:2][c:12]([c:10]([n:1]1)[H:30])[N:17]([H:32])[C:6]2=[C:7]([O:4][c:14]3[c:15]2[c:16]([c:11]([n:3][c:13]3[C:19]([H:34])([H:35])[H:36])[H:31])[C:20]([H:37])([H:38])[O:5][H:27])[N:18]([H:33])[C:26]4([C:24]([C:22]([C:21]([C:23]([C:25]4([H:47])[H:48])([H:43])[H:44])([H:39])[H:40])([H:41])[H:42])([H:45])[H:46])[H:49])[H:29]" dataset=PubChem energy=-31636.9942753792 pbc="F F F"
N       -1.94541296       3.04675029       2.50746917       0.77560886       0.83943694      -0.68694783
N       -0.41262778       4.58514879       0.69123136      -0.48528825      -0.22922240       0.17099989
N        5.86843697       0.72921646       2.12805724      -0.94845936       1.75079189      -0.52894334
O        2.42905799      -0.40759112       1.37254273      -0.43933771       1.17768868      -0.15347159
O        3.88510767       4.45607683       0.24993521      -1.17887399       0.99185197       0.85147952
C        1.93513820       1.83896861       1.07537925      -0.15125068      -0.37301382       0.28950721
C        1.48136235       0.53935077       1.06546419      -1.31974260       0.29706694      -1.29286816
C       -2.43813332       4.18097565       1.94201350       2.01048698      -0.13563978      -1.01876371
C       -1.65394577       4.95000765       1.02882176      -0.56703174      -1.08977905       0.97468941
C       -0.68522819       2.67837713       2.17548597      -1.41597666       1.10570263      -0.70833369
C        5.64430061       2.08500121       1.97439408      -1.71901645      -1.37131551       0.29510930
C        0.04839972       3.44893191       1.21447235       0.30827400      -0.86550427       0.69512358
C        4.83844677      -0.11077800       1.93719053       1.02493363       0.02416099      -0.32406730
C        3.55797878       0.34917185       1.60481858       1.17147659       0.14479656       0.33882222
C        3.32323829       1.71273659       1.47291934      -0.45227445      -0.95050535      -0.29785551
C        4.36533466       2.60741398       1.66560638       1.78871484       0.08204468       1.00289811
N        1.33530597       3.07191441       0.79383179      -1.27494643      -0.02289979       0.44769655
N       -1.09365087      -0.07063612       0.35671022       0.00918197      -0.15336418       3.04694491
C        5.20549408      -1.55819704       1.98205924      -0.88173704      -0.28034315       0.12333098
C        4.13180629       4.08541176       1.62444633       0.35055351      -0.44523144      -0.65587344
C       -2.69850313      -3.10251205      -2.11482734      -0.27962668      -0.57963235       0.50653981
C       -3.47722542      -2.84127300      -0.79142566       0.55784031       0.06465776      -0.65393423
C       -1.19944584      -3.15762871      -1.80598445      -0.36022348       0.04496071      -0.92319361
C       -2.99697339      -1.50101119      -0.14231802      -0.71802915      -0.59062214       0.28705097
C       -0.75818193      -1.80489033      -1.31240482       0.66647776      -0.92019509       0.52135534
C       -1.48419701      -1.42774325       0.00152035       1.84626072       0.88694795      -1.59008003
H        4.52434197       4.07953689      -0.33911384       0.55096788      -0.42561423      -0.04230857
H       -3.43311961       4.50167701       2.16554069      -0.39018414      -0.10567635       0.27634370
H       -2.07185729       5.84051964       0.54758263       0.27679822      -0.28886494       0.29872125
H       -0.32363256       1.75811587       2.62345672       0.07491201       0.27748136      -0.25370292
H        6.46712748       2.75741527       2.20447576      -0.07366657      -0.22500089      -0.16790054
H        1.90877108       3.87146924       0.55325166       0.19382057      -0.51801437      -0.37874461
H       -1.50440239       0.69653696      -0.18454130       0.80484996      -0.51230954      -0.66278135
H        6.17786136      -1.68199065       2.45327043      -0.21650794      -0.00398546       0.05929844
H        4.39842382      -2.07286002       2.52492213       0.51177557      -0.25288414      -0.16090187
H        5.25236241      -1.96555688       0.96468270      -0.06606266       0.04757092       0.23010608
H        5.03001562       4.59772799       1.98223626      -0.31693462       0.09200595       0.16470654
H        3.24288193       4.33450959       2.24991941       0.72555026       0.16956377      -0.74426914
H       -2.99562608      -4.08146923      -2.50648565      -0.19720586       0.26074230      -0.07265466
H       -2.96040427      -2.33219999      -2.86581678       0.33641845      -0.34293362       0.33618431
H       -3.29459559      -3.71546333      -0.14426137      -0.07252307       0.50315117       0.00440375
H       -4.55305397      -2.83262198      -1.03312059       0.39217950       0.27381743       0.40738588
H       -0.61037850      -3.46207564      -2.68899770      -0.29716412       0.19819354       0.27692519
H       -0.99562179      -3.91081398      -1.04290826      -0.15194271      -0.05061034       0.04207612
H       -3.33271371      -0.68236595      -0.76112170      -0.19527503       0.29287886      -0.23300859
H       -3.41437851      -1.36537009       0.85970550      -0.16181282      -0.00249401      -0.26623391
H       -0.89974105      -1.05411308      -2.08733864       0.02050420       0.14444419       0.12764669
H        0.30548579      -1.91673177      -1.06725163      -0.13572512       0.64287708      -0.10478241
H       -1.16802382      -2.15303629       0.75802313       0.06777522       0.42561166       0.14448526
