40
Properties=species:S:1:pos:R:3:forces:R:3 id=455 bond=C-C smiles="[H:26][c:10]1[c:8]([c:12]([c:9]([c:11]([c:13]1[C@@:23]([H:40])([C:22]([H:37])([H:38])[H:39])[N:19]([H:30])[c:15]2[c:18]3[c:16]([c:7]([n:2][c:14]([c:17]3[n:4][c:6]([n:3]2)[C:21]([H:34])([H:35])[H:36])[H:28])[S:5][C:20]([H:31])([H:32])[H:33])[H:29])[H:27])[H:25])[F:1])[H:24]" dataset=PubChem energy=-37437.05572426036 pbc="F F F"
F       -3.76561668      -0.41489599       4.90041461       0.69719068      -0.23178529      -0.23995522
N        1.83778843       4.37520459      -0.61836026       1.72874225      -1.15818294      -0.70343981
N        2.47523686      -0.59450243      -0.42601225      -0.88711792       0.83570289       0.11671642
N        3.77370474       1.29607036      -1.02009020       1.56745374      -1.21820610      -0.49934861
S       -0.57952871       5.01870062       0.29575174      -0.40058979       0.70994231      -0.41556055
C        3.62566945      -0.02255759      -0.84808860      -0.88461634       1.75010960       0.75793073
C        0.68502511       3.86854532      -0.13243268       0.57325383      -0.82457320       0.29559627
C       -1.42179516      -0.70672999       4.33792653      -1.09690416       0.15402048       0.01166613
C       -3.16926815      -0.91466317       2.67462792      -0.26605171      -0.31487251      -0.03799821
C       -0.48237016      -0.93650589       3.35923400      -0.83507681      -0.72326816      -1.34568710
C       -2.22614958      -1.23692665       1.67657783       0.14430777       0.44123243       1.20597626
C       -2.79334094      -0.69844887       3.99433913       1.03768178       0.25554890      -0.66003276
C       -0.86870411      -1.23373220       2.03190281      -0.32228155      -1.00636604       0.26486748
C        2.84542200       3.52634027      -0.89510510      -1.33357888       0.44603525       0.32833167
C        1.45274952       0.23654094      -0.17138300      -0.03337812      -3.98172827       0.31407000
C        0.52803374       2.50408389       0.12185159       0.83410505       1.03568421      -0.80795172
C        2.75872085       2.12342097      -0.73335204      -0.69440381      -0.55990746       0.04307080
C        1.55488602       1.59958448      -0.25901208      -0.77589188       3.13312941       0.23677309
N        0.26996169      -0.34641299       0.23107176       0.65107326       0.73144357      -0.60416031
C       -0.11668578       6.51743557      -0.69648621       0.16208479      -0.34562721      -0.32253557
C        4.76364920      -0.96234748      -1.01009546       0.96037125       0.15370740      -0.18332556
C       -0.18072932      -3.07819960      -0.03335387       1.39884639       2.11256648       1.44533624
C        0.21274320      -1.56291196       1.02279847      -1.24989130      -1.70330753      -1.45740462
H       -1.07363584      -0.54969559       5.33617129      -0.19479789       0.14587357       0.49064137
H       -4.23628452      -0.89082501       2.46085241       0.27273731      -0.00555015      -0.08304363
H        0.56229096      -1.00922677       3.58538260       0.28448441       0.17079195       0.28602086
H       -2.57223155      -1.47470091       0.67044015       0.24978059       0.06674350       0.33161150
H        3.78747293       3.86438110      -1.28789184       0.06352937       0.62919522      -0.03128653
H       -0.35567882       2.17090716       0.59324402      -0.84288951      -0.24202817       0.28446916
H       -0.50258580       0.31118923       0.33251371       0.48024883      -0.74915062       0.10927040
H        0.79196517       6.92588188      -0.27616272       0.05710778       0.11505759       0.09250333
H       -0.91851082       7.28453447      -0.65112767       0.36928541      -0.85431097       0.10191335
H        0.11473087       6.25090649      -1.74857960      -0.40955185       0.04976849       0.72635234
H        4.73095581      -1.41673729      -2.01330743       0.06174853       0.06162500       0.41164482
H        5.71291134      -0.39808128      -0.90633938      -0.56625403      -0.47511157      -0.13147891
H        4.70006820      -1.75566147      -0.24503825       0.02370121       0.39934606      -0.49554190
H       -1.04242043      -2.92190287      -0.67721651      -0.15285399       0.42791730       0.34325813
H       -0.34404950      -3.96896217       0.59195618       0.15077229       0.57814086      -0.04493888
H        0.67821671      -3.23669527      -0.71415553      -0.30813423       0.23237939       0.68778385
H        1.16694114      -1.70601962       1.56811144      -0.51205868      -0.23934817      -0.81874070
