40
Properties=species:S:1:pos:R:3:forces:R:3 id=455 bond=C-C smiles="[H:26][c:10]1[c:8]([c:12]([c:9]([c:11]([c:13]1[C@@:23]([H:40])([C:22]([H:37])([H:38])[H:39])[N:19]([H:30])[c:15]2[c:18]3[c:16]([c:7]([n:2][c:14]([c:17]3[n:4][c:6]([n:3]2)[C:21]([H:34])([H:35])[H:36])[H:28])[S:5][C:20]([H:31])([H:32])[H:33])[H:29])[H:27])[H:25])[F:1])[H:24]" dataset=PubChem energy=-37437.91732928185 pbc="F F F"
F       -3.78960891      -0.50729158       4.83601508       0.69469753      -0.23064005      -0.24089109
N        1.81379620       4.28280900      -0.68275979       1.72390388      -1.15708165      -0.70162707
N        2.45124463      -0.68689802      -0.49041178      -0.86985760       0.82244399       0.11646014
N        3.74971251       1.20367477      -1.08448973       1.57411713      -1.22843450      -0.50081906
S       -0.60352094       4.92630503       0.23135221      -0.40191423       0.71132461      -0.41500353
C        3.60167722      -0.11495318      -0.91248813      -0.88446810       1.75269331       0.76104732
C        0.66103288       3.77614973      -0.19683221       0.57872558      -0.82348680       0.29342328
C       -1.44578739      -0.79912558       4.27352700      -1.08867744       0.14780193       0.01950163
C       -3.19326038      -1.00705876       2.61022839      -0.27172206      -0.32272950      -0.02756856
C       -0.50636239      -1.02890148       3.29483447      -0.88081580      -0.70219333      -1.34053226
C       -2.25014181      -1.32932224       1.61217830       0.17128843       0.42836280       1.20017363
C       -2.81733317      -0.79084446       3.92993960       1.03545471       0.25456588      -0.66636452
C       -0.89269634      -1.32612779       1.96750328      -0.27797611      -0.79152444       0.48521863
C        2.82142977       3.43394468      -0.95950463      -1.33079490       0.44178310       0.32825824
C        1.42875729       0.14414535      -0.23578253      -0.12355464      -3.97223319       0.37177467
C        0.50404151       2.41168830       0.05745206       0.83687056       1.03158583      -0.80751473
C        2.73472862       2.03102538      -0.79775157      -0.70472298      -0.55205363       0.04307756
C        1.53089379       1.50718889      -0.32341161      -0.75860429       3.15163890       0.22485411
N        0.24596946      -0.43880858       0.16667223       0.70850648       1.13770758      -0.76627039
C       -0.14067801       6.42503998      -0.76088574       0.16140750      -0.34600554      -0.32204646
C        4.73965697      -1.05474307      -1.07449499       0.96034365       0.15385279      -0.18440535
C       -0.15673709      -2.98580401       0.03104566       1.27652015       1.40656415       0.91381164
C        0.18875097      -1.65530755       0.95839894      -1.09605827      -1.35926597      -0.88132925
H       -1.09762807      -0.64209118       5.27177176      -0.19743122       0.14505021       0.49329892
H       -4.26027675      -0.98322060       2.39645288       0.27272323      -0.00367926      -0.08341111
H        0.53829873      -1.10162236       3.52098307       0.28375405       0.17481860       0.27972420
H       -2.59622378      -1.56709650       0.60604062       0.22664890       0.08519322       0.33946802
H        3.76348070       3.77198551      -1.35229137       0.06355607       0.62962083      -0.03165619
H       -0.37967105       2.07851157       0.52884449      -0.84095009      -0.24349957       0.28390059
H       -0.52657803       0.21879364       0.26811418       0.51495379      -0.72386835       0.13373814
H        0.76797294       6.83348629      -0.34056225       0.05728358       0.11504291       0.09237487
H       -0.94250305       7.19213888      -0.71552720       0.36927735      -0.85403254       0.10182330
H        0.09073864       6.15851090      -1.81297913      -0.40933099       0.04977562       0.72623539
H        4.70696358      -1.50913288      -2.07770696       0.06227635       0.06164185       0.41113227
H        5.68891911      -0.49047687      -0.97073891      -0.56626604      -0.47551450      -0.13134774
H        4.67607597      -1.84805706      -0.30943778       0.02473946       0.39930972      -0.49474707
H       -1.01842820      -2.82950728      -0.61281698      -0.13235545       0.24019569       0.25402404
H       -0.32005727      -3.87656658       0.65635571       0.12544010       0.43961578      -0.17612022
H        0.70220894      -3.14429968      -0.64975600      -0.38983285       0.04384783       0.55402275
H        1.14294891      -1.79841521       1.50371191      -0.49542081      -0.03593464      -0.65314936
