40
Properties=species:S:1:pos:R:3:forces:R:3 id=455 bond=C-C smiles="[H:26][c:10]1[c:8]([c:12]([c:9]([c:11]([c:13]1[C@@:23]([H:40])([C:22]([H:37])([H:38])[H:39])[N:19]([H:30])[c:15]2[c:18]3[c:16]([c:7]([n:2][c:14]([c:17]3[n:4][c:6]([n:3]2)[C:21]([H:34])([H:35])[H:36])[H:28])[S:5][C:20]([H:31])([H:32])[H:33])[H:29])[H:27])[H:25])[F:1])[H:24]" dataset=PubChem energy=-37438.071157567734 pbc="F F F"
F       -3.79680658      -0.53501025       4.81669522       0.69399039      -0.23036430      -0.24123494
N        1.80659853       4.25509033      -0.70207965       1.72312503      -1.15699039      -0.70135686
N        2.44404696      -0.71461669      -0.50973164      -0.86570822       0.81976842       0.11683994
N        3.74251484       1.17595610      -1.10380959       1.57499134      -1.23110652      -0.50108797
S       -0.61071861       4.89858636       0.21203235      -0.40216059       0.71156802      -0.41491026
C        3.59447955      -0.14267185      -0.93180799      -0.88358987       1.75274292       0.76189944
C        0.65383521       3.74843106      -0.21615207       0.57968401      -0.82333788       0.29307986
C       -1.45298506      -0.82684425       4.25420714      -1.08619368       0.14559646       0.02221415
C       -3.20045805      -1.03477743       2.59090853      -0.27293284      -0.32505953      -0.02466939
C       -0.51356006      -1.05662015       3.27551461      -0.89471351      -0.69637383      -1.33763885
C       -2.25733948      -1.35704091       1.59285844       0.17832293       0.42529528       1.19904006
C       -2.82453084      -0.81856313       3.91061974       1.03474156       0.25429797      -0.66801481
C       -0.89989401      -1.35384646       1.94818342      -0.27130017      -0.70798844       0.56747715
C        2.81423210       3.40622601      -0.97882449      -1.32999741       0.44115306       0.32818919
C        1.42155962       0.11642668      -0.25510239      -0.14428335      -3.96438299       0.38616153
C        0.49684384       2.38396963       0.03813220       0.83725696       1.03066485      -0.80725041
C        2.72753095       2.00330671      -0.81707143      -0.70698650      -0.54992079       0.04299534
C        1.52369612       1.47947022      -0.34273147      -0.75375379       3.15530013       0.22141650
N        0.23877179      -0.46652725       0.14735237       0.72846796       1.27102068      -0.80182791
C       -0.14787568       6.39732131      -0.78020560       0.16127241      -0.34607457      -0.32193767
C        4.73245930      -1.08246174      -1.09381485       0.96039071       0.15388736      -0.18468393
C       -0.14953942      -2.95808534       0.05036552       1.11611282       0.69662044       0.40285153
C        0.18155330      -1.68302622       0.93907908      -0.92674316      -0.76129723      -0.36709623
H       -1.10482574      -0.66980985       5.25245190      -0.19822645       0.14478189       0.49406502
H       -4.26747442      -1.01093927       2.37713302       0.27283559      -0.00306906      -0.08360487
H        0.53110106      -1.12934103       3.50166321       0.28351600       0.17624613       0.27774437
H       -2.60342145      -1.59481517       0.58672076       0.21887434       0.09029785       0.34229656
H        3.75628303       3.74426684      -1.37161123       0.06356766       0.62974621      -0.03175923
H       -0.38686872       2.05079290       0.50952463      -0.84037871      -0.24387056       0.28373751
H       -0.53377570       0.19107497       0.24879432       0.52438004      -0.71539197       0.13997648
H        0.76077527       6.80576762      -0.35988211       0.05732105       0.11504349       0.09235539
H       -0.94970072       7.16442021      -0.73484706       0.36928436      -0.85399045       0.10180579
H        0.08354097       6.13079223      -1.83229899      -0.40929093       0.04977534       0.72620589
H        4.69976591      -1.53685155      -2.09702682       0.06239373       0.06167061       0.41107281
H        5.68172144      -0.51819554      -0.99005877      -0.56634573      -0.47565074      -0.13128997
H        4.66887830      -1.87577573      -0.32875764       0.02505833       0.39933735      -0.49459183
H       -1.01123053      -2.80178861      -0.59349712      -0.13026559       0.16693375       0.21662137
H       -0.31285960      -3.84884791       0.67567557       0.11695066       0.38483960      -0.22159690
H        0.70940661      -3.11658101      -0.63043614      -0.41602266      -0.02799221       0.49906115
H        1.13575124      -1.82613388       1.48439205      -0.48219163       0.03835215      -0.59011156
