16
Properties=species:S:1:pos:R:3:forces:R:3 id=11659 bond=N-O smiles="[H:14][C:7]1=[C:9]([N:11]([C:6](=[S:4])[C:8](=[C:10]1[C:12]([F:1])([F:2])[F:3])[H:15])[O:5][H:13])[H:16]" dataset=PubChem energy=-28810.616435618304 pbc="F F F"
F       -0.49770682      -2.26509272       1.27749050       0.96052521       0.38671026       0.16914254
F        1.74762160      -2.09721671       1.19568724      -1.27581592      -0.43062626      -0.48323614
F        0.48151042      -2.32554423      -0.62487333       0.59552183       0.18984348       0.56709526
S       -1.63368600       2.82227958       1.71577841       0.11233415       2.51171022       0.11927177
O        0.75320671       3.54526774       0.51265455       7.39602770      78.93648059       6.63147079
C       -0.40822857       1.99403895       0.98556832      -1.83616808      -6.31369844      -0.13179772
C        1.65664107       0.48653892      -0.10049814      -1.08169716      -0.89292902       1.26749768
C       -0.52861398       0.52846541       0.96523571       1.76048627       0.41280519      -0.70954317
C        1.71355170       1.87859261      -0.07500564       0.73517822      -3.28818604      -0.81978978
C        0.53625358      -0.25273501       0.52345784       0.59852177       2.85267819      -1.22326548
N        0.67528098       2.63989151       0.42100719      -4.42082334     -78.05481915      -7.24498334
C        0.55534719      -1.74141990       0.60446526       0.08951587      -0.18708372      -0.41428339
H       -0.04141536       3.88671747       0.97293101      -2.61975274       2.44548416       1.69026659
H        2.50871736      -0.07681810      -0.50557714      -0.48076232       0.45194439       0.26400197
H       -1.44290655       0.02474589       1.31247664       0.59671869       0.75023319       0.05592642
H        2.64502079       2.36740911      -0.41552061      -1.12731560       0.22122509       0.27075745
