16
Properties=species:S:1:pos:R:3:forces:R:3 id=11659 bond=N-O smiles="[H:14][C:7]1=[C:9]([N:11]([C:6](=[S:4])[C:8](=[C:10]1[C:12]([F:1])([F:2])[F:3])[H:15])[O:5][H:13])[H:16]" dataset=PubChem energy=-28817.18232600373 pbc="F F F"
F       -0.56943392      -3.09845039       1.19313326       1.01934960       0.48909255       0.13327210
F        1.67589450      -2.93057438       1.11133000      -1.39774397      -0.23166696      -0.51362427
F        0.40978332      -3.15890190      -0.70923057       0.58633061       0.41638038       0.67372484
S       -1.70541310       1.98892191       1.63142117      -0.24631797       0.68623885       0.39449234
O        0.82493381       4.37862541       0.59701179      -0.53553038      -0.77507690       0.31699541
C       -0.47995567       1.16068128       0.90121108       0.89669494      -0.43314106      -0.97428410
C        1.58491397      -0.34681875      -0.18485538      -0.58299967      -1.07687763       1.36926009
C       -0.60034108      -0.30489226       0.88087847       0.91611196      -0.82070192      -0.50974124
C        1.64182460       1.04523494      -0.15936288      -0.82105952      -0.00642788       1.15482857
C        0.46452648      -1.08609268       0.43910060       0.26404747       3.40032115      -0.93319850
N        0.60355388       1.80653384       0.33664995       0.52714802      -1.42363482      -0.65921011
C        0.48362009      -2.57477757       0.52010802       0.07517705      -0.82265992      -0.37248319
H        0.03031174       4.72007514       1.05728825       0.36595000      -0.44804685      -0.23407970
H        2.43699026      -0.91017577      -0.58993438      -0.58774241       0.34789386       0.06485838
H       -1.51463365      -0.80861178       1.22811940       0.61240594       0.65975027       0.10298457
H        2.57329369       1.53405144      -0.49987785      -1.09123241       0.03761754      -0.00171672
