49
Properties=species:S:1:pos:R:3:forces:R:3 id=32520 bond=C-N smiles="[H:25][c:11]1[c:5]([n:1][c:7]([c:12]([c:13]1[C:17]([H:33])([H:34])[H:35])[H:26])[O:4][c:6]2[c:9]([n:2][c:8]([c:10]([n:3]2)[C:16]([H:30])([H:31])[H:32])[N:14]([C:20]([H:42])([H:43])[C:22]([H:46])([H:47])[C:18]([H:36])([H:37])[H:38])[C:21]([H:44])([H:45])[C:23]([H:48])([H:49])[C:19]([H:39])([H:40])[H:41])[C:15]([H:27])([H:28])[H:29])[H:24]" dataset=PubChem energy=-27111.525365623384 pbc="F F F"
N        2.06635139       4.18297585      -0.21903569      -0.17906968      -0.21052352       0.46339196
N        2.04130802      -0.14720003       0.60430938      -2.30027607       0.67321251       1.07314825
N        0.71018735       2.02865299       1.84944808       1.81895334      -1.25180131      -0.68965542
O        2.64068636       3.25098546       1.84356260       0.62961085      -0.03820041       0.00583456
C        1.58322742       5.23722275      -0.91059244       0.45164067       0.39557491       0.89157450
C        2.02133807       2.09956511       1.52326500      -1.92320972      -2.49663144      -0.45409656
C        2.17812535       4.28748711       1.11594510      -0.37835911       2.89667268      -2.26492406
C        0.75989418      -0.23212783       0.99169331       1.30638662      -1.87154088      -1.29438776
C        2.67791363       1.02531918       0.87217515      -0.25587562      -0.10548775      -0.10549370
C        0.10148493       0.85350761       1.59826445      -0.62522532      -0.11211589       0.00188247
C        1.23186860       6.44270285      -0.32990468       0.14634371      -0.18194698       0.85729289
C        1.90449748       5.49934490       1.75895941      -0.06082946      -0.27642659       0.46754107
C        1.40184686       6.59695394       1.05968308      -0.92833244      -1.03023201      -0.66634503
N       -0.27088671      -2.05842785       0.57463155       0.69232984       2.10437941       0.88105880
C        4.10492131       1.08902564       0.43800092       0.38903974       0.70894508      -0.98147897
C       -1.31579187       0.76284790       2.01287329      -1.30010111       0.95813139       0.52891422
C        0.83281748       7.80354698       1.73742377       0.27771641       0.70880627       0.89677763
C        1.97657592      -4.19285014       0.42950203      -0.62835536      -0.35726007      -0.15394432
C       -2.90990155      -3.13211444      -2.03931601      -0.25390100       0.64016049       0.28058379
C       -0.16338192      -3.20495800       1.52148967       0.50820056       1.00272575      -0.83122560
C       -0.77011185      -2.36401562      -0.77632721      -1.01713146       0.54112053       1.41240189
C        0.57194930      -4.45105699       1.03185486       0.91789305       0.30518422       0.38623901
C       -2.32346241      -2.59844020      -0.71891601       0.12427070      -0.18625259       0.45080277
H        1.51486835       5.22092922      -1.98459184       0.03829648      -0.79068020      -0.20875798
H        0.78203875       7.24269588      -0.90808845       0.18011617      -0.14895473      -0.03374907
H        2.02220246       5.48472651       2.83554112      -0.09327879       0.32961779      -0.02769563
H        4.26704833       0.53171213      -0.50809694      -0.23091715       0.18149737       0.79445217
H        4.72571060       0.69166754       1.21450024       0.46213517      -0.48816435       0.35341627
H        4.47786519       2.11176963       0.26711386      -0.48932487      -0.29429911       0.11230437
H       -2.01785281       0.84497735       1.16420769       0.41874653      -0.42686708       0.27051181
H       -1.46971801      -0.15442113       2.56007027      -0.29829500      -0.34822486      -0.16405044
H       -1.60881379       1.60324659       2.69109118       0.60351191      -0.62426747      -0.55535407
H        1.28729025       8.70958479       1.30787813      -0.16672637      -0.21966167       0.23416207
H        1.09950498       7.75690611       2.81390344      -0.30353807       0.25342439      -0.61823243
H       -0.27563473       7.93853481       1.65237128       0.97787815      -0.50843068      -0.07592500
H        2.44696982      -5.17554859       0.27064441      -0.03718577       0.42049392      -0.19213807
H        1.92480106      -3.63226775      -0.53641207       0.11782843      -0.40432112       0.94398507
H        2.58926494      -3.66281847       1.15706103       0.02954533       0.21654988      -0.20498481
H       -3.94877450      -3.47246173      -1.86218555       0.53337310       0.18816709      -0.24387982
H       -2.31873314      -3.99615482      -2.36450465      -0.18890572       0.30947066      -0.28915561
H       -2.93725793      -2.30322245      -2.79459841       0.15604053      -1.01216875       0.41837592
H       -1.14955585      -3.52016381       1.87402062      -0.19086651       0.21128979      -0.14657110
H        0.35459299      -2.85301069       2.38503115       0.34369050       0.42175505       0.63726384
H       -0.32479518      -3.25736550      -1.16577263       0.45831417      -0.67927701      -0.24107367
H       -0.54189877      -1.58659271      -1.48189087       0.11579223       0.51506246      -0.12283978
H       -0.03885712      -4.96678785       0.32663583      -0.42815770      -0.47659983      -0.63286390
H        0.67374666      -5.12825397       1.90470080      -0.07418614       0.32804445      -0.41775645
H       -2.53712098      -3.34610704       0.09238590       0.26166174       0.71458915      -0.68264662
H       -2.83654873      -1.65923158      -0.43156667       0.39399847      -0.48527388      -0.06481509
