49
Properties=species:S:1:pos:R:3:forces:R:3 id=32520 bond=C-N smiles="[H:25][c:11]1[c:5]([n:1][c:7]([c:12]([c:13]1[C:17]([H:33])([H:34])[H:35])[H:26])[O:4][c:6]2[c:9]([n:2][c:8]([c:10]([n:3]2)[C:16]([H:30])([H:31])[H:32])[N:14]([C:20]([H:42])([H:43])[C:22]([H:46])([H:47])[C:18]([H:36])([H:37])[H:38])[C:21]([H:44])([H:45])[C:23]([H:48])([H:49])[C:19]([H:39])([H:40])[H:41])[C:15]([H:27])([H:28])[H:29])[H:24]" dataset=PubChem energy=-27114.922464697207 pbc="F F F"
N        1.88381727       3.85956855      -0.29289038      -0.19039425      -0.17717002       0.42105449
N        1.85877390      -0.47060733       0.53045469      -0.24485282       1.86174595       0.88326035
N        0.52765323       1.70524569       1.77559339       1.60084983      -0.99612235      -0.52593767
O        2.45815224       2.92757816       1.76970791       0.64524828       0.19863020       0.00714492
C        1.40069330       4.91381545      -0.98444713       0.45490222       0.38829050       0.91294324
C        1.83880395       1.77615781       1.44941031      -1.95368699      -2.68242111      -0.49382983
C        1.99559123       3.96407981       1.04209041      -0.32400034       2.75395458      -2.19072552
C        0.57736006      -0.55553513       0.91783862       1.10999101       0.61751456      -0.31281863
C        2.49537951       0.70191188       0.79832046      -0.39337208      -0.17682059      -0.11106588
C       -0.08104919       0.53010031       1.52440976       0.48169686       0.92411880       0.11170213
C        1.04933448       6.11929555      -0.40375937       0.14073443      -0.17404078       0.84596961
C        1.72196336       5.17593760       1.68510472      -0.07052945      -0.23263701       0.45347335
C        1.21931274       6.27354664       0.98582839      -0.91688270      -1.04719272      -0.65428452
N       -0.08835259      -1.73502055       0.64848624      -0.87446725      -1.88923794      -0.17532087
C        3.92238719       0.76561834       0.36414623       0.38721492       0.75957614      -0.97355469
C       -1.49832599       0.43944060       1.93901860      -1.24646317       0.96037468       0.49829679
C        0.65028336       7.48013968       1.66356908       0.27465994       0.70975793       0.89320929
C        2.15911004      -3.86944284       0.50335672      -0.59579832      -0.38195036      -0.17596223
C       -2.72736743      -2.80870714      -1.96546132      -0.28807094       0.65227163       0.30557921
C        0.01915220      -2.88155070       1.59534436      -0.12359338       0.48697487      -0.74686907
C       -0.58757773      -2.04060832      -0.70247252      -1.61870612       0.03909123       1.30756506
C        0.75448342      -4.12764969       1.10570955       0.89480304       0.34749753       0.36802452
C       -2.14092829      -2.27503290      -0.64506132       0.18853616      -0.23940528       0.31325198
H        1.33233423       4.89752192      -2.05844653       0.03903273      -0.78702882      -0.21382640
H        0.59950463       6.91928858      -0.98194314       0.17804944      -0.14581572      -0.03473478
H        1.83966834       5.16131921       2.76168643      -0.09393717       0.32514317      -0.02882421
H        4.08451421       0.20830483      -0.58195163      -0.22921873       0.17396099       0.78994583
H        4.54317648       0.36826024       1.14064555       0.47255255      -0.48817222       0.35406863
H        4.29533107       1.78836233       0.19325917      -0.46238378      -0.29205634       0.10805165
H       -2.20038693       0.52157005       1.09035300       0.38757745      -0.40427432       0.28822310
H       -1.65225213      -0.47782843       2.48621558      -0.33665590      -0.34284018      -0.11415279
H       -1.79134791       1.27983929       2.61723649       0.59820139      -0.63569968      -0.55856445
H        1.10475613       8.38617749       1.23402344      -0.16661049      -0.21677820       0.23418632
H        0.91697086       7.43349881       2.74004875      -0.30305771       0.25243693      -0.61666139
H       -0.45816885       7.61512751       1.57851659       0.97608062      -0.50690629      -0.07439861
H        2.62950394      -4.85214129       0.34449910      -0.05831404       0.40723782      -0.18351564
H        2.10733518      -3.30886045      -0.46255738       0.13917271      -0.39698624       0.97597214
H        2.77179906      -3.33941117       1.23091572       0.02003446       0.21634678      -0.23668448
H       -3.76624038      -3.14905443      -1.78833086       0.53671884       0.19063809      -0.25426704
H       -2.13619902      -3.67274752      -2.29064996      -0.18694753       0.31205077      -0.28290260
H       -2.75472381      -1.97981515      -2.72074372       0.15436822      -1.01516226       0.42075094
H       -0.96702173      -3.19675651       1.94787531      -0.09719224       0.13591131      -0.12148594
H        0.53712711      -2.52960339       2.45888584       0.37396869       0.48374386       0.60606402
H       -0.14226106      -2.93395820      -1.09191794       0.41958179      -0.60850579      -0.16725671
H       -0.35936465      -1.26318541      -1.40803618       0.18461628       0.55363526      -0.04546767
H        0.14367700      -4.64338055       0.40049052      -0.43537083      -0.47512026      -0.62153319
H        0.85628078      -4.80484667       1.97855549      -0.09190588       0.35750338      -0.42638698
H       -2.35458686      -3.02269974       0.16624059       0.26740118       0.71574141      -0.67484685
H       -2.65401461      -1.33582428      -0.35771198       0.37717713      -0.51184842      -0.08538489
