35
Properties=species:S:1:pos:R:3:forces:R:3 id=29457 bond=C-O smiles="[H:33][C:22]([H:34])([H:35])[O:20][C:30]1([C:28]([C:27]([C:29]([O:21]1)([C:31]([C:23]([F:1])([F:2])[F:3])([C:24]([F:4])([F:5])[F:6])[F:18])[F:17])([F:13])[F:14])([F:15])[F:16])[C:32]([C:25]([F:7])([F:8])[F:9])([C:26]([F:10])([F:11])[F:12])[F:19]" dataset=PubChem energy=-67204.41677863988 pbc="F F F"
F       -2.32594608       4.04566126      -0.27097254       1.46234837      -2.63501572      -0.63183218
F       -2.07203435       2.21252100       0.93309547       1.13467439       1.24316811      -3.37972598
F       -2.39231466       1.96162610      -1.40326951       1.94713945       2.81649626       3.40477847
F        1.17748440       3.82881980      -2.35648797       0.40127528      -0.14005830       1.63325893
F       -0.86158346       3.91693787      -2.55823491      -2.18551940      -0.90063243      -1.00542062
F       -0.08725961       5.24047332      -1.09072040       1.04724161      -2.88422369      -0.26183090
F       -1.75441037      -1.89093894      -0.81709872       0.21611980       0.14988024       0.42353165
F        0.18235103      -2.38040919      -1.63620041       0.65684559       2.16114876      -0.08424463
F       -0.68065439      -3.78217644      -0.48999725      -0.77588795       0.80213820       1.89740296
F       -2.07087802      -0.97531111       1.60140325       1.97015982      -0.35011185       0.35070527
F       -0.63787405      -1.68290944       3.12406613       0.61784465       0.57058689       0.55138510
F       -1.62630294      -3.05614228       1.85104598       0.61885134       0.24582916      -0.14617387
F        2.63430930       2.04843216       0.22482276      -0.82139711      -0.89343171      -0.90494243
F        2.68110777       1.22846358      -1.85127352      -0.08514475      -0.00186440       1.39460870
F        2.26058627      -1.05226381      -1.03587257      -0.12407288      -1.56515995      -1.72790205
F        3.03287936      -0.41221292       0.85555978      -1.04672898       0.51634854      -0.79200719
F        0.04384385       0.96407234      -2.17743634       2.24490218       1.94411149      -1.84261728
F        0.46472989       3.27092843       0.56451090      -0.57000178      -0.32212144      -0.38097466
F        1.17149533      -2.59979815       0.99695457       0.31178395      -0.10371434       1.00791991
O        0.47077222       0.41546701       1.82801045       2.91932911      -0.87167446       0.91431114
O       -0.23324217       0.51098384      -0.25612571       1.26075202      -2.25910519       2.84408104
C        2.08881953       0.38709270       3.55492356       1.41797890      -1.82273619       0.53018280
C       -1.72949837       2.79893809      -0.32045220      -3.13552358      -2.23369710       0.78762223
C        0.03361047       3.89946323      -1.63516198       1.21458614       4.09870251      -1.16881691
C       -0.57098668      -2.40017433      -0.52618538       0.33698915      -2.55547822      -1.64973669
C       -1.02619814      -1.82960672       1.88978518      -1.96585477      -1.12451668      -0.79390497
C        2.03708316       1.16574304      -0.62190376       0.81860690       2.74274792      -2.81245555
C        2.01547314      -0.21026261      -0.10293083       0.97162757      -0.76254974       4.46005477
C        0.53656552       1.41470681      -0.97878931      -4.31763952      -0.24364712       0.99603600
C        0.60324527      -0.30857153       0.61301370      -0.16264211       1.59122298       1.15438342
C       -0.13837652       2.82258325      -0.58010970      -0.14699521       0.51705226       0.23694737
C        0.12709845      -1.79143042       0.78566564      -2.61541973       0.75055389      -1.78932462
H        2.23843303      -0.68612099       3.85765031      -0.40304653       0.64441800      -1.67701063
H        3.09965709       0.86448076       3.31987288      -2.12622441      -0.32692832      -0.71003266
H        1.62183067       0.72606255       4.47044757      -1.09164694       1.19504912      -0.83545199
