41
Properties=species:S:1:pos:R:3:forces:R:3 id=47797 bond=N-N smiles="[H:23][c:7]1[c:8]([c:10]([c:12]([c:11]([c:9]1[H:25])[H:27])[C:4]2=[N:1][N:14]([C:6](=[C:5]2[H:22])[O:2][C:16]([H:30])([H:31])[C:19]([H:36])([H:37])[N:15]3[C:20]([C:17]([O:3][C:18]([C:21]3([H:40])[H:41])([H:34])[H:35])([H:32])[H:33])([H:38])[H:39])[N:13]([H:28])[H:29])[H:26])[H:24]" dataset=PubChem energy=-25945.495001052066 pbc="F F F"
N       -0.10230467       3.32610177       1.98051357      -0.02293753      -1.97405919      -1.13199384
O        1.73395493       0.64840976       0.24688032      -1.59817485       0.79484765       1.53038373
O        0.09923961      -5.40335132      -1.72179472      -0.17250777       0.73676366       0.34405162
C        1.07945063       3.87836908       1.70910871       1.01744675      -0.95011138      -0.19053141
C        1.96962323       2.89352463       1.11808306       0.04940212       1.69708293       0.49402938
C        1.23185932       1.74242150       0.96689329       0.25645008      -0.50508911      -1.10680349
C        1.87596657       8.07216214       2.29510093       0.63136543       0.16288130      -0.37552599
C        0.57421711       7.56589936       2.36449206       0.34870552      -0.11140913       0.06023169
C        2.96495559       7.20836590       2.07294834      -2.31206096      -0.60520664       0.18855225
C        0.31587096       6.19510124       2.25195134      -0.22771391       0.81864546       0.14231651
C        2.64300909       5.84730862       1.92354870       1.40447971       0.37682310      -0.34045584
C        1.36582502       5.32968376       1.99449360      -0.61672767      -0.83281646      -0.03617931
N       -1.96235917       0.73444697       1.46437268       2.43653830      -0.63708195      -0.57390780
N       -0.00743255       2.02901589       1.51007664      -1.75546356       0.16350465       0.96663045
N        0.94968913      -2.97293235      -0.39663487      -0.81357974      -0.07689403       0.80651646
C        0.89595100      -0.51710380       0.21201015      -0.80762624      -0.67507504       0.62162186
C        1.12859993      -5.45801211      -0.70278036      -0.29652921       0.90612981      -1.49930511
C       -0.85162149      -4.32727576      -1.53460586       0.72828971      -0.15871956      -0.75319113
C        1.69933858      -1.69041491      -0.30390632       0.25002314      -0.80004031       0.44447010
C        1.86528053      -4.12059594      -0.58553576      -0.96753360       0.56453159      -0.49151074
C       -0.17597077      -2.95557119      -1.41768229       1.46947621      -0.28089830       1.03898950
H        3.02049710       3.07247590       0.84710124      -0.85259458      -0.41665036       0.01526963
H        2.05428555       9.16019390       2.33179653      -0.21934489      -0.70624407       0.12633646
H       -0.22354481       8.28401612       2.48219097      -0.18126142      -0.16769180       0.11444554
H        3.96355655       7.57650803       1.98537254       0.37821367       0.02026498      -0.02125821
H       -0.69049439       5.79793070       2.34468424       0.16582069       0.16552954      -0.12196236
H        3.44508388       5.17477034       1.66850698       0.17170247      -0.15959095       0.10796744
H       -2.12729476       0.27104619       2.37782614       0.78041566       0.99772257      -0.10815170
H       -2.73860047       1.35423916       1.31148158       0.03413009       1.25497429       0.18902475
H        0.48152774      -0.79266621       1.20681918       0.48225362       0.42109500      -0.42460443
H        0.03941657      -0.36049856      -0.41587078      -0.38949507       0.48915176      -0.34408676
H        0.68356072      -5.76967478       0.23133847       0.05004214      -0.17682627       0.34121750
H        1.85698267      -6.16162539      -1.12213933      -0.32320242      -0.16051504       0.55373079
H       -1.44188116      -4.49845649      -0.64557635      -0.19533303      -0.19608511       0.34448454
H       -1.52530811      -4.34419251      -2.43127691       0.66447817      -0.01493702       0.86198007
H        2.07819166      -1.49400116      -1.29689943       0.51824004       0.50701294      -0.34808046
H        2.54018678      -1.75314237       0.42907052      -0.44724758      -0.54155855      -0.83218624
H        2.40220156      -3.95211316      -1.52588689       0.35581484      -0.21860079      -0.01262923
H        2.56842067      -4.20107604       0.24183342       0.01783825       0.27385197      -0.01658995
H        0.25459709      -2.64664818      -2.36578834      -0.08353650       0.05461409      -0.47115676
H       -0.91743729      -2.22521187      -1.09442568       0.07354173      -0.03679751      -0.09564702
