41
Properties=species:S:1:pos:R:3:forces:R:3 id=47797 bond=N-N smiles="[H:23][c:7]1[c:8]([c:10]([c:12]([c:11]([c:9]1[H:25])[H:27])[C:4]2=[N:1][N:14]([C:6](=[C:5]2[H:22])[O:2][C:16]([H:30])([H:31])[C:19]([H:36])([H:37])[N:15]3[C:20]([C:17]([O:3][C:18]([C:21]3([H:40])[H:41])([H:34])[H:35])([H:32])[H:33])([H:38])[H:39])[N:13]([H:28])[H:29])[H:26])[H:24]" dataset=PubChem energy=-25935.63622103456 pbc="F F F"
N       -0.70313074       2.92822967       1.96646694       2.93033892       2.34314479       0.18769213
O        1.13312886       0.25053766       0.23283369      -1.68179602       0.60151278       1.50284487
O       -0.50158646      -5.80122342      -1.73584135      -0.16994026       0.75100117       0.34464817
C        0.47862456       3.48049698       1.69506208       0.78032202      -0.35380993       0.19859678
C        1.36879716       2.49565253       1.10403643       0.61119621       1.30246078       0.50739616
C        0.63103325       1.34454940       0.95284666       2.95764555       1.93664984      -1.09556570
C        1.27514050       7.67429004       2.28105430       0.62657411       0.16542630      -0.37693191
C       -0.02660896       7.16802726       2.35044543       0.33967151      -0.11087012       0.05975417
C        2.36412952       6.81049380       2.05890171      -2.29525924      -0.62455452       0.20807383
C       -0.28495511       5.79722914       2.23790471      -0.23765336       0.82068524       0.15690500
C        2.04218302       5.44943652       1.90950207       1.41970616       0.44226370      -0.34863183
C        0.76499895       4.93181166       1.98044697      -0.48933324      -0.88432210      -0.29391598
N       -1.36153310       1.13231907       1.47841931     -75.73524704     -50.20652644       0.33840026
N       -0.60825862       1.63114379       1.49603001      76.31819710      47.95628265      -1.42482627
N        0.34886306      -3.37080445      -0.41068150      -0.81018845      -0.05885877       0.81026429
C        0.29512493      -0.91497590       0.19796352      -0.81778037      -0.76541886       0.53609407
C        0.52777386      -5.85588421      -0.71682699      -0.30179434       0.90076063      -1.49645362
C       -1.45244756      -4.72514786      -1.54865249       0.71647704      -0.17073592      -0.74913517
C        1.09851251      -2.08828701      -0.31795295       0.23406395      -0.82578431       0.44218424
C        1.26445446      -4.51846804      -0.59958239      -0.95755775       0.55629818      -0.49187205
C       -0.77679684      -3.35344329      -1.43172892       1.47696958      -0.28300576       1.03175646
H        2.41967103       2.67460380       0.83305461      -0.85856053      -0.27117228       0.07169597
H        1.45345948       8.76232180       2.31774990      -0.22072558      -0.70595141       0.12622514
H       -0.82437088       7.88614402       2.46814434      -0.18106603      -0.16715210       0.11495472
H        3.36273048       7.17863593       1.97132591       0.37859863       0.02389874      -0.01960589
H       -1.29132046       5.40005860       2.33063761       0.16231671       0.17095632      -0.11880597
H        2.84425781       4.77689824       1.65446035       0.16293708      -0.16252676       0.09979664
H       -1.52646869       0.66891829       2.39187277      -2.13650334      -1.69416218       0.78079984
H       -2.13777440       1.75211126       1.32552821      -2.97506748      -0.91755958      -0.61246793
H       -0.11929833      -1.19053831       1.19277255       0.49950529       0.33020852      -0.44380771
H       -0.56140950      -0.75837066      -0.42991741      -0.36970922       0.39112989      -0.37531675
H        0.08273465      -6.16754688       0.21729184       0.05126328      -0.17614835       0.33981783
H        1.25615660      -6.55949749      -1.13618596      -0.32308615      -0.15863208       0.55429130
H       -2.04270723      -4.89632859      -0.65962298      -0.19430832      -0.19397211       0.34107887
H       -2.12613418      -4.74206461      -2.44532354       0.66555170      -0.01353365       0.86370993
H        1.47736559      -1.89187326      -1.31094606       0.51629674       0.52043102      -0.34401663
H        1.93936071      -2.15101447       0.41502389      -0.44703090      -0.53179273      -0.83079468
H        1.80137549      -4.34998526      -1.53993352       0.35375187      -0.21755122      -0.01087427
H        1.96759460      -4.59894814       0.22778679       0.01705770       0.27348833      -0.01651535
H       -0.34622898      -3.04452028      -2.37983497      -0.08353956       0.05579445      -0.47088495
H       -1.51826336      -2.62308397      -1.10847231       0.06802763      -0.04448617      -0.09976365
