41
Properties=species:S:1:pos:R:3:forces:R:3 id=47797 bond=N-N smiles="[H:23][c:7]1[c:8]([c:10]([c:12]([c:11]([c:9]1[H:25])[H:27])[C:4]2=[N:1][N:14]([C:6](=[C:5]2[H:22])[O:2][C:16]([H:30])([H:31])[C:19]([H:36])([H:37])[N:15]3[C:20]([C:17]([O:3][C:18]([C:21]3([H:40])[H:41])([H:34])[H:35])([H:32])[H:33])([H:38])[H:39])[N:13]([H:28])[H:29])[H:26])[H:24]" dataset=PubChem energy=-25937.586265158316 pbc="F F F"
N       -0.69416319       2.93416806       1.96667659       2.77972602       2.04140695       0.09677001
O        1.14209641       0.25647605       0.23304334      -1.68219540       0.61070725       1.50047433
O       -0.49261891      -5.79528503      -1.73563170      -0.16994014       0.75034387       0.34464347
C        0.48759211       3.48643537       1.69527173       0.79564550      -0.39617579       0.17462046
C        1.37776471       2.50159092       1.10424608       0.57632108       1.32699563       0.50235700
C        0.64000080       1.35048779       0.95305631       2.69143712       1.83214052      -1.03297884
C        1.28410805       7.68022843       2.28126395       0.62679709       0.16541103      -0.37673445
C       -0.01764141       7.17396565       2.35065508       0.34036299      -0.11042322       0.06040803
C        2.37309707       6.81643219       2.05911136      -2.29641706      -0.62331528       0.20739378
C       -0.27598756       5.80316753       2.23811436      -0.23615911       0.82036376       0.15592196
C        2.05115057       5.45537491       1.90971172       1.41770132       0.43943639      -0.34836111
C        0.77396650       4.93775005       1.98065662      -0.49569018      -0.88256608      -0.27893470
N       -1.37050065       1.12638068       1.47820966     -66.46652904     -44.11789436       0.49495623
N       -0.59929107       1.63708218       1.49623966      67.05544901      42.05492588      -1.36907742
N        0.35783061      -3.36486606      -0.41047185      -0.81039429      -0.05955773       0.81033673
C        0.30409248      -0.90903751       0.19817317      -0.81395868      -0.76969998       0.53383814
C        0.53674141      -5.84994582      -0.71661734      -0.30160001       0.90098135      -1.49664659
C       -1.44348001      -4.71920947      -1.54844284       0.71679902      -0.17012515      -0.74924733
C        1.10748006      -2.08234862      -0.31774330       0.23712714      -0.82288669       0.44200970
C        1.27342201      -4.51252965      -0.59937274      -0.95820004       0.55671321      -0.49190400
C       -0.76782929      -3.34750490      -1.43151927       1.47664133      -0.28299738       1.03213051
H        2.42863858       2.68054219       0.83326426      -0.86093326      -0.27837015       0.06921200
H        1.46242703       8.76826019       2.31795955      -0.22072603      -0.70599670       0.12602593
H       -0.81540333       7.89208241       2.46835399      -0.18104906      -0.16710934       0.11492520
H        3.37169803       7.18457432       1.97153556       0.37853346       0.02378080      -0.01966063
H       -1.28235291       5.40599699       2.33084726       0.16237884       0.17137597      -0.11935918
H        2.85322536       4.78283663       1.65467000       0.16308979      -0.16219564       0.10004393
H       -1.53543624       0.66297990       2.39166312      -1.96118984      -1.49230994       0.58038577
H       -2.14674195       1.74617287       1.32531856      -2.72065445      -0.88734519      -0.57542130
H       -0.11033078      -1.18459992       1.19298220       0.50018622       0.33296019      -0.44654546
H       -0.55244195      -0.75243227      -0.42970776      -0.36755883       0.39375986      -0.37043291
H        0.09170220      -6.16160849       0.21750149       0.05119458      -0.17618394       0.33987844
H        1.26512415      -6.55355910      -1.13597631      -0.32308986      -0.15873530       0.55426412
H       -2.03373968      -4.89039020      -0.65941333      -0.19434201      -0.19405292       0.34116410
H       -2.11716663      -4.73612622      -2.44511389       0.66550975      -0.01360267       0.86366313
H        1.48633314      -1.88593487      -1.31073641       0.51673732       0.51934294      -0.34435913
H        1.94832826      -2.14507608       0.41523354      -0.44651405      -0.53276436      -0.83096505
H        1.81034304      -4.34404687      -1.53972387       0.35385120      -0.21756847      -0.01093557
H        1.97656215      -4.59300975       0.22799644       0.01711286       0.27350387      -0.01653482
H       -0.33726143      -3.03858189      -2.37962532      -0.08353790       0.05578671      -0.47084976
H       -1.50929581      -2.61714558      -1.10826266       0.06837211      -0.04426486      -0.09974020
