28
Properties=species:S:1:pos:R:3:forces:R:3 id=26037 bond=N-O smiles="[H:20][c:11]1[c:10]([c:9]([n:3][c:8]([c:12]1/[C:6](=[C:7](/[C:5](=[N:2][O:4][H:16])[C:15]([H:27])([H:28])[C:14]([H:24])([H:25])[H:26])[C:13]([H:21])([H:22])[H:23])/[H:17])[H:18])[F:1])[H:19]" dataset=PubChem energy=-19373.341634187098 pbc="F F F"
F       -0.64240029       0.35477529       6.31563355       0.47409660      -0.45354595       0.35170911
N        2.40252205       0.63717504      -1.97052214      -0.58157569      -0.03927590       0.67989582
N        0.37689252      -0.54738817       4.44100882      -0.81633662       0.80481506       1.54964372
O        2.45012040       0.75489903      -3.43882939      -2.09481947      -0.67692844       1.55575678
C        1.26499924       0.32264320      -1.33736716       1.64212537       0.02220841      -4.49020622
C        0.14838496       0.51950524       0.84766178       2.36053880      -0.42245228      -1.94027355
C        1.31109741       0.26682862       0.11641838      -1.35009873       0.74681315       2.22371814
C        0.56325663      -0.48435138       3.12580134      -0.33650610       0.49226399      -0.20927051
C       -0.33295420       0.42663971       5.03052165       0.30893283      -0.52946994      -2.38311006
C       -0.87274149       1.49289282       4.31271483       0.30055867       0.51371828       0.65951856
C       -0.65051821       1.56806280       2.95841386      -0.10284339      -0.11683146      -0.53894190
C        0.07653293       0.54578531       2.31561520      -0.76978863       0.26722466       0.14475282
C        2.65215692       0.02577581       0.78232320       0.22937695       0.45205095      -0.20044470
C       -0.81100073       1.13344200      -2.59713862      -0.40647433      -0.38899624      -0.51436449
C       -0.01953509      -0.07331012      -2.10413001       1.25862412       0.50200586      -0.70701129
H        3.35693283       0.90831169      -3.74148771      -0.12849980      -0.09830863       1.26321149
H       -0.75060919       0.77274119       0.26946156       0.35923764      -0.13934241       0.51556542
H        1.07185850      -1.31887744       2.66514685       0.10701070      -0.01811653       0.10160129
H       -1.37899652       2.29639902       4.83998944      -0.07720737      -0.30181447      -0.08491292
H       -1.09116927       2.40964927       2.39365961       0.42258383      -0.65837967       0.27772024
H        2.88456163      -1.03336833       0.79853210      -0.07474082      -0.20948152       0.18921633
H        3.47809872       0.47749277       0.22850858      -0.37383402       0.03696892      -0.18987380
H        2.71222386       0.44703304       1.78658058      -0.27551842      -0.27791826      -0.04761830
H       -0.24736527       1.66469743      -3.37522195      -0.20811849      -0.03658386       0.39872646
H       -1.01318040       1.77380922      -1.75461839      -0.15248525       0.51665505       0.04807291
H       -1.78020873       0.80363395      -3.03010938       0.61930309       0.24404110       0.26062906
H       -0.60521558      -0.69769130      -1.47794888      -0.56590357      -0.45079176       0.63476571
H        0.24389109      -0.67804573      -2.98744796       0.23306188       0.21813680       0.45218516
