28
Properties=species:S:1:pos:R:3:forces:R:3 id=26037 bond=N-O smiles="[H:20][c:11]1[c:10]([c:9]([n:3][c:8]([c:12]1/[C:6](=[C:7](/[C:5](=[N:2][O:4][H:16])[C:15]([H:27])([H:28])[C:14]([H:24])([H:25])[H:26])[C:13]([H:21])([H:22])[H:23])/[H:17])[H:18])[F:1])[H:19]" dataset=PubChem energy=-19373.526678221202 pbc="F F F"
F       -0.64005389       0.36057858       6.24325221       0.46497200      -0.45647780       0.38700618
N        2.40486845       0.64297833      -2.04290348      -1.03072448      -0.41423116       4.10092326
N        0.37923892      -0.54158488       4.36862748      -0.81659062       0.80844705       1.56701074
O        2.44777400       0.74909574      -3.36644805      -1.45971374      -0.33772888      -2.05532944
C        1.26734564       0.32844649      -1.40974850       1.67794103      -0.00885792      -3.89426007
C        0.15073136       0.52530853       0.77528044       2.36572713      -0.43480489      -1.88100291
C        1.31344381       0.27263191       0.04403704      -1.42761539       0.76615758       2.12346763
C        0.56560303      -0.47854809       3.05342000      -0.34439242       0.50002432      -0.20429069
C       -0.33060780       0.43244300       4.95814031       0.31782003      -0.52284379      -2.41373648
C       -0.87039509       1.49869611       4.24033349       0.29988731       0.50314059       0.66952295
C       -0.64817181       1.57386609       2.88603252      -0.09171985      -0.12308907      -0.53299506
C        0.07887933       0.55158860       2.24323386      -0.78252253       0.25948263       0.11941701
C        2.65450332       0.03157910       0.70994186       0.21458491       0.46205842      -0.19084636
C       -0.80865433       1.13924529      -2.66951996      -0.43293197      -0.42198094      -0.51606337
C       -0.01718869      -0.06750683      -2.17651135       1.33210293       0.56370309      -0.70484698
H        3.35458643       0.90250840      -3.66910637      -0.27209369      -0.06073663       0.91931190
H       -0.74826279       0.77854448       0.19708022       0.36149776      -0.13476702       0.51816504
H        1.07420490      -1.31307415       2.59276551       0.10546915      -0.01673661       0.09927695
H       -1.37665012       2.30220231       4.76760810      -0.07833997      -0.30099487      -0.08254127
H       -1.08882287       2.41545256       2.32127827       0.42364820      -0.65932426       0.27516493
H        2.88690803      -1.02756504       0.72615076      -0.07661168      -0.21282724       0.19078876
H        3.48044512       0.48329606       0.15612724      -0.37835118       0.03617017      -0.18699804
H        2.71457026       0.45283633       1.71419924      -0.27074673      -0.28033331      -0.04302880
H       -0.24501887       1.67050072      -3.44760329      -0.21852991      -0.02280360       0.38921968
H       -1.01083400       1.77961251      -1.82699973      -0.14327576       0.51119708       0.04686096
H       -1.77786233       0.80943724      -3.10249072       0.61057432       0.25800342       0.24777409
H       -0.60286918      -0.69188801      -1.55033022      -0.55730709      -0.45199853       0.62872551
H        0.24623749      -0.67224244      -3.05982930       0.20790617       0.19063787       0.42438768
