28
Properties=species:S:1:pos:R:3:forces:R:3 id=26037 bond=N-O smiles="[H:20][c:11]1[c:10]([c:9]([n:3][c:8]([c:12]1/[C:6](=[C:7](/[C:5](=[N:2][O:4][H:16])[C:15]([H:27])([H:28])[C:14]([H:24])([H:25])[H:26])[C:13]([H:21])([H:22])[H:23])/[H:17])[H:18])[F:1])[H:19]" dataset=PubChem energy=-19373.366682957338 pbc="F F F"
F       -0.63904829       0.36306571       6.21223163       0.46024672      -0.45800352       0.40514664
N        2.40587405       0.64546546      -2.07392406      -1.35693674      -0.71389532       7.01134603
N        0.38024452      -0.53909775       4.33760690      -0.81634072       0.81032295       1.57573339
O        2.44676840       0.74660861      -3.33542747      -1.04111332      -0.05906312      -5.05651777
C        1.26835124       0.33093362      -1.44076908       1.64688002      -0.04007596      -3.52896586
C        0.15173696       0.52779566       0.74425986       2.36348075      -0.44012108      -1.84676629
C        1.31444941       0.27511904       0.01301646      -1.46315301       0.77939939       2.06570176
C        0.56660863      -0.47606096       3.02239942      -0.34831926       0.50401719      -0.20061619
C       -0.32960220       0.43493013       4.92711973       0.32243440      -0.51955677      -2.42904597
C       -0.86938949       1.50118324       4.20931291       0.29952678       0.49755912       0.67424652
C       -0.64716621       1.57635322       2.85501194      -0.08648438      -0.12563968      -0.52963097
C        0.07988493       0.55407573       2.21221328      -0.78827257       0.25347002       0.10424213
C        2.65550892       0.03406623       0.67892128       0.20675268       0.46627397      -0.18545169
C       -0.80764873       1.14173242      -2.70054054      -0.44704256      -0.43861549      -0.51651388
C       -0.01618309      -0.06501970      -2.20753193       1.37066723       0.59749805      -0.71080210
H        3.35358083       0.90002127      -3.63808579      -0.30016282      -0.02854070       0.68603798
H       -0.74725719       0.78103161       0.16605964       0.36317011      -0.13148844       0.51957512
H        1.07521050      -1.31058702       2.56174493       0.10453429      -0.01631413       0.09811495
H       -1.37564452       2.30468944       4.73658752      -0.07894824      -0.30054848      -0.08133886
H       -1.08781727       2.41793969       2.29025769       0.42422572      -0.65980339       0.27383299
H        2.88791363      -1.02507791       0.69513018      -0.07753104      -0.21422665       0.19149047
H        3.48145072       0.48578319       0.12510666      -0.37773180       0.03636763      -0.18415955
H        2.71557586       0.45532346       1.68317866      -0.26743392      -0.28107008      -0.04128586
H       -0.24401327       1.67298785      -3.47862387      -0.22311441      -0.01592470       0.38351694
H       -1.00982840       1.78209964      -1.85802031      -0.13839338       0.50815109       0.04657437
H       -1.77685673       0.81192437      -3.13351130       0.60589857       0.26484914       0.24096192
H       -0.60186358      -0.68940088      -1.58135080      -0.55050008      -0.45259930       0.62689912
H        0.24724309      -0.66975531      -3.09084988       0.19461372       0.17603428       0.40865753
