33
Properties=species:S:1:pos:R:3:forces:R:3 id=29846 bond=C-S smiles="[H:20][c:9]1[c:8]([c:11]([c:12]([c:10]([c:13]1[N:14]([H:22])[H:23])[H:21])[C:5]2=[N:2][C:7](=[C:6]([O:3]2)[C:16]([H:27])([H:28])[H:29])[C:18]([H:32])([H:33])[C:17]([H:30])([H:31])[S:4][C:15]([H:24])([H:25])[H:26])[Cl:1])[H:19]" dataset=PubChem energy=-42123.24330346609 pbc="F F F"
Cl       2.69034369       2.48747834      -0.34744282       0.47644235      -1.27476520      -0.00742047
N        0.78639367       1.02430078       1.59022038       1.77671867      -1.79764326      -0.87295688
O        1.12629609      -1.09566501       2.16951112       0.00413952      -0.81284980      -0.86027686
S       -3.35960047       3.26141175       2.16983895      -0.34372812       0.64068854      -2.69936981
C        1.55439777      -0.06209627       1.41278146      -0.45468868       2.75780607      -0.26369573
C       -0.05631332      -0.70478896       2.71743111      -0.45814800       1.97591481       0.22869525
C       -0.22608207       0.62061956       2.41939430       0.37710228      -0.89668582      -0.30911721
C        4.28440626       0.45180869      -1.26798959      -0.60516986      -0.07476542       0.27968575
C        4.74488504      -0.85830632      -1.36701389       0.85100800       0.83578294      -0.44617740
C        3.20369012      -1.55982497       0.28218369      -0.60428486       2.04361024       0.40481222
C        3.24922998       0.78318080      -0.37261255       0.03951766       0.37147023       0.06612330
C        2.70397408      -0.21797613       0.44408010      -0.52915738      -1.70024073       0.54506923
C        4.24370820      -1.85823051      -0.55851765      -0.64450412      -0.42610545      -0.07106437
N        4.69321592      -3.16657487      -0.59432764       0.59020713      -0.91708043      -0.47766475
C       -4.20883515       4.39596506      -0.36828282       0.83362031      -0.23113998      -0.77238717
C       -0.87567190      -1.59728185       3.53899340       0.25109002      -1.56235097      -0.07971715
C       -1.90463845       2.30131289       1.57625918       0.75740936       0.88843248      -0.35482090
C       -1.28539459       1.57502242       2.80066912      -0.71302370       0.39549996      -0.51275689
H        4.66438706       1.24307850      -1.90953488       0.02250402      -0.29720166       0.16672771
H        5.54483659      -1.11800590      -2.06073113      -0.21777521       0.27475454       0.06278152
H        2.79424913      -2.38737098       0.81298218      -0.47714131      -0.08231623       0.62836772
H        5.41433580      -3.37639204      -1.28798671      -0.74596551      -0.02120104       0.48789939
H        4.02310069      -3.92232695      -0.40119548       0.73150789       0.85908962      -0.28520021
H       -4.43136123       3.59142108      -1.10009468       0.35153432      -0.05896287       1.18151407
H       -5.10513547       4.98246236      -0.21747821       0.00951428      -0.10980585       0.89738921
H       -3.40618065       5.03698058      -0.81576121      -0.31031555      -0.73979291       1.20741528
H       -1.77601044      -1.10657588       3.91316012       0.33588882      -0.02258186      -0.07692582
H       -0.26265775      -1.97520438       4.35790710      -0.25117156       0.07163655       0.29600428
H       -1.17102055      -2.50949756       2.97566823       0.00846991       0.60838934       0.22304383
H       -2.16889898       1.59162959       0.78548230      -0.11699747       0.14812664       0.32634895
H       -1.14288013       3.01289924       1.15549449      -0.79165363      -0.77729575       0.40331313
H       -0.86565773       2.34858640       3.44349913      -0.17699181      -0.17979800       0.25957398
H       -2.09130136       1.03251555       3.28490404       0.02439313       0.10690600       0.42304770
