33
Properties=species:S:1:pos:R:3:forces:R:3 id=29846 bond=C-S smiles="[H:20][c:9]1[c:8]([c:11]([c:12]([c:10]([c:13]1[N:14]([H:22])[H:23])[H:21])[C:5]2=[N:2][C:7](=[C:6]([O:3]2)[C:16]([H:27])([H:28])[H:29])[C:18]([H:32])([H:33])[C:17]([H:30])([H:31])[S:4][C:15]([H:24])([H:25])[H:26])[Cl:1])[H:19]" dataset=PubChem energy=-42126.57326280585 pbc="F F F"
Cl       2.54613402       2.68013834      -0.77844463       0.47561025      -1.27260588      -0.00747642
N        0.64218400       1.21696078       1.15921857       1.77659289      -1.79435123      -0.87339888
O        0.98208642      -0.90300501       1.73850931       0.01141733      -0.81223780      -0.87096181
S       -3.50381014       3.45407175       1.73883714      -0.15835930       0.36551392      -1.96405681
C        1.41018810       0.13056373       0.98177965      -0.45163624       2.74914395      -0.26249130
C       -0.20052299      -0.51212896       2.28642930      -0.45211369       1.98496360       0.22853370
C       -0.37029174       0.81327956       1.98839249       0.36442765      -0.90148956      -0.26532251
C        4.14019659       0.64446869      -1.69899140      -0.60499952      -0.07420579       0.27963343
C        4.60067537      -0.66564632      -1.79801570       0.85114192       0.83646441      -0.44661087
C        3.05948045      -1.36716497      -0.14881812      -0.60455669       2.04406600       0.40523093
C        3.10502031       0.97584080      -0.80361436       0.04069942       0.36817387       0.06659067
C        2.55976441      -0.02531613       0.01307829      -0.53025173      -1.70082159       0.54546011
C        4.09949853      -1.66557051      -0.98951946      -0.64397591      -0.42708834      -0.07126440
N        4.54900625      -2.97391487      -1.02532945       0.59006247      -0.91657619      -0.47793017
C       -4.06462548       4.20330506       0.06271899       1.22440846      -0.69987434       0.13378047
C       -1.01988157      -1.40462185       3.10799159       0.25191884      -1.56290013      -0.07974619
C       -2.04884812       2.49397289       1.14525737       0.80755847       0.77558730      -0.02812383
C       -1.42960426       1.76768242       2.36966731      -0.68552919       0.38714556      -0.67555575
H        4.52017739       1.43573850      -2.34053669       0.02253997      -0.29728543       0.16655180
H        5.40062692      -0.92534590      -2.49173294      -0.21796066       0.27490377       0.06276444
H        2.65003946      -2.19471098       0.38198037      -0.47721414      -0.08208969       0.62839027
H        5.27012613      -3.18373204      -1.71898852      -0.74592951      -0.02128096       0.48783354
H        3.87889102      -3.72966695      -0.83219729       0.73153596       0.85904334      -0.28527751
H       -4.28715156       3.39876108      -0.66909287       0.13401562       0.37403913       0.66672290
H       -4.96092580       4.78980236       0.21352360      -0.03442067       0.05222316       0.24326845
H       -3.26197098       4.84432058      -0.38475940      -0.66722443      -0.54055064       0.65818436
H       -1.92022011      -0.91391588       3.48215831       0.33602009      -0.02217437      -0.07626612
H       -0.40686742      -1.78254438       3.92690529      -0.25189736       0.07132424       0.29637396
H       -1.31523022      -2.31683756       2.54466642       0.00819356       0.60726539       0.22350788
H       -2.31310865       1.78428959       0.35448049      -0.15210199       0.14997118       0.26295183
H       -1.28708980       3.20555924       0.72449268      -0.78733690      -0.72749657       0.35455053
H       -1.00986740       2.54124640       3.01249732      -0.17863571      -0.17385531       0.26159262
H       -2.23551103       1.22517555       2.85390223       0.01774934       0.12238567       0.41025646
