33
Properties=species:S:1:pos:R:3:forces:R:3 id=29846 bond=C-S smiles="[H:20][c:9]1[c:8]([c:11]([c:12]([c:10]([c:13]1[N:14]([H:22])[H:23])[H:21])[C:5]2=[N:2][C:7](=[C:6]([O:3]2)[C:16]([H:27])([H:28])[H:29])[C:18]([H:32])([H:33])[C:17]([H:30])([H:31])[S:4][C:15]([H:24])([H:25])[H:26])[Cl:1])[H:19]" dataset=PubChem energy=-42123.08742080323 pbc="F F F"
Cl       2.69835533       2.47677501      -0.32349828       0.47647792      -1.27486620      -0.00750842
N        0.79440531       1.01359745       1.61416492       1.77660877      -1.79789015      -0.87287817
O        1.13430773      -1.10636834       2.19345566       0.00392692      -0.81300012      -0.85976258
S       -3.35158883       3.25070842       2.19378349      -0.30215397       0.59170951      -2.60937315
C        1.56240941      -0.07279960       1.43672600      -0.45472235       2.75822376      -0.26392310
C       -0.04830168      -0.71549229       2.74137565      -0.45839844       1.97537028       0.22866198
C       -0.21807043       0.60991623       2.44333884       0.37777585      -0.89633498      -0.31079056
C        4.29241790       0.44110536      -1.24404505      -0.60520531      -0.07479202       0.27970313
C        4.75289668      -0.86900965      -1.34306935       0.85100863       0.83573062      -0.44617420
C        3.21170176      -1.57052830       0.30612823      -0.60424995       2.04360039       0.40475895
C        3.25724162       0.77247747      -0.34866801       0.03955624       0.37164944       0.06613667
C        2.71198572      -0.22867946       0.46802464      -0.52917414      -1.70022979       0.54517251
C        4.25171984      -1.86893384      -0.53457311      -0.64456625      -0.42607534      -0.07105456
N        4.70122756      -3.17727820      -0.57038310       0.59023200      -0.91710220      -0.47761397
C       -4.21684679       4.40666839      -0.39222736       0.78699638      -0.17105071      -0.90188619
C       -0.86766026      -1.60798518       3.56293794       0.25104211      -1.56231237      -0.07972523
C       -1.89662681       2.29060956       1.60020372       0.74844788       0.89559515      -0.35624203
C       -1.27738295       1.56431909       2.82461366      -0.71039381       0.39272569      -0.50493101
H        4.67239870       1.23237517      -1.88559034       0.02249728      -0.29719617       0.16673499
H        5.55284823      -1.12870923      -2.03678659      -0.21776690       0.27474816       0.06278498
H        2.80226077      -2.39807431       0.83692672      -0.47713258      -0.08232698       0.62836471
H        5.42234744      -3.38709537      -1.26404217      -0.74596829      -0.02119525       0.48790011
H        4.03111233      -3.93303028      -0.37725094       0.73150381       0.85908649      -0.28519004
H       -4.43937287       3.60212441      -1.12403922       0.35505171      -0.07039231       1.18904049
H       -5.11314711       4.99316569      -0.24142275       0.00725681      -0.11128659       0.91287385
H       -3.41419229       5.04768391      -0.83970575      -0.30029103      -0.74136596       1.21658555
H       -1.76799880      -1.11727921       3.93710466       0.33588764      -0.02259513      -0.07694771
H       -0.25464611      -1.98590771       4.38185164      -0.25113905       0.07165050       0.29598976
H       -1.16300891      -2.52020089       2.99961277       0.00849749       0.60842776       0.22301621
H       -2.16088734       1.58092626       0.80942684      -0.11756341       0.14745433       0.32759099
H       -1.13486849       3.00219591       1.17943903      -0.79144390      -0.77698288       0.40478761
H       -0.85764609       2.33788307       3.46744367      -0.17731281      -0.18021801       0.25898128
H       -2.08328972       1.02181222       3.30884858       0.02513514       0.10679309       0.42314518
