33
Properties=species:S:1:pos:R:3:forces:R:3 id=29846 bond=C-S smiles="[H:20][c:9]1[c:8]([c:11]([c:12]([c:10]([c:13]1[N:14]([H:22])[H:23])[H:21])[C:5]2=[N:2][C:7](=[C:6]([O:3]2)[C:16]([H:27])([H:28])[H:29])[C:18]([H:32])([H:33])[C:17]([H:30])([H:31])[S:4][C:15]([H:24])([H:25])[H:26])[Cl:1])[H:19]" dataset=PubChem energy=-42106.26263119187 pbc="F F F"
Cl       2.42595931       2.84068833      -1.13761281       0.47518787      -1.26946773      -0.01006879
N        0.52200929       1.37751077       0.80005039       1.77625745      -1.80314009      -0.87771370
O        0.86191171      -0.74245502       1.37934113       0.05375587      -0.84071009      -0.90441704
S       -3.62398485       3.61462174       1.37966896      31.46399244     -41.56480018      90.81403393
C        1.29001339       0.29111372       0.62261147      -0.44918938       2.73080135      -0.25077001
C       -0.32069770      -0.35157897       1.92726112      -0.43784720       2.00552216       0.21980089
C       -0.49046645       0.97382955       1.62922431       0.35615934      -0.92165654      -0.13321515
C        4.02002188       0.80501868      -2.05815958      -0.60682926      -0.07226567       0.28041589
C        4.48050066      -0.50509633      -2.15718388       0.85309425       0.83297640      -0.44792255
C        2.93930574      -1.20661498      -0.50798630      -0.59933805       2.04370917       0.40058969
C        2.98484560       1.13639079      -1.16278254       0.04615017       0.36235540       0.06580182
C        2.43958970       0.13523386      -0.34608989      -0.53889088      -1.69983243       0.55264147
C        3.97932382      -1.50502052      -1.34868764      -0.64786634      -0.41799219      -0.07067315
N        4.42883154      -2.81336488      -1.38449763       0.59426882      -0.92352163      -0.47663758
C       -3.94445077       4.04275507       0.42188717     -29.24286205      39.08491008     -87.13251578
C       -1.14005628      -1.24407186       2.74882341       0.25464480      -1.56153130      -0.08052707
C       -2.16902283       2.65452288       0.78608919       1.17366749       0.11238189       1.94750284
C       -1.54977897       1.92823241       2.01049913      -0.34714357       0.16525860      -0.83835328
H        4.40000268       1.59628849      -2.69970487       0.02282458      -0.29712970       0.16599609
H        5.28045221      -0.76479591      -2.85090112      -0.21710459       0.27463251       0.06231500
H        2.52986475      -2.03416099       0.02281219      -0.47833294      -0.08077737       0.62903225
H        5.14995142      -3.02318205      -2.07815670      -0.74661862      -0.02094619       0.48750852
H        3.75871631      -3.56911696      -1.19136547       0.73093746       0.85989695      -0.28566321
H       -4.16697685       3.23821109      -0.30992469      -0.91949936       0.87777221      -2.23991769
H       -4.84075109       4.62925237       0.57269178      -0.48780689       0.68710810      -1.13715903
H       -3.14179627       4.68377059      -0.02559122      -0.78453253       1.05092756      -2.02058611
H       -2.04039482      -0.75336589       3.12299013       0.33814863      -0.01809159      -0.07683953
H       -0.52704213      -1.62199439       3.56773711      -0.25277175       0.06872523       0.29953857
H       -1.43540493      -2.15628757       2.18549824       0.00652830       0.60119776       0.22339626
H       -2.43328336       1.94483958      -0.00468769      -0.42363356       0.16385818       0.01450066
H       -1.40726451       3.36610923       0.36532450      -0.82393921      -0.39527945       0.19103583
H       -1.13004211       2.70179639       2.65332914      -0.17572669      -0.19825057       0.24014064
H       -2.35568574       1.38572554       2.49473405       0.03341094       0.15684526       0.37977382
