28
Properties=species:S:1:pos:R:3:forces:R:3 id=46171 bond=C-P smiles="[H:12][C:1]1=[C:3]([C:4](=[C:2]([P:5]1[C:11]([C:8]([H:20])([H:21])[H:22])([C:9]([H:23])([H:24])[H:25])[C:10]([H:26])([H:27])[H:28])[H:13])[C:7]([H:17])([H:18])[H:19])[C:6]([H:14])([H:15])[H:16]" dataset=PubChem energy=-19940.651310215475 pbc="F F F"
C       -0.81406156      -0.61775724       1.23021940       0.55762178       0.59368331      -0.22829742
C        0.08707354      -0.27293704      -1.21491810      -0.44733403       0.21189458       0.36735882
C       -1.56747881      -1.23240820       0.26325330       1.31574596       0.33343768      -1.42490786
C       -1.07000093      -1.02578477      -1.10429510      -0.82859036      -0.57891390       0.59979252
P        0.43543809       0.27344509       0.40993765       1.72478293       1.59833715       0.64842585
C       -2.73381857      -2.07844035       0.57110550      -0.18093479      -0.37206804       0.24415445
C       -1.85728136      -1.60293023      -2.28251001       0.30681170      -0.38328780       0.89267310
C        2.54331954       3.49157973       0.60750616      -0.95210674      -1.50951166      -0.23797183
C        3.82913192       1.50546339       1.50942106      -1.11367936      -2.48900669      -0.93805608
C        2.10285469       2.65998729       2.91503024      -1.69068712      -2.32312170      -0.48067375
C        2.47378799       2.18545159       1.48542047       1.40323914       3.00809109       0.65018737
H       -0.97585622      -0.62866597       2.29419354      -0.07522023      -0.03858189      -0.01777982
H        0.56122377       0.01747368      -2.15207096      -0.13347333      -0.08578033       0.48865085
H       -2.56290487      -3.10119931       0.23787763      -0.04608300      -0.14794761       0.10261199
H       -2.92971758      -2.07817689       1.65338460      -0.15654093      -0.02626520      -0.48770409
H       -3.57785133      -1.71366183       0.00652430      -0.60704420       0.02671162       0.10908161
H       -1.45806317      -1.27537386      -3.23139306       0.05983890       0.16924394      -0.18032886
H       -2.90841679      -1.28605406      -2.19515367       0.32979330      -0.28074502      -0.20505692
H       -1.79323462      -2.71410290      -2.26498028      -0.27880937       0.66577707      -0.03583668
H        1.63154855       4.07851359       0.70282643      -0.03352589      -0.18142802      -0.13792193
H        2.72836407       3.26015993      -0.44321989       0.03567249       0.13739261       0.15796820
H        3.35514816       4.12165018       0.99656109      -0.02916346      -0.43909400       0.04315932
H        4.07493123       1.01359109       0.53996343      -0.17564956       0.52320640       0.63820191
H        3.81377133       0.69661103       2.25844551       0.17934815       0.38137968      -0.23054304
H        4.61612280       2.20492526       1.74494195       0.02403946       0.46007183       0.13202869
H        1.72307780       1.77829459       3.47740054       0.21478233       0.62954768      -0.15592159
H        2.97529872       2.99672338       3.45084262       0.51664216       0.17294119      -0.15456130
H        1.32971068       3.42438694       2.93654419       0.08221178      -0.05549413      -0.15928783
