28
Properties=species:S:1:pos:R:3:forces:R:3 id=46171 bond=C-P smiles="[H:12][C:1]1=[C:3]([C:4](=[C:2]([P:5]1[C:11]([C:8]([H:20])([H:21])[H:22])([C:9]([H:23])([H:24])[H:25])[C:10]([H:26])([H:27])[H:28])[H:13])[C:7]([H:17])([H:18])[H:19])[C:6]([H:14])([H:15])[H:16]" dataset=PubChem energy=-19943.82705202886 pbc="F F F"
C       -0.41771575      -0.24597820       1.43934106       0.75014545       1.03971812      -0.19221541
C        0.48341935       0.09884200      -1.00579644      -0.26204605       0.65100205       0.54344756
C       -1.17113300      -0.86062916       0.47237496       1.32850674       0.32912986      -1.43445235
C       -0.67365512      -0.65400573      -0.89517344      -0.84783569      -0.57238169       0.63126797
P        0.83178390       0.64522413       0.61905931      -0.62539308      -0.54420036      -0.26670320
C       -2.33747276      -1.70666131       0.78022716      -0.12184891      -0.39826477       0.24813345
C       -1.46093555      -1.23115119      -2.07338835       0.37320443      -0.41586128       0.91283642
C        2.14697373       3.11980069       0.39838450       0.12461564      -0.61407473       0.32451607
C        3.43278611       1.13368435       1.30029940       0.22510049      -1.29022309      -0.42607120
C        1.70650888       2.28820825       2.70590858      -0.81472339      -1.72855791       0.07628934
C        2.07744218       1.81367255       1.27629881       0.18563850       1.73807167      -0.18949611
H       -0.57951041      -0.25688693       2.50331520      -0.11038317      -0.05840973      -0.02419294
H        0.95756958       0.38925272      -1.94294930      -0.15745080      -0.10372867       0.46700485
H       -2.16655906      -2.72942027       0.44699929      -0.05629569      -0.14191602       0.10581757
H       -2.53337177      -1.70639785       1.86250626      -0.15653855      -0.02528208      -0.49386585
H       -3.18150552      -1.34188279       0.21564596      -0.58643869       0.03164488       0.11160966
H       -1.06171736      -0.90359482      -3.02227140       0.05761542       0.16828378      -0.17524295
H       -2.51207098      -0.91427502      -1.98603201       0.34934491      -0.27636130      -0.18935026
H       -1.39688881      -2.34232386      -2.05585862      -0.28468435       0.67498160      -0.03903686
H        1.23520274       3.70673455       0.49370477      -0.08286556      -0.22192444      -0.14001939
H        2.33201826       2.88838089      -0.65234155       0.01135221       0.11045164       0.11849026
H        2.95880235       3.74987114       0.78743943      -0.07187565      -0.26647406      -0.17854577
H        3.67858542       0.64181205       0.33084177      -0.20915547       0.48601103       0.61970999
H        3.41742552       0.32483199       2.04932385       0.12837531       0.34037685      -0.23212538
H        4.21977699       1.83314622       1.53582029       0.25076917       0.25725914       0.16042028
H        1.32673199       1.40651555       3.26827888       0.18574197       0.61665923      -0.12473620
H        2.57895291       2.62494434       3.24172096       0.36337911       0.26287533      -0.05395798
H        0.93336487       3.05260790       2.72742253       0.05594654      -0.04769548      -0.15960240
