28
Properties=species:S:1:pos:R:3:forces:R:3 id=46171 bond=C-P smiles="[H:12][C:1]1=[C:3]([C:4](=[C:2]([P:5]1[C:11]([C:8]([H:20])([H:21])[H:22])([C:9]([H:23])([H:24])[H:25])[C:10]([H:26])([H:27])[H:28])[H:13])[C:7]([H:17])([H:18])[H:19])[C:6]([H:14])([H:15])[H:16]" dataset=PubChem energy=-19920.712513904527 pbc="F F F"
C       -0.16292201      -0.00697739       1.57377641       1.09694670       1.10093944      -0.81602823
C        0.73821309       0.33784281      -0.87136109      -0.00768215       0.68148796       1.15187907
C       -0.91633926      -0.62162835       0.60681031       0.89771597      -0.16192315      -2.19824971
C       -0.41886138      -0.41500492      -0.76073809      -1.58361904      -1.12400404       0.96892110
P        1.08657764       0.88422494       0.75349466     -79.22341233     -72.53766962     -40.69690460
C       -2.08267902      -1.46766050       0.91466251      -0.11163439      -0.37960276       0.13490389
C       -1.20614181      -0.99215038      -1.93895300       0.33991081      -0.38689930       0.98835859
C        1.89217999       2.88079988       0.26394915       1.57331527       1.54577966       0.30679735
C        3.17799237       0.89468354       1.16586405       3.11278861      -0.47761027       0.23040277
C        1.45171514       2.04920744       2.57147323       0.18983672      -0.58371657       1.55810719
C        1.82264844       1.57467174       1.14186346      74.33700124      70.79718698      39.08021809
H       -0.32471667      -0.01788612       2.63775055      -0.30904430      -0.18056363      -0.08181063
H        1.21236332       0.62825353      -1.80851395      -0.20544947      -0.12024826       0.33842982
H       -1.91176532      -2.49041946       0.58143464      -0.09676488      -0.19874840       0.11759063
H       -2.27857803      -1.46739704       1.99694161      -0.16557921      -0.02686225      -0.46756717
H       -2.92671178      -1.10288198       0.35008131      -0.64829135       0.00505352       0.10899406
H       -0.80692362      -0.66459401      -2.88783605       0.06418939       0.17314412      -0.20045750
H       -2.25727724      -0.67527421      -1.85159666       0.31240520      -0.29668519      -0.21007617
H       -1.14209507      -2.10332305      -1.92142327      -0.29822342       0.64284281      -0.06085006
H        0.98040900       3.46773374       0.35926942      -0.13282615      -0.48980810      -0.01554124
H        2.07722452       2.64938008      -0.78677690      -0.06349696      -0.12251358       0.34060324
H        2.70400861       3.51087033       0.65300408      -0.01861563      -0.10520637      -0.25644148
H        3.42379168       0.40281124       0.19640642      -0.45941864       0.57467253       0.63849018
H        3.16263178       0.08583118       1.91488850      -0.11976010       0.44281577      -0.25813618
H        3.96498325       1.59414541       1.40138494       0.57199040       0.22668084       0.18691256
H        1.07193825       1.16751474       3.13384353       0.41724404       0.82341372      -0.37705034
H        2.32415917       2.38594353       3.10728561       0.40773342       0.32197196      -0.10431956
H        0.67857113       2.81360709       2.59298718       0.11945613      -0.14835178      -0.40927594
