20
Properties=species:S:1:pos:R:3:forces:R:3 id=2793 bond=N-N smiles="[H:9][C:1](=[C:3]([H:13])[C:7]([H:17])([H:18])[N:6]([C:8]([H:19])([H:20])[C:4](=[C:2]([H:11])[H:12])[H:14])[N:5]([H:15])[H:16])[H:10]" dataset=PubChem energy=-9392.851999228144 pbc="F F F"
C        0.34341398      -1.53311205      -1.68293402       1.34777576      -0.60906087       2.47677488
C       -0.43621484       3.27495265       0.58534694      -1.07203552      -4.18761195       2.25496185
C        1.10730329      -1.44365263      -0.54885814      -3.37467140      -1.98273546      -1.40097034
C       -0.49368349       2.11447835       1.36207219      -0.61724395       1.96364454      -1.09047030
N        0.80592923      -0.72726317       2.02579727       4.68564399     -37.24488593      34.89648793
N        0.75157958       0.00695491       1.36438211      -2.60197545      37.98838194     -35.01774492
C        1.48602118      -0.18656456       0.09986724       1.46814510       1.27366337      -1.32519008
C        0.76379151       1.42869890       1.94214000      -2.32636699       0.84805723      -2.58313104
H        0.03900864      -0.67989504      -2.18628023      -0.09361292       1.65780558      -1.13987830
H       -0.14242235      -2.43304419      -2.03683732       0.39441210      -0.24205775       0.26308048
H        0.55420739       3.49557018       0.36003469       1.40054545       1.24998332      -0.50899222
H       -1.27944127       3.76090407       0.11855235       0.05919729      -0.06619500       0.09065781
H        0.99453106      -2.34200406       0.06653287       1.06311394       0.15879071      -0.06275405
H       -1.48175040       1.56636166       1.57572784       1.60423849       1.05649305      -0.21236925
H        0.01283188      -0.99527593       2.52084448      -1.92861267      -1.52072468       1.89208187
H        1.60119553      -0.55922182       2.69885495       0.41005245      -1.87835062       1.53361928
H        1.14402553       0.56486130      -0.55194483      -0.04959884       1.30070927      -0.93062529
H        2.63468608      -0.11585760       0.10227038      -1.23705156       0.06823275       0.87962766
H        0.65008268       1.40696978       3.02221419       0.28547810      -0.57595478       0.03289963
H        1.68399068       1.87844336       1.63864805       0.58315847       0.74252790      -0.04766471
