20
Properties=species:S:1:pos:R:3:forces:R:3 id=2793 bond=N-N smiles="[H:9][C:1](=[C:3]([H:13])[C:7]([H:17])([H:18])[N:6]([C:8]([H:19])([H:20])[C:4](=[C:2]([H:11])[H:12])[H:14])[N:5]([H:15])[H:16])[H:10]" dataset=PubChem energy=-9399.305442700324 pbc="F F F"
C        0.32450976      -1.27773184      -1.91299146       1.40100389      -0.56892874       2.47512910
C       -0.45511906       3.53033286       0.35528950      -0.94939902      -4.24135826       2.29843141
C        1.08839907      -1.18827242      -0.77891558      -3.43524546      -2.18601245      -1.56078876
C       -0.51258771       2.36985856       1.13201475      -0.89677563       1.74134485      -1.26104410
N        0.82483345      -0.98264338       2.25585471       4.43304223       2.80851752      -2.91164505
N        0.73267536       0.26233512       1.13432467      -0.84320534      -1.54452241       3.34618315
C        1.46711696       0.06881565      -0.13019020       1.82275429      -0.64679373       1.31262712
C        0.74488729       1.68407911       1.71208256      -1.73042332      -1.88323963      -1.31561492
H        0.02010442      -0.42451483      -2.41633767      -0.13071897       1.66558665      -1.13275868
H       -0.16132657      -2.17766398      -2.26689476       0.40468966      -0.23361611       0.25929872
H        0.53530317       3.75095039       0.12997725       1.41099540       1.24315786      -0.54692868
H       -1.29834549       4.01628428      -0.11150509       0.06062044      -0.04398490       0.14210193
H        0.97562684      -2.08662385      -0.16352457       1.09330378       0.23923445      -0.04924373
H       -1.50065462       1.82174187       1.34567040       1.67363007       1.03680452      -0.21396297
H        0.03173610      -1.25065614       2.75090192      -2.12155477       0.56114132       0.34619350
H        1.62009975      -0.81460203       2.92891239      -1.33001434       0.07951775      -1.22962131
H        1.12512131       0.82024151      -0.78200227      -0.37059184       1.40540207      -0.54641022
H        2.61578186       0.13952261      -0.12778706      -1.30970863       0.07866224       0.61438989
H        0.63117846       1.66234999       2.79215675       0.29704247      -0.24636888      -0.02433912
H        1.66508646       2.13382357       1.40859061       0.52072798       0.73633337      -0.00211277
