46
Properties=species:S:1:pos:R:3:forces:R:3 id=16801 bond=C-N smiles="[H:23][c:2]1[c:4]([c:8]([c:12]([c:9]([c:5]1[H:26])[H:30])[C:20]([c:13]2[c:10]([c:6]([c:3]([c:7]([c:11]2[H:32])[H:28])[H:24])[H:27])[H:31])([C:18]([H:43])([H:44])[C:21]([H:46])([C:16]([H:38])([H:39])[H:40])[N:14]([H:33])[H:34])[C:19]([H:45])([C:17]([H:41])([H:42])[C:15]([H:35])([H:36])[H:37])[O:1][H:22])[H:29])[H:25]" dataset=PubChem energy=-23663.79765827238 pbc="F F F"
O       -0.34016300      -1.88610616      -0.40517544       0.44440253       0.13796427       0.08167807
C       -2.30420447       0.29973479       3.85561115       0.59089696       0.04077365      -0.16857549
C       -0.87592674       2.34803257      -3.00896327       0.25158307      -0.29334914       0.77087838
C       -2.73517657       0.29326171       2.52636631      -0.05517053      -0.65514850      -0.09735532
C       -0.93233658       0.28277478       4.09153230       0.75401053       0.19358141      -0.62829092
C       -0.36646677       1.06024090      -3.11350791       0.75736317      -0.07230390       0.00844138
C       -0.88465572       2.94032416      -1.74045770      -0.82164222       0.72954659      -0.41879309
C       -1.81008173       0.20582796       1.44879598      -0.11696463       0.56419629       1.56622615
C        0.00966369       0.29748919       3.03721435      -0.95205379       0.13168748       0.52237529
C        0.17966463       0.42175377      -2.00615351      -0.16024020      -0.18356913       0.62795248
C       -0.41124601       2.26946387      -0.61822813      -0.21784601       0.01005440       0.65688580
C       -0.41955925       0.31108833       1.70330412      -0.31486868      -0.65811365      -0.19051591
C        0.14000546       0.97835389      -0.70708137      -0.67275014      -0.19520070      -0.75822289
N        2.38984662       3.15755672       0.26131338      -0.37820136       0.48898096      -1.97581349
C        2.07664393      -3.37939467      -0.68044536      -0.17826253       1.05414464       1.44010476
C        3.03177928       2.66163048       2.40040762       0.30504194      -1.78213779       0.53548512
C        2.11925577      -1.84477558      -0.41002111      -0.52477518      -0.03926773       0.13062587
C        1.99879109       0.84433300       0.92107512      -0.10739716      -0.38118309       1.14155837
C        0.79758017      -1.32406297       0.26858563       0.45794997      -0.84011158      -0.27873779
C        0.59872890       0.20641506       0.54835544       1.11409626       0.61369860      -0.40536795
C        1.99302386       2.32848582       1.35085173       0.46235478      -0.07339760       0.51936910
H       -1.11978532      -1.61836352       0.08637149       0.02005005      -0.11699390       0.01255617
H       -2.99439621       0.27794770       4.70999128       0.23867422       0.13277840      -0.64614422
H       -1.25269771       2.88580618      -3.85643451      -0.17105715       0.05452728      -0.23199280
H       -3.82883263       0.25919894       2.40385063       0.71168490       0.01150371      -0.50120723
H       -0.53037394       0.30220056       5.09488232      -0.17896056      -0.11105419       0.08822712
H       -0.27431781       0.48370054      -4.03387086      -0.34356901       0.56584904      -0.02364106
H       -1.39096046       3.93396792      -1.64274041       0.77292553      -0.96976964       0.07363142
H       -2.18142916       0.06852657       0.44492746       0.00439220       0.38126731      -0.10280362
H        1.06363796       0.28515360       3.31544144      -0.35636463       0.10077096      -0.31117926
H        0.55954744      -0.57875826      -2.19125573      -0.08603252       0.33609013       0.34560963
H       -0.51286781       2.76812515       0.36438213       0.06037588      -0.48901406      -0.74554261
H        1.73951750       3.06767387      -0.52821281       0.56000116       0.48427507       0.50863496
H        2.51232605       4.12515515       0.54438675      -0.26965005      -0.26503296      -0.27267094
H        1.84935104      -3.93868222       0.26073549       0.03231468       0.43012235      -0.80860657
H        3.04102372      -3.70656504      -1.03321092       0.21736337      -0.13717069      -0.24256500
H        1.31107735      -3.53463235      -1.40706532      -0.40279191      -0.56552088      -0.41729294
H        2.83248352       2.10292778       3.30493052       0.02462280      -0.24018151       0.35499537
H        2.99714827       3.68460045       2.68871720       0.09001265       0.94998423      -0.04384897
H        4.03320168       2.37275955       2.04688294      -0.33700606       0.30509200       0.08702446
H        2.92831921      -1.64832678       0.29258043      -0.04421931       0.15898819      -0.04028328
H        2.36823558      -1.32289293      -1.33578126      -0.11714358       0.00038762       0.09460474
H        2.65006923       0.80283881       0.05915727       0.05063793      -0.24098847      -0.19414259
H        2.50229620       0.26496423       1.73428435      -0.50716858       0.21792315      -0.66592482
H        0.86786278      -1.82769646       1.22898133      -0.16599095       0.22761935       0.47417853
H        1.02696513       2.59078178       1.76367934      -0.43989492      -0.01285295       0.12941294
