20
Properties=species:S:1:pos:R:3:forces:R:3 id=10960 bond=C-O smiles="[H:13][C:5]1=[C:6]([C:10]([O:4][C:9]1([C:7]([H:15])([H:16])[H:17])[O:2][H:12])([C:8]([H:18])([H:19])[H:20])[O:3][O:1][H:11])[H:14]" dataset=PubChem energy=-14547.77640563215 pbc="F F F"
O        2.83606289      -0.23461885       1.05958528       8.50803673      -2.01686304       1.12737277
O        1.03654877      -1.02277947      -1.14061626       0.72609941      -0.98775946      -0.16200560
O        1.56590376      -0.35646350       1.73238349     116.02456497    -152.12183521      22.16620189
O        1.21738169       0.75830850       0.29133932      -4.01272682       5.45106907      -6.37671088
C       -0.70938568      -0.42749191       0.30279551      -0.08432923       0.36331567       3.24777907
C       -0.32833832      -0.26727599       1.61626974      -5.80512250      -0.41442677      -2.40387348
C       -0.13155859       1.01693928      -1.69695219       0.62567529      -0.18070596       0.05865794
C        1.33866669       1.33752763       2.68662612      -1.13314299       4.92219706       1.25115964
C        0.35381854       0.08123362      -0.59956571       0.33657333       0.52148644       0.31250332
C        1.09064684       0.24719592       1.63416520    -113.85465188     144.04451319     -19.40822284
H        2.70949242       0.40018006       0.30719519      -0.95974243      -0.42878915       1.10663847
H        1.43548245      -1.56489730      -0.41139700      -0.70497986       0.89580838      -1.03219948
H       -1.62857239      -0.86140013      -0.08842446       0.30774050      -0.03624254       0.32680224
H       -0.87861865      -0.59456295       2.49905936       0.35026991       0.15182719      -0.23412602
H       -0.62864082       1.87601518      -1.23089965       0.07331992      -0.34830890      -0.23446046
H        0.72037538       1.36484646      -2.29659589      -0.21155674      -0.07373061       0.28656780
H       -0.78910535       0.46618778      -2.35723742      -0.28491175       0.07036548      -0.09065270
H        0.96255526       0.95440506       3.64513222      -0.03963498       0.09612772      -0.34719511
H        0.84594381       2.26753509       2.40640763      -0.04006473       0.23358928       0.58245405
H        2.39448375       1.54857492       2.80904881       0.18311570      -0.14350085      -0.17376746
