20
Properties=species:S:1:pos:R:3:forces:R:3 id=10960 bond=C-O smiles="[H:13][C:5]1=[C:6]([C:10]([O:4][C:9]1([C:7]([H:15])([H:16])[H:17])[O:2][H:12])([C:8]([H:18])([H:19])[H:20])[O:3][O:1][H:11])[H:14]" dataset=PubChem energy=-14567.68715901974 pbc="F F F"
O        2.88226842      -0.29330796       1.06913429       4.38562059      -0.95605632       1.03166842
O        0.99034324      -0.96409036      -1.15016527       0.74300392      -0.91453893      -0.15738660
O        1.61210929      -0.41515261       1.74193250      47.14346925     -62.42846660       7.86058009
O        1.17117616       0.81699761       0.28179031      -1.91726240       3.56353135      -3.17579471
C       -0.75559121      -0.36880280       0.29324650      -0.24450072       0.36655594       3.19774490
C       -0.37454385      -0.20858688       1.60672073      -3.83548480      -0.56432482      -2.46346234
C       -0.17776412       1.07562839      -1.70650120       0.70169991      -0.12660619       0.10362483
C        1.29246116       1.39621674       2.67707711      -0.98901509       2.95907644       0.29569459
C        0.30761301       0.13992273      -0.60911472       0.18292884       0.11538053       0.33213973
C        1.04444131       0.30588503       1.62461619     -44.77888547      57.58377695      -6.98318455
H        2.75569795       0.34149095       0.31674420      -0.97654811      -0.46392372       0.98367011
H        1.38927692      -1.50620819      -0.42094601      -0.74122583       0.88024419      -0.99615902
H       -1.67477792      -0.80271102      -0.09797347       0.30420948       0.03109277       0.30104820
H       -0.92482418      -0.53587384       2.48951035       0.30662439       0.14504702      -0.29188129
H       -0.67484635       1.93470429      -1.24044866       0.06709067      -0.34617347      -0.23816184
H        0.67416985       1.42353557      -2.30614490      -0.21447227      -0.06793548       0.27528999
H       -0.83531088       0.52487689      -2.36678643      -0.26717496       0.05978892      -0.06236491
H        0.91634973       1.01309417       3.63558321      -0.00400591       0.15717145      -0.32894328
H        0.79973828       2.32622420       2.39685862      -0.07271076       0.14426058       0.48107268
H        2.34827822       1.60726403       2.79949980       0.20520463      -0.13616213      -0.16352363
