20
Properties=species:S:1:pos:R:3:forces:R:3 id=10960 bond=C-O smiles="[H:13][C:5]1=[C:6]([C:10]([O:4][C:9]1([C:7]([H:15])([H:16])[H:17])[O:2][H:12])([C:8]([H:18])([H:19])[H:20])[O:3][O:1][H:11])[H:14]" dataset=PubChem energy=-14579.572842173526 pbc="F F F"
O        3.06709055      -0.52806440       1.10733029      -0.08931637       1.03799807      -0.35431659
O        0.80552111      -0.72933392      -1.18836127       0.64331639      -0.71079613      -0.08233325
O        1.79693142      -0.64990905       1.78012850      -1.40510602       0.96834834      -0.59471668
O        0.98635403       1.05175405       0.24359431       1.22721731       0.44708810       1.22328646
C       -0.94041334      -0.13404636       0.25505050      -0.34769505       0.35212382       3.08057296
C       -0.55936598       0.02616956       1.56852473      -0.68661579      -1.41728635      -2.35056856
C       -0.36258625       1.31038483      -1.74469720       0.77797830      -0.02571190       0.20495422
C        1.10763903       1.63097318       2.63888111       0.23189523      -0.67021728      -0.23680890
C        0.12279088       0.37467917      -0.64731072       0.24300085      -0.56009451       0.29754565
C        0.85961918       0.54064147       1.58642019       0.33257497       0.48201428      -0.77425040
H        2.94052008       0.10673451       0.35494020      -0.40427443      -0.63399579       0.81873928
H        1.20445479      -1.27145175      -0.45914201      -0.74087911       0.84225922      -0.81468824
H       -1.85960005      -0.56795458      -0.13616947       0.27407905       0.15317464       0.29714600
H       -1.10964631      -0.30111740       2.45131435       0.29307250       0.14098562      -0.35030127
H       -0.85966848       2.16946073      -1.27864466       0.04787954      -0.32612254      -0.25378642
H        0.48934772       1.65829201      -2.34434090      -0.21917465      -0.07426815       0.28293020
H       -1.02013301       0.75963333      -2.40498243      -0.24722816       0.04145670      -0.01544744
H        0.73152760       1.24785061       3.59738721       0.07159756       0.27231377      -0.30513581
H        0.61491615       2.56098064       2.35866262      -0.18176808      -0.22718150       0.03141952
H        2.16345609       1.84202047       2.76130380       0.17935245      -0.09113692      -0.10515778
