49
Properties=species:S:1:pos:R:3:forces:R:3 id=33208 bond=C-S smiles="[H:19][C:3]([H:20])([H:21])[C:16]([H:49])([C:8]([H:33])([H:34])[S:2][C:7]([H:31])([H:32])[C:9]([H:35])([H:36])[C:10]([H:37])([H:38])[C:11]([H:39])([H:40])[C:12]([H:41])([H:42])[C:13]([H:43])([H:44])[C:14]([H:45])([H:46])[C:15]([H:47])([H:48])[C:17]([C:4]([H:22])([H:23])[H:24])([C:5]([H:25])([H:26])[H:27])[C:6]([H:28])([H:29])[H:30])[O:1][H:18]" dataset=PubChem energy=-28967.914638365724 pbc="F F F"
O        1.54142357      -3.71868567      -1.34437548      -0.36973713      -0.10492468      -1.12181714
S       -0.17358979      -0.85972467      -4.26141938      -1.69946326      -0.56063221       0.73908488
C        0.32989041      -5.81751184      -1.93344199       1.04747005      -0.36158875       1.16345521
C        2.70708075       3.90372786       5.17820779      -0.28255638      -1.92965118       2.10890497
C        0.57884710       2.52637622       4.81845657       2.43069677       1.78367049       1.24081665
C        2.90749588       1.74397120       4.04511252       0.99529642      -1.05499451      -1.73007154
C       -1.73610004       0.28477553      -4.12504681       0.81838559      -1.32352895      -0.44017955
C       -0.65302192      -3.58714418      -2.53467070      -0.88533942      -1.64033025       1.87575333
C       -1.82624849       0.88624510      -2.76559242      -0.29849011       2.60247272       2.54266672
C       -0.72875604       1.94254044      -2.42871364       0.05806971       0.91435570      -1.77049234
C       -0.50583753       2.35442886      -0.94288465       0.70814143      -1.77273876      -1.19259066
C        0.70480739       3.30416903      -0.87988886      -1.99377966      -0.26790477       2.44192247
C        1.18690452       3.80682859       0.51409615       0.39021145       1.18326323       0.05746487
C        1.05164695       3.02913245       1.81812373      -0.90064862      -1.92536317       0.00565897
C        1.82803455       3.76706061       2.97271744      -1.93195915      -0.82747525      -0.97367884
C        0.71483906      -4.36713915      -2.32055794      -2.23762104       1.57355678       1.02024442
C        2.01388517       2.91453418       4.23578921      -0.96669876       1.82739058       0.63582623
H        1.72726930      -2.82209568      -1.68225132      -0.15746608      -0.64916959       0.26358091
H       -0.43648337      -5.96114330      -1.14919173       0.27749658       0.59704947      -0.42046603
H        0.00079633      -6.28787641      -2.82654368      -0.53728624      -0.43253281      -0.73491509
H        1.19383551      -6.45939378      -1.58587634      -0.54285297       1.16485792      -0.38123297
H        2.41071573       3.45842895       6.19216100       0.74727349       1.49203084      -0.85750958
H        3.80166069       3.94655976       5.11566249      -0.26791148      -0.38576171      -0.18564604
H        2.36588266       4.88793882       4.96695892      -0.53823328       0.82819755       0.58135982
H        0.05567262       1.90290239       4.19237033      -1.24666996      -1.19898609      -1.71828658
H        0.69678456       1.97490302       5.73834601       0.24849712      -0.16780598       0.42918963
H       -0.00326416       3.42292342       5.08307067       0.21290157      -0.25289480      -0.38561383
H        2.33166900       1.03958936       3.41088573       0.81409582      -0.12352731       0.38883087
H        3.30635801       1.23802599       4.93360225      -0.67714353       0.22587836       0.05845043
H        3.85347500       2.05224576       3.49392072      -1.22016930      -0.30539768       0.36845041
H       -1.66362986       1.03579256      -4.95491608       0.25427616      -0.58617615       0.81058107
H       -2.66240295      -0.27711203      -4.30657347       0.56950607      -0.17379514      -0.19956392
H       -1.44189618      -4.23861055      -3.00734507       1.05956757       1.15496677      -0.64044217
H       -1.15747212      -3.33027582      -1.55310380       0.99227375       0.76998906      -1.13977500
H       -2.83404931       1.43172726      -2.65431937       1.21538230      -1.12702058       0.03791502
H       -1.61028513       0.25521145      -1.87758502      -1.07510242      -0.74523304      -1.03097396
H       -0.99322614       2.90346799      -2.98488005       0.66842465      -1.14511732       0.39658411
H        0.18346122       1.46443767      -2.90326890      -0.56641624       1.02010560       0.81339585
H       -0.46774253       1.38347489      -0.34700861       0.64695613       1.34836378      -0.39969187
H       -1.34645495       2.84680423      -0.58461484      -1.82558837       0.89814813       0.57301568
H        0.65395548       4.08884415      -1.61246904      -0.51501936       0.61411795      -0.00384252
H        1.44990006       2.72416172      -1.22847851       2.87212182      -1.95362994      -1.18259143
H        0.69700289       4.77258429       0.84284166       0.93388480      -0.45191723      -1.12332536
H        2.30603352       3.87150344       0.34656443      -1.21244163       0.83015359       0.45334833
H        1.46029458       1.99267683       1.65619043      -0.10520518       0.87727083       0.33432476
H       -0.06227174       2.80760750       2.06704572       1.80657302       0.74447489      -0.22039923
H        1.20825973       4.68159041       3.27241364       1.10927858      -1.05274178      -0.59451133
H        2.82372418       4.02775845       2.59478918      -0.30788197       0.32395404       0.07015303
H        1.06946255      -4.35786896      -3.31262576       1.48345233      -0.25510559      -0.96381871
