49
Properties=species:S:1:pos:R:3:forces:R:3 id=33208 bond=C-S smiles="[H:19][C:3]([H:20])([H:21])[C:16]([H:49])([C:8]([H:33])([H:34])[S:2][C:7]([H:31])([H:32])[C:9]([H:35])([H:36])[C:10]([H:37])([H:38])[C:11]([H:39])([H:40])[C:12]([H:41])([H:42])[C:13]([H:43])([H:44])[C:14]([H:45])([H:46])[C:15]([H:47])([H:48])[C:17]([C:4]([H:22])([H:23])[H:24])([C:5]([H:25])([H:26])[H:27])[C:6]([H:28])([H:29])[H:30])[O:1][H:18]" dataset=PubChem energy=-28959.15505361895 pbc="F F F"
O        1.69451954      -2.84774499      -1.89577422      -0.61606347      -0.14392158      -1.32131382
S       -0.32668576      -1.73066535      -3.71002064      10.26707830      60.05054919     -37.64938451
C        0.48298638      -4.94657116      -2.48484073       1.56842481      -0.42901286       1.27433875
C        2.55398478       3.03278718       5.72960653      -0.28238207      -1.92872075       2.10853606
C        0.42575113       1.65543554       5.36985531       2.43033903       1.78508692       1.24068447
C        2.75439991       0.87303052       4.59651126       0.99514850      -1.05554223      -1.73182466
C       -1.88919601      -0.58616515      -3.57364807       0.89770125      -0.76799768      -0.92768401
C       -0.49992595      -2.71620350      -3.08606944     -12.38193607     -54.59412215      35.89600159
C       -1.97934446       0.01530442      -2.21419368      -0.25247752       2.52301932       2.39052001
C       -0.88185201       1.07159976      -1.87731490       0.09590072       0.93349190      -1.75397567
C       -0.65893350       1.48348818      -0.39148591       0.69188275      -1.77865172      -1.18127184
C        0.55171142       2.43322835      -0.32849012      -1.99584728      -0.26508239       2.43890785
C        1.03380855       2.93588791       1.06549489       0.39140895       1.18413129       0.06211917
C        0.89855098       2.15819177       2.36952247      -0.90136899      -1.93321824       0.00434873
C        1.67493858       2.89611993       3.52411618      -1.93088456      -0.82348794      -0.97237552
C        0.86793503      -3.49619847      -2.87195668      -1.62722062      -1.25550689       2.61943035
C        1.86078920       2.04359350       4.78718795      -0.96707966       1.82514733       0.63778538
H        1.88036527      -1.95115500      -2.23365006      -0.17793148      -0.54063733       0.19926319
H       -0.28338740      -5.09020262      -1.70059047       0.30223966       0.67728418      -0.48660421
H        0.15389230      -5.41693573      -3.37794242      -0.55077650      -0.40900907      -0.74667033
H        1.34693148      -5.58845310      -2.13727508      -0.57590629       1.07245573      -0.41162180
H        2.25761976       2.58748827       6.74355974       0.74763662       1.49257027      -0.85875197
H        3.64856472       3.07561908       5.66706123      -0.26813781      -0.38592838      -0.18560390
H        2.21278669       4.01699814       5.51835766      -0.53825575       0.82886060       0.58213867
H       -0.09742335       1.03196171       4.74376907      -1.24686205      -1.19993753      -1.71760897
H        0.54368859       1.10396234       6.28974475       0.24822150      -0.16747274       0.42770332
H       -0.15636013       2.55198274       5.63446941       0.21281498      -0.25259189      -0.38502584
H        2.17857303       0.16864868       3.96228447       0.81549859      -0.12415552       0.38943075
H        3.15326204       0.36708531       5.48500099      -0.67757141       0.22656255       0.05768069
H        3.70037903       1.18130508       4.04531946      -1.21999712      -0.30599757       0.36866377
H       -1.81672583       0.16485188      -4.40351734       0.18662022      -0.59028394       0.93445328
H       -2.81549892      -1.14805271      -3.75517473       0.43608929      -0.32980487      -0.18283054
H       -1.28880021      -3.36766987      -3.55874381       0.30370189      -1.72528605       0.85854950
H       -1.00437615      -2.45933514      -2.10450254       0.59549348      -1.57554271       0.62681509
H       -2.98714528       0.56078658      -2.10292063       1.22917348      -1.24287010       0.11919002
H       -1.76338110      -0.61572923      -1.32618628      -1.06921408      -0.74960439      -0.84897443
H       -1.14632211       2.03252731      -2.43348131       0.66025471      -1.15723657       0.39641374
H        0.03036525       0.59349699      -2.35187016      -0.57974330       1.04608051       0.80099277
H       -0.62083850       0.51253421       0.20439013       0.64927546       1.35047210      -0.39176301
H       -1.49955092       1.97586355      -0.03321610      -1.82131479       0.89675719       0.57331474
H        0.50085951       3.21790347      -1.06107030      -0.51579482       0.61318975      -0.00546971
H        1.29680409       1.85322104      -0.67707977       2.87739568      -1.95482718      -1.18161322
H        0.54390692       3.90164361       1.39424040       0.93424297      -0.45379221      -1.12755164
H        2.15293755       3.00056276       0.89796317      -1.21453555       0.82986201       0.45211284
H        1.30719861       1.12173615       2.20758917      -0.10601092       0.87860214       0.33464436
H       -0.21536771       1.93666682       2.61844446       1.80652767       0.74503224      -0.21992019
H        1.05516376       3.81064973       3.82381238       1.10914016      -1.05273766      -0.59440292
H        2.67062821       3.15681777       3.14618792      -0.30770411       0.32378883       0.07005780
H        1.22255852      -3.48692828      -3.86402450       1.37654179      -0.08811274      -0.98131350
