42
Properties=species:S:1:pos:R:3:forces:R:3 id=25729 bond=C-N smiles="[H:20][C:3]1=[C:4]([N:6]([P:7]([N:5]1[C:18]2([C:14]([C:10]([C:8]([C:11]([C:15]2([H:35])[H:36])([H:27])[H:28])([H:21])[H:22])([H:25])[H:26])([H:33])[H:34])[H:41])[Cl:2])[C:19]3([C:16]([C:12]([C:9]([C:13]([C:17]3([H:39])[H:40])([H:31])[H:32])([H:23])[H:24])([H:29])[H:30])([H:37])[H:38])[H:42])[Cl:1]" dataset=PubChem energy=-52219.4647146555 pbc="F F F"
Cl      -2.93098418      -1.13646820       2.25689749      -0.30813170      -0.01131721       0.13486917
Cl       1.07361777       2.28273639      -0.74899431       1.98186218       3.37064282      -2.41755305
C       -0.23936786      -1.14104679       1.82355991      -0.78344713       1.45411386      -1.18149262
C       -1.48112623      -0.50310149       1.59242336       1.36264612      -0.30354674       0.18503995
N        0.86294277      -0.52557423       1.17733023      -0.84735437      -0.67621102       0.33862017
N       -1.48911635       0.65410027       0.80027915      -0.47368751      -1.30595293       1.37328920
P        0.18213590       0.82128333       0.35415647      -0.42824431      -2.41054396       1.45345290
C        5.83807107      -2.19644945       0.62002743      -0.60391734       0.49392830      -0.82664570
C       -3.88535825       4.20824882      -0.17939743       1.44112090      -0.00648555       0.80112186
C        5.61020109      -0.83609884       1.29033101       0.48604731       0.31763095      -0.68381321
C        4.87262341      -2.36383288      -0.60162722       0.41810667       0.44872710       0.57677747
C       -3.57566325       3.88478610       1.31171880      -1.10672704       0.17240644      -0.46543652
C       -3.96941010       2.95856354      -1.03760370      -0.73430277       0.07059941      -0.24083955
C        4.15865751      -0.68525570       1.78801072      -1.37562369      -0.15506371      -0.04329605
C        3.55426093      -1.55451434      -0.47906035      -1.45020386       0.40671582      -0.65656045
C       -2.47600190       2.85211536       1.47184352       1.10880078       0.65282202      -0.16651488
C       -2.83760993       1.97348520      -0.84718259       0.78082650      -0.59630254       0.21714305
C        3.10735556      -1.48167138       0.95152167       2.33957049      -0.41815389       0.47136241
C       -2.64652697       1.59592792       0.64245195      -0.51751418      -0.39366764      -0.74295082
H       -0.13868038      -2.06581190       2.38676409      -0.06657034       0.36652377      -0.17010599
H        5.64805289      -2.99271147       1.31702555      -0.16372082      -0.28169111       0.46445988
H        6.84871837      -2.36104600       0.25656373       0.16375830       0.28740727       0.14048495
H       -4.78957526       4.78189561      -0.27279576      -0.35399601       0.26792409       0.02799252
H       -3.05420105       4.84088942      -0.51859017      -0.19279039      -0.08711926      -0.17974964
H        6.31686088      -0.64143340       2.11107851      -0.34281364      -0.24892989      -0.13447108
H        5.81387302      -0.02080881       0.56798383      -0.08799996      -0.52880977       0.15768130
H        5.37099381      -2.04895013      -1.52312815      -0.07392883      -0.01900220       0.14713745
H        4.66668054      -3.41195433      -0.69003402      -0.27465814      -0.54426116      -0.20230428
H       -4.50755374       3.55654570       1.80150393       0.30094252      -0.13240565      -0.14382381
H       -3.28287880       4.79684207       1.84570447      -0.04047729      -0.18248863      -0.19104109
H       -4.06792370       3.26009914      -2.09726318       0.08984182      -0.31658115       0.46894431
H       -4.89599101       2.44682107      -0.76047560      -0.07969552      -0.03186782      -0.16881146
H        4.09708210      -0.95118718       2.83274878      -0.12744458      -0.29639199       0.24945400
H        3.90494534       0.36594523       1.75632072      -0.12782371       0.29021919      -0.09350246
H        2.74119457      -2.00541584      -1.08576643       0.66092807       0.09611998       0.20897886
H        3.69929382      -0.55347871      -0.89299880       0.06335546      -0.03610108       0.14725298
H       -1.51104299       3.35451457       1.20489649      -0.60329267      -0.58523048       0.15152492
H       -2.42232124       2.57450816       2.50522295       0.24976990      -0.13615813       0.63853935
H       -1.89086954       2.39360103      -1.20217761      -0.11325889       0.00169361      -0.03318702
H       -3.01767389       1.05124477      -1.41873797       0.05145435       0.33736462       0.11281407
H        2.98948785      -2.51800887       1.30001116      -0.79012836       0.58650256       0.34567970
H       -3.56686656       1.07630110       0.97157375       0.57062546       0.09021509      -0.07404316
