42
Properties=species:S:1:pos:R:3:forces:R:3 id=25729 bond=C-N smiles="[H:20][C:3]1=[C:4]([N:6]([P:7]([N:5]1[C:18]2([C:14]([C:10]([C:8]([C:11]([C:15]2([H:35])[H:36])([H:27])[H:28])([H:21])[H:22])([H:25])[H:26])([H:33])[H:34])[H:41])[Cl:2])[C:19]3([C:16]([C:12]([C:9]([C:13]([C:17]3([H:39])[H:40])([H:31])[H:32])([H:23])[H:24])([H:29])[H:30])([H:37])[H:38])[H:42])[Cl:1]" dataset=PubChem energy=-52219.070203822754 pbc="F F F"
Cl      -3.12481982      -1.05389617       2.27639914      -0.30357361       0.03952395       0.07996535
Cl       0.87978213       2.36530842      -0.72949266       1.45875725       2.60075528      -1.79819321
C       -0.43320350      -1.05847476       1.84306156      -0.58891441       1.89311099      -1.51599696
C       -1.67496187      -0.42052946       1.61192501       1.21274329      -0.24014649       0.17282927
N        0.66910713      -0.44300220       1.19683188      -1.70006155       0.04405066       0.19324885
N       -1.68295199       0.73667230       0.81978080      -0.06019146      -1.13993390       1.21534248
P       -0.01169974       0.90385536       0.37365812      -0.26918774      -2.97113739       1.76217035
C        6.03190671      -2.27902148       0.60052578      -0.62973787       0.50476930      -0.82874001
C       -4.07919389       4.29082085      -0.15989578       1.44279087      -0.00745645       0.80184811
C        5.80403673      -0.91867087       1.27082936       0.53098092       0.34207350      -0.64352388
C        5.06645905      -2.44640491      -0.62112887       0.45845265       0.45038928       0.49350877
C       -3.76949889       3.96735813       1.33122045      -1.11238147       0.17637967      -0.46884598
C       -4.16324574       3.04113557      -1.01810205      -0.73890441       0.07779771      -0.24166019
C        4.35249315      -0.76782773       1.76850907      -1.38082720      -0.29079871      -0.14357294
C        3.74809657      -1.63708637      -0.49856200      -1.37325523       0.34527802      -0.47368004
C       -2.66983754       2.93468739       1.49134517       1.10733711       0.63456628      -0.15575639
C       -3.03144557       2.05605723      -0.82768094       0.76975701      -0.61330174       0.22004746
C        3.30119120      -1.56424341       0.93202002       2.71052785      -0.40451895       0.30920800
C       -2.84036261       1.67849995       0.66195360      -0.52469903      -0.31752244      -0.78833851
H       -0.33251602      -1.98323987       2.40626574      -0.00792000       0.37337732      -0.17344060
H        5.84188853      -3.07528350       1.29752390      -0.17096782      -0.27617526       0.46367312
H        7.04255401      -2.44361803       0.23706208       0.17439010       0.28695951       0.13467659
H       -4.98341090       4.86446764      -0.25329411      -0.35003396       0.26505508       0.02823610
H       -3.24803669       4.92346145      -0.49908852      -0.19403539      -0.08471758      -0.18037327
H        6.51069652      -0.72400543       2.09157686      -0.31017477      -0.24543111      -0.13243091
H        6.00770866      -0.10338084       0.54848218      -0.07933281      -0.52389627       0.14718059
H        5.56482945      -2.13152216      -1.54262980      -0.03250456      -0.02862818       0.12084274
H        4.86051618      -3.49452636      -0.70953567      -0.27850206      -0.54999444      -0.19913681
H       -4.70138938       3.63911773       1.82100558       0.30674276      -0.13202644      -0.14366162
H       -3.47671444       4.87941410       1.86520612      -0.03982001      -0.18816670      -0.19121956
H       -4.26175934       3.34267117      -2.07776153       0.09109087      -0.32064241       0.47229922
H       -5.08982665       2.52939310      -0.74097395      -0.07467693      -0.03263676      -0.17153377
H        4.29091774      -1.03375921       2.81324713      -0.11649376      -0.29270838       0.26476613
H        4.09878098       0.28337320       1.73681907      -0.10444703       0.34147048      -0.07861953
H        2.93503021      -2.08798787      -1.10526808       0.65333561       0.07465565       0.17970779
H        3.89312946      -0.63605074      -0.91250045       0.08880393      -0.01707525       0.11968711
H       -1.70487863       3.43708660       1.22439814      -0.59795930      -0.57759433       0.15063048
H       -2.61615688       2.65708019       2.52472460       0.25107377      -0.13467866       0.63744568
H       -2.08470518       2.47617306      -1.18267596      -0.11164387       0.00849472      -0.03662861
H       -3.21150953       1.13381680      -1.39923632       0.05243568       0.33846986       0.11215495
H        3.18332349      -2.60058090       1.28050951      -0.76404315       0.52691281       0.35786222
H       -3.76070220       1.15887313       0.99107540       0.60481922       0.07326190      -0.07503542
