42
Properties=species:S:1:pos:R:3:forces:R:3 id=25729 bond=C-N smiles="[H:20][C:3]1=[C:4]([N:6]([P:7]([N:5]1[C:18]2([C:14]([C:10]([C:8]([C:11]([C:15]2([H:35])[H:36])([H:27])[H:28])([H:21])[H:22])([H:25])[H:26])([H:33])[H:34])[H:41])[Cl:2])[C:19]3([C:16]([C:12]([C:9]([C:13]([C:17]3([H:39])[H:40])([H:31])[H:32])([H:23])[H:24])([H:29])[H:30])([H:37])[H:38])[H:42])[Cl:1]" dataset=PubChem energy=-52214.880236146346 pbc="F F F"
Cl      -2.27806409      -1.41460555       2.19120773      -0.34368353      -0.14042700       0.25073822
Cl       1.72653786       2.00459904      -0.81468407       2.75376619       5.09607876      -3.17512158
C        0.41355223      -1.41918414       1.75787015      -2.61383097       1.96824851      -0.78194584
C       -0.82820614      -0.78123884       1.52673360       1.63183093      -0.37593193       0.25766763
N        1.51586286      -0.80371158       1.11164047     -48.41389969      17.60555494       6.64002753
N       -0.83619626       0.37596292       0.73458939      -0.02725110      -2.10599103       2.26853283
P        0.83505599       0.54314598       0.28846671      -1.77880815      -0.92843463      -0.46644130
C        5.18515098      -1.91831210       0.68571719      -0.65491825       0.51691107      -0.79362066
C       -3.23243816       3.93011147      -0.24508719       1.44768323      -0.00063986       0.79439166
C        4.95728100      -0.55796149       1.35602077       0.40670954       0.43134754      -0.25416635
C        4.21970332      -2.08569553      -0.53593746       0.17284731       0.79320929       0.12287970
C       -2.92274316       3.60664875       1.24602904      -1.11421136       0.17026491      -0.46874594
C       -3.31649001       2.68042619      -1.10329346      -0.73984105       0.06393207      -0.22513124
C        3.50573742      -0.40711835       1.85370048       2.06767258      -0.24016647       0.11559020
C        2.90134084      -1.27637699      -0.41337059       2.13303338      -1.13884468      -1.92417420
C       -1.82308181       2.57397801       1.40615376       1.12594137       0.67003303      -0.16416905
C       -2.18468984       1.69534785      -0.91287235       0.81518327      -0.57995162       0.18656122
C        2.45443547      -1.20353403       1.01721143      42.11080681     -18.26448186      -3.46667548
C       -1.99360688       1.31779057       0.57676219      -0.42307630      -0.24706466      -0.80033475
H        0.51423971      -2.34394925       2.32107433       0.25311741       0.20666908      -0.21128216
H        4.99513280      -2.71457412       1.38271531      -0.16563566      -0.29253997       0.46685243
H        6.19579828      -2.08290865       0.32225349       0.16019707       0.29186890       0.15197221
H       -4.13665517       4.50375826      -0.33848552      -0.35417299       0.26656550       0.03054658
H       -2.40128096       4.56275207      -0.58427993      -0.19565216      -0.09219426      -0.17804145
H        5.66394079      -0.36329605       2.17676827      -0.23149021      -0.26793260      -0.17719858
H        5.16095293       0.25732854       0.63367359      -0.11676248      -0.51574187       0.15840767
H        4.71807372      -1.77081278      -1.45743839       0.05099561      -0.11556126       0.16338569
H        4.01376045      -3.13381698      -0.62434426      -0.26527599      -0.56272496      -0.20854390
H       -3.85463365       3.27840835       1.73581417       0.29734612      -0.13188386      -0.14205006
H       -2.62995871       4.51870472       1.78001471      -0.03777756      -0.18647031      -0.19125336
H       -3.41500361       2.98196179      -2.16295294       0.09449647      -0.32058720       0.47278775
H       -4.24307092       2.16868372      -0.82616536      -0.08981992      -0.02979159      -0.16818060
H        3.44416201      -0.67304983       2.89843854      -0.23054577      -0.39643078       0.30537419
H        3.25202525       0.64408258       1.82201048      -0.40687352       0.17884285      -0.28208492
H        2.08827448      -1.72727849      -1.02007667       0.42003276       0.14836859       0.44982330
H        3.04637373      -0.27534136      -0.82730904       0.02387159      -0.11058921       0.24334507
H       -0.85812290       3.07637722       1.13920673      -0.60990242      -0.59745015       0.14399263
H       -1.76940115       2.29637081       2.43953319       0.24255989      -0.13735029       0.64672114
H       -1.23794945       2.11546368      -1.26786737      -0.11746653      -0.01217474      -0.02505357
H       -2.36475380       0.77310742      -1.48442773       0.05112648       0.33770875       0.11175218
H        2.33656776      -2.23987152       1.36570092       2.06476244      -1.00069383       0.18165936
H       -2.91394647       0.79816375       0.90588399       0.61041409       0.05180305      -0.06360942
