42
Properties=species:S:1:pos:R:3:forces:R:3 id=25729 bond=C-N smiles="[H:20][C:3]1=[C:4]([N:6]([P:7]([N:5]1[C:18]2([C:14]([C:10]([C:8]([C:11]([C:15]2([H:35])[H:36])([H:27])[H:28])([H:21])[H:22])([H:25])[H:26])([H:33])[H:34])[H:41])[Cl:2])[C:19]3([C:16]([C:12]([C:9]([C:13]([C:17]3([H:39])[H:40])([H:31])[H:32])([H:23])[H:24])([H:29])[H:30])([H:37])[H:38])[H:42])[Cl:1]" dataset=PubChem energy=-52204.4967615773 pbc="F F F"
Cl      -2.21685284      -1.44068093       2.18504931      -0.32378648      -0.12909661       0.23942741
Cl       1.78774911       1.97852366      -0.82084249       2.56124123       5.16165568      -3.13441006
C        0.47476348      -1.44525952       1.75171173      -3.73113948       2.61114253      -0.67459427
C       -0.76699489      -0.80731422       1.52057518       1.48916744      -0.17902618       0.16919487
N        1.57707411      -0.82978696       1.10548205     -99.74569001      38.63630983      12.53240410
N       -0.77498501       0.34988754       0.72843097      -0.19130442      -2.04590008       2.31509776
P        0.89626724       0.51707060       0.28230829      -2.40043956      -0.25148601      -0.77797099
C        5.12393973      -1.89223672       0.69187561      -0.65653410       0.50712454      -0.77626603
C       -3.17122691       3.90403609      -0.25124561       1.44717629      -0.00135830       0.79467396
C        4.89606975      -0.53188611       1.36217919       0.42880006       0.45269913      -0.22062548
C        4.15849207      -2.05962015      -0.52977904       0.17608496       0.79899421       0.05645006
C       -2.86153191       3.58057337       1.23987062      -1.11167065       0.17267230      -0.46767285
C       -3.25527876       2.65435081      -1.10945188      -0.73827563       0.06480998      -0.22809797
C        3.44452617      -0.38104297       1.85985890       3.32900133      -0.01477731       0.45953202
C        2.84012959      -1.25030161      -0.40721217       3.32108914      -1.48496084      -2.72237164
C       -1.76187056       2.54790263       1.39999534       1.11997932       0.66694101      -0.16859601
C       -2.12347859       1.66927247      -0.91903077       0.81226176      -0.58209914       0.19259930
C        2.39322422      -1.17745865       1.02336985      92.27990192     -39.71377175      -8.76220466
C       -1.93239563       1.29171519       0.57060377      -0.41739827      -0.27132048      -0.78507990
H        0.57545096      -2.37002463       2.31491591       0.46140752       0.16692474      -0.27828503
H        4.93392155      -2.68849874       1.38887373      -0.16800417      -0.28731192       0.46043066
H        6.13458703      -2.05683327       0.32841191       0.16015224       0.30150863       0.15315518
H       -4.07544392       4.47768288      -0.34464394      -0.35448072       0.26684940       0.03043643
H       -2.34006971       4.53667669      -0.59043835      -0.19537926      -0.09208119      -0.17805547
H        5.60272954      -0.33722067       2.18292669      -0.21168251      -0.27235760      -0.16829853
H        5.09974168       0.28340392       0.63983201      -0.12738644      -0.51206980       0.15957494
H        4.65686247      -1.74473740      -1.45127997       0.07595007      -0.12043760       0.15354964
H        3.95254920      -3.10774160      -0.61818584      -0.26376371      -0.55817537      -0.20604975
H       -3.79342240       3.25233297       1.72965575       0.29726961      -0.13202466      -0.14212953
H       -2.56874746       4.49262934       1.77385629      -0.03863756      -0.18503562      -0.19130690
H       -3.35379236       2.95588641      -2.16911136       0.09354290      -0.31958121       0.47231201
H       -4.18185967       2.14260834      -0.83232378      -0.08950507      -0.02990874      -0.16806408
H        3.38295076      -0.64697445       2.90459696      -0.30596555      -0.46915469       0.29319084
H        3.19081400       0.67015796       1.82816890      -0.52934967       0.14662988      -0.36719345
H        2.02706323      -1.70120311      -1.01391825       0.33150274       0.14811057       0.58332499
H        2.98516248      -0.24926598      -0.82115062       0.05491188      -0.15583415       0.27101370
H       -0.79691165       3.05030184       1.13304831      -0.60804879      -0.59638919       0.14360241
H       -1.70818990       2.27029543       2.43337477       0.24251972      -0.13818932       0.64689133
H       -1.17673820       2.08938830      -1.27402579      -0.11523209      -0.01047962      -0.02612139
H       -2.30354255       0.74703204      -1.49058615       0.05093082       0.33720415       0.11177926
H        2.27535651      -2.21379614       1.37185934       2.98530982      -1.93863501       0.26578101
H       -2.85273522       0.77208837       0.89972557       0.60721366       0.05695279      -0.06499562
