27
Properties=species:S:1:pos:R:3:forces:R:3 id=17799 bond=C-N smiles="[H:17][C:5]([H:18])([H:19])[C:9]([H:26])([H:27])[C:8]([H:24])([H:25])[N:2]([H:10])[N:1]([C:6]([H:20])([H:21])[C:3]([H:11])([H:12])[H:13])[C:7]([H:22])([H:23])[C:4]([H:14])([H:15])[H:16]" dataset=PubChem energy=-10538.333060457147 pbc="F F F"
N       -0.51930721      -0.01267398       0.40704151       0.42966292      -1.88788117       1.67416658
N        0.71900679       0.61821706       0.03498674      -0.42207300      -0.33817685      -0.55136305
C        0.49686112      -1.97546709       1.71024571      -0.51266516       0.44704095       0.19297326
C       -1.90272399       0.94802444      -1.40559786      -0.37695850       0.29094025       0.28652009
C        3.67532758       1.40379231       0.28413380      -0.30330350       0.77610553       0.50084635
C       -0.55285930      -0.83426512       1.78381739       1.29041561       0.96365228      -2.01329841
C       -1.74996801       0.71761510       0.10470888       0.72699417       0.76462010      -0.14163661
C        1.22663544       1.65978174       0.92595720       0.36101640      -0.26225466      -0.00974239
C        2.49397043       2.37408142       0.42148029      -0.10318289      -0.31820982       0.00296381
H        1.45045672      -0.06405831      -0.26666647      -1.37921446       0.76890237       0.64843206
H        0.50068686      -2.57664287       2.62914191       0.07010307       0.34686062      -0.12182708
H        0.27053249      -2.66169822       0.90016586      -0.15585990       0.07401692      -0.16792110
H        1.49813968      -1.58483017       1.52693270      -0.05079632       0.02170185       0.18357525
H       -2.92859049       1.26345913      -1.61031490       0.10811096       0.13446142      -0.03425311
H       -1.22007533       1.69048731      -1.79690295       0.10393900       0.25296280       0.15476262
H       -1.72210522       0.05845093      -1.98824578       0.04705466      -0.49493766       0.12207749
H        3.81245831       0.86566698       1.24315113       0.04206411       0.06531482      -0.72333961
H        3.51313285       0.75778850      -0.55824631       0.08153616      -0.64201235      -0.14557760
H        4.55580310       2.00105422       0.06799195       0.28526140      -0.19437258       0.05948243
H       -0.35436969      -0.15907068       2.61487255       0.13981236       0.00909285       0.10554555
H       -1.53773856      -1.25834453       1.95888041      -0.13437889       0.18774980      -0.49532852
H       -1.83337827       1.70413952       0.65099609       0.10617522      -0.72951821      -0.45441632
H       -2.59255524       0.11609553       0.44762909       0.24342221      -0.10669163       0.07365613
H        0.45099640       2.38680272       1.09885377      -0.41341224       0.21174982      -0.07342945
H        1.44574181       1.20185768       1.87698370       0.27952513       0.03761699       0.77808364
H        2.28798024       2.87499850      -0.53718787       0.06512914      -0.19201437       0.30266868
H        2.81897239       3.14586108       1.13735563      -0.52831860      -0.18600715      -0.15241332
