41
Properties=species:S:1:pos:R:3:forces:R:3 id=46730 bond=C-O smiles="[H:41][C:14]1([C:13]([C:15]([C:11]1([H:38])[O:1][H:16])([C:9]([H:32])([H:33])[H:34])[C:10]([H:35])([H:36])[H:37])([H:40])[N:3]([C:6]([H:23])([H:24])[H:25])[C:7]([H:26])([H:27])[H:28])[C:12]([H:39])([C:8]([H:29])([H:30])[H:31])[N:2]([C:4]([H:17])([H:18])[H:19])[C:5]([H:20])([H:21])[H:22]" dataset=PubChem energy=-17905.301457246438 pbc="F F F"
O        1.13963899      -0.18139358       2.79358661      -2.11522812       0.99531673       4.98024613
N       -1.36156767       0.20777041       2.16573683       0.73081794       0.47973054       1.02000411
N        1.14173973       1.05920137      -1.41324361      -0.33290739       0.30897431      -0.50473084
C       -1.95656829       1.57748670       1.94515828       0.33606407      -1.50187017       0.04574069
C       -1.98527174      -0.57266312       3.26846281      -0.35851635       0.35990678      -1.37051651
C        1.40319080      -0.04372161      -2.36600550      -0.35913587       1.49207871       0.20258106
C        1.52428753       2.42907769      -1.82377441      -0.18581635      -2.33863385      -1.00283619
C       -1.96380453      -0.44770467      -0.11324718       0.51119252      -0.41747662      -0.75971723
C        3.64492244       0.45850213       0.16468007      -0.66521734       1.00492068       0.24342329
C        2.51253385       2.05360049       1.73629180       0.93120132       0.02146363       0.17448909
C        1.63661522      -0.42933887       1.62826089       1.27626004      -0.24587321      -3.32736686
C       -0.92770951      -0.65261191       1.02747942      -1.10128057      -0.08255453      -1.05870176
C        1.01651192       0.85089389       0.02893207       0.67930193       0.91915148      -1.51361160
C        0.54799116      -0.46873169       0.55218567      -1.00118541      -0.89541444      -0.39897270
C        2.29107363       0.80177630       0.93027721       1.17328777      -0.01361467      -1.83803016
H        0.21263678       0.20288876       2.66768635       0.75577224      -0.33475374       0.49682004
H       -1.42287784       2.13321740       1.17361263      -0.17614599      -0.32399850       0.03851209
H       -3.01946693       1.51619536       1.71845988      -0.10571303       0.02516090      -0.29020506
H       -1.87220936       2.15348417       2.85638730       0.17704851      -0.06765725       0.32408635
H       -2.01385765       0.00752777       4.18668405      -0.19386341       0.10218463      -0.08270449
H       -2.99572020      -0.91105323       2.95087734       0.29570500       0.24124078       0.48484815
H       -1.39315277      -1.46179920       3.45032135       0.17293409       0.02445844       0.02662314
H        1.56518478       0.37076183      -3.38048943       0.00351564      -0.02907155       0.67082246
H        2.26528866      -0.62827915      -2.10513981       0.50145270      -0.40406325       0.05341688
H        0.53999308      -0.69077211      -2.46213826      -0.18154461      -0.24214944       0.16639458
H        2.58880753       2.57959217      -1.92971023       0.54244012      -0.02049603      -0.07465308
H        1.18841476       3.09910077      -1.09504338      -0.67331661       1.07028200       1.01297990
H        1.04649401       2.63114018      -2.78919562       0.12102518       0.21209285       0.20172902
H       -1.87638407       0.55555939      -0.54707523       0.00575855      -0.16140217       0.22602708
H       -3.00606661      -0.58056861       0.23364005       0.62942674      -0.04814309      -0.08816229
H       -1.76692157      -1.13683301      -0.96603616      -0.21058348       0.30537738       0.66896697
H        3.58741302      -0.46762186      -0.40577658      -0.00543381       0.01488633       0.13806117
H        4.43543548       0.37822967       0.92339758      -0.19878301      -0.18404529      -0.21523226
H        3.98048872       1.27471817      -0.53849741      -0.60754890      -0.77498384       0.70045833
H        1.66269654       2.35321778       2.31865636      -0.55916251       0.14388502       0.10615214
H        3.30168409       1.84627885       2.45460812       0.15844022       0.15166498       0.18995552
H        2.86372442       2.90084165       1.11590294      -0.34175234      -0.47885636       0.15877255
H        2.24462813      -1.32034963       1.61169628       0.54518445      -0.35411800       0.21940019
H       -1.01021963      -1.71889453       1.34191595       0.00846185       0.88401498       0.09239236
H        0.34296050       1.61939997       0.39041229       0.09583899       0.39971935       0.09862358
H        0.79240925      -1.25707513      -0.14820810      -0.28004258      -0.23362568      -0.21369489
