41
Properties=species:S:1:pos:R:3:forces:R:3 id=46730 bond=C-O smiles="[H:41][C:14]1([C:13]([C:15]([C:11]1([H:38])[O:1][H:16])([C:9]([H:32])([H:33])[H:34])[C:10]([H:35])([H:36])[H:37])([H:40])[N:3]([C:6]([H:23])([H:24])[H:25])[C:7]([H:26])([H:27])[H:28])[C:12]([H:39])([C:8]([H:29])([H:30])[H:31])[N:2]([C:4]([H:17])([H:18])[H:19])[C:5]([H:20])([H:21])[H:22]" dataset=PubChem energy=-17902.806725912465 pbc="F F F"
O        0.99468760      -0.10907621       3.13347328       1.44917755      -0.43898512      -2.50525463
N       -1.21661628       0.13545304       1.82585016      -0.04133103       0.39315976       0.45486299
N        1.28669112       0.98688400      -1.75313028      -0.22729300       0.22369631      -0.35621252
C       -1.81161690       1.50516933       1.60527161       0.35604617      -1.70466231       0.02275139
C       -1.84032035      -0.64498049       2.92857614      -0.54740221       0.22258066      -1.57436844
C        1.54814219      -0.11603898      -2.70589217      -0.35487690       1.46577507       0.17993917
C        1.66923892       2.35676032      -2.16366108      -0.19749531      -2.29075935      -1.00116631
C       -1.81885314      -0.52002204      -0.45313385       0.54182741      -0.40370654      -0.77779662
C        3.78987383       0.38618476      -0.17520660      -0.51680447       0.70507792       0.41146274
C        2.65748524       1.98128312       1.39640513       0.94292499       0.28124759       0.19249722
C        1.78156661      -0.50165624       1.28837422      -1.26299241       1.24246534       1.38428473
C       -0.78275812      -0.72492928       0.68759275      -1.20664660       0.25422776      -0.46579985
C        1.16146331       0.77857652      -0.31095460       0.51654103       0.95784562      -1.57321105
C        0.69294255      -0.54104906       0.21229900      -1.29234547      -0.43305795       1.17303451
C        2.43602502       0.72945893       0.59039054       0.43933545       0.12531758      -0.53828457
H        0.06768539       0.27520613       3.00757302       2.15749425      -0.78749908      -1.01450405
H       -1.27792645       2.06090003       0.83372596      -0.17696923      -0.29677611       0.04102167
H       -2.87451554       1.44387799       1.37857321      -0.16134844       0.08366368      -0.29837617
H       -1.72725797       2.08116680       2.51650063       0.17857174      -0.03523381       0.33419303
H       -1.86890626      -0.06478960       3.84679738      -0.21975021       0.08587853      -0.03062142
H       -2.85076881      -0.98337060       2.61099067       0.22196764       0.25385226       0.51642494
H       -1.24820138      -1.53411657       3.11043468       0.16983269       0.07388428       0.04817834
H        1.71013617       0.29844446      -3.72037610       0.00146501      -0.03770951       0.67914334
H        2.41024005      -0.70059652      -2.44502648       0.50472428      -0.40304982       0.04286443
H        0.68494447      -0.76308948      -2.80202493      -0.18599380      -0.23724373       0.16798128
H        2.73375892       2.50727480      -2.26959690       0.53916025      -0.02618031      -0.07982290
H        1.33336615       3.02678340      -1.43493005      -0.67387447       1.06913451       1.00717793
H        1.19144540       2.55882281      -3.12908229       0.12345860       0.20208472       0.21531948
H       -1.73143268       0.48324202      -0.88696190      -0.01145703      -0.15437899       0.22778722
H       -2.86111522      -0.65288598      -0.10624662       0.65741455      -0.04768641      -0.08476882
H       -1.62197018      -1.20915038      -1.30592283      -0.22074226       0.29037216       0.63387489
H        3.73236441      -0.53993923      -0.74566325       0.00598432       0.02702232       0.11887047
H        4.58038687       0.30591230       0.58351091      -0.20572086      -0.17498220      -0.23603350
H        4.12544011       1.20240080      -0.87838408      -0.71988590      -0.75638452       0.76059025
H        1.80764793       2.28090041       1.97876969      -0.53414337       0.03113871       0.07730663
H        3.44663548       1.77396148       2.11472145       0.11627834       0.12277462       0.16429086
H        3.00867581       2.82852428       0.77601627      -0.30697834      -0.49431589       0.11985630
H        2.38957952      -1.39266700       1.27180961       0.03751382      -0.22642578       1.40002572
H       -0.86526824      -1.79121190       1.00202928       0.05778727       0.89161463       0.07910254
H        0.48791189       1.54708260       0.05052562       0.15034849       0.32103164       0.15096181
H        0.93736064      -1.32939250      -0.48809477      -0.10290760      -0.37085498      -0.06536539
