41
Properties=species:S:1:pos:R:3:forces:R:3 id=46730 bond=C-O smiles="[H:41][C:14]1([C:13]([C:15]([C:11]1([H:38])[O:1][H:16])([C:9]([H:32])([H:33])[H:34])[C:10]([H:35])([H:36])[H:37])([H:40])[N:3]([C:6]([H:23])([H:24])[H:25])[C:7]([H:26])([H:27])[H:28])[C:12]([H:39])([C:8]([H:29])([H:30])[H:31])[N:2]([C:4]([H:17])([H:18])[H:19])[C:5]([H:20])([H:21])[H:22]" dataset=PubChem energy=-17901.218689048255 pbc="F F F"
O        0.92014116      -0.07188442       3.30827214       0.27464001       0.10596047      -1.82241336
N       -1.14206984       0.09826125       1.65105130       0.04528438       0.16414455       0.19470280
N        1.36123756       0.94969221      -1.92792914      -0.17700398       0.17782304      -0.28607890
C       -1.73707046       1.46797754       1.43047275       0.42909009      -1.78670312       0.03515934
C       -1.76577391      -0.68217228       2.75377728      -0.48920336       0.20181221      -1.71393423
C        1.62268863      -0.15323077      -2.88069103      -0.35000909       1.44949204       0.16662205
C        1.74378536       2.31956853      -2.33845994      -0.18912119      -2.26646622      -0.99371117
C       -1.74430670      -0.55721383      -0.62793271       0.57832431      -0.40041580      -0.80821017
C        3.86442027       0.34899297      -0.35000546      -0.44359836       0.61908915       0.46000622
C        2.73203168       1.94409133       1.22160627       0.94096059       0.37097466       0.20033672
C        1.85611305      -0.53884803       1.11357536      -0.39698250       0.88439029      -0.53976075
C       -0.70821168      -0.76212107       0.51279389      -1.47619121       0.39872056      -0.18381049
C        1.23600975       0.74138473      -0.48575346       0.43352137       0.92463625      -1.50880099
C        0.76748899      -0.57824085       0.03750014      -1.27435005      -0.29803687       1.46458845
C        2.51057146       0.69226714       0.41559168       0.38411031       0.20428082      -0.31948628
H       -0.00686105       0.31239792       3.18237188       2.56874952      -0.79643988      -0.56251491
H       -1.20338001       2.02370824       0.65892710      -0.18160584      -0.28085309       0.04172708
H       -2.79996910       1.40668620       1.20377435      -0.18355136       0.09195832      -0.29786666
H       -1.65271153       2.04397501       2.34170177       0.18486034      -0.02118142       0.33743246
H       -1.79435982      -0.10198139       3.67199852      -0.28464198       0.05247122       0.00027708
H       -2.77622237      -1.02056239       2.43619181       0.18510851       0.27507797       0.51007332
H       -1.17365494      -1.57130836       2.93563582       0.15416643       0.09826074       0.07096655
H        1.78468261       0.26125267      -3.89517496       0.00037713      -0.03971638       0.68326572
H        2.48478649      -0.73778831      -2.61982534       0.50370408      -0.39923781       0.03932249
H        0.75949091      -0.80028127      -2.97682379      -0.18977711      -0.23517498       0.17235060
H        2.80830536       2.47008301      -2.44439576       0.53695979      -0.02975006      -0.08192088
H        1.40791259       2.98959161      -1.60972891      -0.67500554       1.06823450       1.00457722
H        1.26599184       2.52163102      -3.30388115       0.12313109       0.19377041       0.22205286
H       -1.65688624       0.44605023      -1.06176076      -0.01706764      -0.15277397       0.22953874
H       -2.78656878      -0.69007777      -0.28104548       0.67330806      -0.04747094      -0.07602449
H       -1.54742374      -1.24634217      -1.48072169      -0.22077172       0.28374863       0.61346453
H        3.80691085      -0.57713102      -0.92046211       0.00452748       0.03501942       0.12009174
H        4.65493331       0.26872051       0.40871205      -0.20531651      -0.17226733      -0.24391172
H        4.19998655       1.16520901      -1.05318294      -0.74597589      -0.74162052       0.77460100
H        1.88219437       2.24370862       1.80397083      -0.54696630       0.00799030       0.08398738
H        3.52118192       1.73676969       1.93992259       0.11204668       0.11170087       0.15302028
H        3.08322225       2.79133249       0.60121741      -0.30601832      -0.50068931       0.11993047
H        2.46412596      -1.42985879       1.09701075       0.04645195      -0.29682717       1.50857018
H       -0.79072180      -1.82840369       0.82723042       0.07201495       0.88969573       0.07108168
H        0.56245833       1.50989081      -0.12427324       0.16107254       0.30094087       0.16519325
H        1.01190708      -1.36658429      -0.66289363      -0.05825897      -0.44240925      -0.00158079
