41
Properties=species:S:1:pos:R:3:forces:R:3 id=46730 bond=C-O smiles="[H:41][C:14]1([C:13]([C:15]([C:11]1([H:38])[O:1][H:16])([C:9]([H:32])([H:33])[H:34])[C:10]([H:35])([H:36])[H:37])([H:40])[N:3]([C:6]([H:23])([H:24])[H:25])[C:7]([H:26])([H:27])[H:28])[C:12]([H:39])([C:8]([H:29])([H:30])[H:31])[N:2]([C:4]([H:17])([H:18])[H:19])[C:5]([H:20])([H:21])[H:22]" dataset=PubChem energy=-17897.88356738441 pbc="F F F"
O        1.19761955      -0.21032053       2.65763195     -21.89880836      10.34219737      48.98787649
N       -1.41954823       0.23669736       2.30169149       1.21136984       0.43208887       1.11920165
N        1.08375917       1.08812832      -1.27728895      -0.37614315       0.32546587      -0.56688029
C       -2.01454885       1.60641365       2.08111294       0.36710821      -1.43633729       0.05702091
C       -2.04325230      -0.54373617       3.40441747      -0.25237615       0.41602377      -1.32344908
C        1.34521024      -0.01479466      -2.23005084      -0.36001157       1.50005968       0.21282351
C        1.46630697       2.45800464      -1.68781975      -0.16438576      -2.35865069      -0.99349430
C       -2.02178509      -0.41877772       0.02270748       0.51008524      -0.42934852      -0.78228259
C        3.58694188       0.48742908       0.30063473      -0.72854022       1.20847569       0.13490443
C        2.45455329       2.08252744       1.87224646       0.92277061      -0.14878591       0.15034306
C        1.57863466      -0.40041192       1.76421555      19.34866587      -9.58468108     -44.03025470
C       -0.98569007      -0.62368496       1.16343408      -1.11114636      -0.25123132      -1.24719460
C        0.95853136       0.87982084       0.16488673       0.74925057       0.86053850      -1.34148170
C        0.49001060      -0.43980474       0.68814033      -1.22268552      -1.41211467      -2.73219014
C        2.23309307       0.83070325       1.06623187       2.37579781       0.66024971      -3.48993723
H        0.27061734       0.17396181       2.53173169      -0.13493272       0.39987652       2.42686210
H       -1.48085840       2.16214435       1.30956729      -0.17816273      -0.33250860       0.03956147
H       -3.07744749       1.54512231       1.85441454      -0.09073235      -0.00069235      -0.28508926
H       -1.93018992       2.18241112       2.99234196       0.17705912      -0.07013517       0.32091185
H       -2.07183821       0.03645472       4.32263871      -0.19852704       0.09926106      -0.08368824
H       -3.05370076      -0.88212628       3.08683200       0.31712693       0.24283734       0.47031610
H       -1.45113333      -1.43287225       3.58627601       0.15284289      -0.00025382       0.02865533
H        1.50720422       0.39968878      -3.24453477       0.00513857      -0.02102150       0.66755735
H        2.20730810      -0.59935220      -1.96918515       0.49761442      -0.40236108       0.06170465
H        0.48201252      -0.66184516      -2.32618360      -0.18141271      -0.24422313       0.17059539
H        2.53082697       2.60851912      -1.79375557       0.54201491      -0.01864503      -0.07104156
H        1.13043420       3.12802772      -0.95908872      -0.67443059       1.07097375       1.01604184
H        0.98851345       2.66006713      -2.65324096       0.11808607       0.21219099       0.19687366
H       -1.93436463       0.58448634      -0.41112057       0.01917235      -0.16761285       0.23014257
H       -3.06404717      -0.55164166       0.36959471       0.61797654      -0.04713001      -0.07464131
H       -1.82490213      -1.10790606      -0.83008150      -0.20332192       0.31511092       0.68491589
H        3.52943246      -0.43869491      -0.26982192      -0.01392962       0.00959480       0.15732210
H        4.37745492       0.40715662       1.05935224      -0.18799184      -0.18936555      -0.20129625
H        3.92250816       1.30364512      -0.40254275      -0.51620639      -0.77273865       0.64335251
H        1.60471598       2.38214473       2.45461102      -0.61877854       0.21288282       0.15745925
H        3.24370353       1.87520580       2.59056278       0.20392516       0.17054209       0.21038563
H        2.80574386       2.92976860       1.25185760      -0.37178819      -0.45238593       0.20541466
H        2.18664757      -1.29142268       1.74765094       1.70306987      -1.25820850      -0.95325032
H       -1.06820019      -1.68996758       1.47787061      -0.02640051       0.86123742       0.09927752
H        0.28497994       1.64832692       0.52636695       0.04953070       0.46088595       0.05074502
H        0.73442869      -1.22814818      -0.01225344      -0.37991077      -0.20163660      -0.32493752
