5
Properties=species:S:1:pos:R:3:forces:R:3 id=4583 bond=N-O smiles="[H:5][O:3][O:4][N:2]=[O:1]" dataset=PubChem energy=-7644.6875966862435 pbc="F F F"
O        0.57343348      -1.77955024       1.18606077      -2.11931611       7.72143117      -6.73152125
N        0.28478205      -0.89725987       0.34859694       2.85162048      -4.89382567       7.06275799
O        0.67218372       1.97941753      -0.05789155       1.23221210      -2.38303505       0.23771802
O        1.06231098       0.89646118       0.91087428      -1.85163651       0.37165443      -1.71055275
H        0.16322904       2.70070466       0.33783174      -0.11180732      -0.81578694       1.13912731
