5
Properties=species:S:1:pos:R:3:forces:R:3 id=4583 bond=N-O smiles="[H:5][O:3][O:4][N:2]=[O:1]" dataset=PubChem energy=-7643.775547515121 pbc="F F F"
O        0.50599474      -1.93512808       1.13729181      -2.34093440       7.88832973      -7.13259611
N        0.21734331      -1.05283771       0.29982798       2.98930959      -5.71777470       7.54380291
O        0.73962246       2.13499537      -0.00912259       1.38497405      -2.53623734       0.63063281
O        1.12974972       1.05203902       0.95964324      -1.91411276       1.14168302      -2.13462195
H        0.23066778       2.85628250       0.38660070      -0.11953135      -0.77745136       1.09139973
