5
Properties=species:S:1:pos:R:3:forces:R:3 id=4583 bond=N-O smiles="[H:5][O:3][O:4][N:2]=[O:1]" dataset=PubChem energy=-7627.821370803993 pbc="F F F"
O        0.80748555      -1.23960360       1.35531772       0.22044235      -8.31668522       3.15529615
N        0.51883412      -0.35731323       0.51785389     -49.54929770    -116.44049204     -35.20228452
O        0.43813165       1.43947089      -0.22714850      -0.67992782       4.05395019      -3.88675839
O        0.82825891       0.35651454       0.74161733      49.76347785     120.81804708      35.26205833
H       -0.07082303       2.16075802       0.16857479       0.24532240      -0.11429801       0.66973724
