5
Properties=species:S:1:pos:R:3:forces:R:3 id=4583 bond=N-O smiles="[H:5][O:3][O:4][N:2]=[O:1]" dataset=PubChem energy=-7646.124411519535 pbc="F F F"
O        0.72814587      -1.42263635       1.29794248      -0.51022058       2.52569335      -2.23825633
N        0.43949444      -0.54034598       0.46047865      -1.79362793      -6.37005382       0.18172722
O        0.51747133       1.62250364      -0.16977326       0.91592106      -1.74834163      -1.12500501
O        0.90759859       0.53954729       0.79899257       1.43127693       6.30308885       1.77503579
H        0.00851665       2.34379077       0.22595003      -0.04275047      -0.71006827       1.40678134
