16
Properties=species:S:1:pos:R:3:forces:R:3 id=8206 bond=C-S smiles="[H:8][C:3]([H:9])([H:10])[S:2][C:5]([H:13])([H:14])[C:6]([H:15])([H:16])[C:4]([H:11])([H:12])[O:1][H:7]" dataset="DES370K Monomers" energy=-17195.42755251005 pbc="F F F"
O        3.06283435       1.11789800      -0.67732971       0.58289685       0.92065577       0.15430227
S       -1.95832368      -0.45767285       1.04847117       1.42712445      -0.65677547      -0.98412669
C       -1.10162332      -1.40754391       2.37056442      -0.09103274       0.06469070      -0.70202620
C        1.69293269       0.85804518      -0.89149069      -0.09761864      -0.30412557       0.90320480
C        0.08431634      -0.99616263      -1.40300568       1.06497528      -1.23002089      -0.81455733
C        1.53906962      -0.65158365      -1.06797674      -1.83937181       0.95207487       0.85423128
H        3.14546593       2.04057409      -0.37906740       0.05855478      -0.74091045      -0.25569893
H       -0.91230964      -2.43295314       2.04535171      -0.06539293       0.18942784       0.09553032
H       -1.70759257      -1.43534412       3.27632805      -0.21895523       0.09103682      -0.17779513
H       -0.17464268      -0.91441955       2.61472412       0.29684183       0.03278053       0.09030099
H        1.13624432       1.20064392       0.00634662      -0.11213219      -0.25708983      -0.71445143
H        1.33683040       1.36001839      -1.79298206      -0.15696123       0.09648762       0.06121788
H       -0.01454250      -2.08509026      -1.58779296      -0.54591021       0.62835385       0.91718655
H       -0.31093672      -0.50292505      -2.30743905      -0.33061109       0.42011513       1.06874302
H        1.87323829      -1.19512568      -0.18161454       0.02415274       0.11985890      -0.14645320
H        2.16694339      -0.93712382      -1.90610346       0.00494172      -0.32701937      -0.34777054
