16
Properties=species:S:1:pos:R:3:forces:R:3 id=8206 bond=C-S smiles="[H:8][C:3]([H:9])([H:10])[S:2][C:5]([H:13])([H:14])[C:6]([H:15])([H:16])[C:4]([H:11])([H:12])[O:1][H:7]" dataset="DES370K Monomers" energy=-17199.360584034923 pbc="F F F"
O        2.63007163       1.23198482      -0.15794902       0.63926532       0.96724438       0.19580903
S       -1.52556096      -0.57175967       0.52909048       0.41229020      -0.16904899      -0.09865049
C       -0.66886060      -1.52163073       1.85118373      -0.24830083       0.06062770      -0.48707388
C        1.26016997       0.97213200      -0.37211000      -0.15954711      -0.46846704       0.93914615
C       -0.34844638      -0.88207581      -0.88362499      -0.37849175      -1.22116342       0.59643922
C        1.10630690      -0.53749683      -0.54859605      -0.72128295       0.71521859      -0.36533483
H        2.71270321       2.15466091       0.14031329       0.05515067      -0.74309346      -0.26137560
H       -0.47954692      -2.54703996       1.52597102      -0.01412123       0.15904264       0.01871338
H       -1.27482985      -1.54943094       2.75694736      -0.17388265       0.11974896      -0.29378837
H        0.25812004      -1.02850637       2.09534343       0.27205086       0.01963609       0.10576018
H        0.70348160       1.31473074       0.52572731      -0.06726418      -0.18306135      -0.72575348
H        0.90406768       1.47410521      -1.27360137      -0.16353668       0.10257255       0.05910462
H       -0.44730522      -1.97100344      -1.06841227       0.19579928       0.58652687      -0.03181234
H       -0.74369944      -0.38883823      -1.78805836       0.20622339       0.06626658       0.62318727
H        1.44047557      -1.08103886       0.33776615       0.00807215       0.17268951      -0.20857878
H        1.73418067      -0.82303700      -1.38672277       0.13991145      -0.18604365      -0.06376264
