14
Properties=species:S:1:pos:R:3:forces:R:3 id=42796 bond=C-N smiles="[H:7][C:2](=[C:3]([C:6]([H:13])([H:14])[N:4]([H:9])[C:5]([H:10])([H:11])[H:12])[Cl:1])[H:8]" dataset=PubChem energy=-18292.769230931895 pbc="F F F"
Cl      -1.26044850       1.32340312      -1.35103045       0.32907546       0.52820700       0.75004820
C       -2.12593155       0.05917752       0.82988232       2.02649648       2.72586344      -2.51038451
C       -1.08762448       0.89502287       0.36322041      -2.96945467      -3.16426583       0.13322994
N        1.59157232       0.44757021      -0.12765914      -0.62654724       0.79639189       0.82454272
C        2.89201531       0.07237927       0.55205816      -0.47382730       1.23084740      -0.40784600
C        0.15112001       1.21460301       1.07431830       1.63436742       0.36084665      -0.38771526
H       -1.93976788      -0.46551269       1.75393595      -0.59107263       0.04806111       0.11998922
H       -3.03853373       0.00477029       0.13675048       1.50142221      -0.39622131       1.59789150
H        1.76048908       0.98818026      -1.04703710      -0.67434795      -0.33429039       2.56509532
H        3.69225630      -0.10845079      -0.22279176      -1.11060998      -0.23866604       0.67437425
H        2.65642962      -0.77964892       1.17619660       0.31926210      -0.45596976      -0.19798052
H        3.36873492       0.80292905       1.24418881      -0.55617438       0.05229006      -0.48939220
H        0.27410023       2.31951100       1.19850661       0.39241118      -0.92793712      -0.68809874
H        0.06956808       0.84994136       2.16547527       0.80065036      -0.22641574      -1.97973915
