18
Properties=species:S:1:pos:R:3:forces:R:3 id=17710 bond=C-S smiles="[H:13][C:7]1([C:4](=[C:5]([C:8]([C:9]1([H:17])[H:18])([H:15])[H:16])[N:6]([H:11])[H:12])[C:3](=[S:1])[S:2][H:10])[H:14]" dataset=PubChem energy=-29533.033659169676 pbc="F F F"
S        3.30128937       0.40975096      -1.55690650      -3.85809060      -2.10121135       2.07497987
S        1.53683185      -3.31015763       0.65611591       1.52584609       0.68398878      -0.57676196
C        1.88891750       0.03410044      -0.68417272       2.61252158       3.58131387      -0.22680367
C        1.01909801       1.07133379      -0.10682321       0.97468992      -1.76723077       0.62803233
C        0.11311030       1.14504220       0.96031024      -1.02776854      -2.22534253      -0.20048778
N       -0.20842905       0.11912336       1.82236251       0.29201896       1.44199775      -0.83909411
C        1.10206112       2.41487135      -0.78262965       1.31135486       1.14960604       1.64854184
C       -0.72745914       2.39280500       0.80169894       0.39293138       1.03309454       0.91155921
C        0.09791427       3.38415255      -0.01685649       1.45034974      -0.53602517      -0.69644753
H        2.89557217      -3.63240656       0.40869005      -1.63048756       0.53154838       0.29967382
H        0.48228682      -0.62778363       1.88390489      -0.67364492      -0.20631186      -0.15818810
H       -1.17552251      -0.00790153       2.16718276       1.39482480       0.26595932      -0.19844475
H        2.18877750       2.76270141      -0.64417926      -1.57909102      -0.31737111      -0.84057189
H        0.81864139       2.19485481      -1.78239492       0.12480808       0.69994254      -1.12520197
H       -1.48277706       2.11904837       0.14038791      -1.66487592      -0.87999087      -1.03455456
H       -1.25239104       2.85974278       1.64897736       0.61231188      -0.56987647       0.11038819
H       -0.45191140       3.96423330      -0.76792565      -0.19660251      -0.27983071       0.47928803
H        0.63005340       4.11300387       0.61573230      -0.06108509      -0.50475061      -0.25640152
