24
Properties=species:S:1:pos:R:3:forces:R:3 id=13486 bond=C-N smiles="[H:13][C:4]([H:14])([H:15])[C:8]1([C:9]([N:2]1[C:3]([H:11])([H:12])[O:1][H:10])([C:6]([H:19])([H:20])[H:21])[C:7]([H:22])([H:23])[H:24])[C:5]([H:16])([H:17])[H:18]" dataset=PubChem energy=-11043.920623714983 pbc="F F F"
O        0.30289279       3.05807781      -0.38537653       0.82429861       7.54299333      -0.04563257
N        0.68984829       1.19679771      -0.27364367      -2.66395908      -6.43079569      -1.39289593
C       -0.46626664       2.03306019      -0.71061190      -0.24108804      -1.71642644       1.74072865
C       -0.10763610       1.12976204       2.33297146       1.38481302       1.37294608      -1.18730256
C        2.38227349       0.75375605       1.54678333      -2.64597705       1.43007538       3.62765066
C       -0.83983070      -0.87551542       0.03005123      -0.66921500       0.96804321       1.18007453
C        1.53973979      -1.04390605      -0.47811818       1.02365752       0.20136620      -2.66740000
C        0.94192191       0.86653451       1.14457131      -2.71777318      -2.64279920       0.76903486
C        0.49989533      -0.19325860       0.11029923       0.35292244       0.45644389      -0.28819831
H        1.02294873       2.46834218      -0.03978696       0.96100916       3.35561239      -0.40744981
H       -0.85583712       1.94462883      -1.75498613       0.88970639      -0.29573799       0.60170148
H       -1.31515659       2.06392169      -0.00237902      -0.22351856      -0.80341171      -0.51409480
H       -0.49348504       0.19133054       2.69950831       0.01035221      -0.21699318       0.13312046
H       -0.96103221       1.72868280       1.93325985       0.73975400      -0.38007996       0.57031915
H        0.41828514       1.68897359       3.17260969      -0.83680576      -0.65411419      -1.12288976
H        2.53195911       1.52878503       2.29488528       0.27929438       0.44886401       0.00197098
H        3.05060189       0.91610305       0.82899962       2.54385270       0.29000384      -3.10360866
H        2.58872717      -0.10867752       2.13638020       0.00313274      -1.10305014      -0.05999294
H       -0.84481555      -1.74693270       0.69279515       0.20740884      -0.31262298      -0.68092486
H       -1.11481387      -1.06609734      -1.01188218       0.14296512      -0.33893453       0.34522321
H       -1.62684017      -0.27757998       0.48123343      -0.15848918       0.33278463      -0.19981490
H        1.24242037      -1.82671209      -1.19776654      -0.36848379       0.39928692       0.49642036
H        2.08156961      -1.47776551       0.26748813       1.54479625      -1.71061419       2.00768793
H        2.27492374      -0.42713459      -1.02554988      -0.38204551      -0.19174357       0.19671411
