24
Properties=species:S:1:pos:R:3:forces:R:3 id=13486 bond=C-N smiles="[H:13][C:4]([H:14])([H:15])[C:8]1([C:9]([N:2]1[C:3]([H:11])([H:12])[O:1][H:10])([C:6]([H:19])([H:20])[H:21])[C:7]([H:22])([H:23])[H:24])[C:5]([H:16])([H:17])[H:18]" dataset=PubChem energy=-11043.902401278034 pbc="F F F"
O        0.19936011       3.13296699      -0.42450802       1.37142982       4.17944990      -0.08158539
N        0.79338097       1.12190853      -0.23451218      -3.81911158      -1.88440508      -1.83620404
C       -0.56979932       2.10794937      -0.74974339       0.51098324      -2.37150582       2.15945038
C       -0.00410342       1.05487286       2.37210295       1.36713293       1.33921549      -1.14939371
C        2.48580617       0.67886687       1.58591482      -2.62473562       1.45908080       3.61415166
C       -0.73629802      -0.95040460       0.06918272      -0.67324903       0.96812991       1.15548271
C        1.64327247      -1.11879523      -0.43898669       1.03844652       0.19996373      -2.72018766
C        1.04545459       0.79164533       1.18370280      -2.87778566      -2.45305358       0.69525743
C        0.60342801      -0.26814778       0.14943072       0.33128732       0.83253159      -0.25943231
H        0.91941605       2.54323136      -0.07891845       0.62139347       2.68510050      -0.38774349
H       -0.95936980       2.01951801      -1.79411762       1.02932519      -0.45967760       0.57177351
H       -1.41868927       2.13881087      -0.04151051      -0.02113448      -1.08482489      -0.36745889
H       -0.38995236       0.11644136       2.73863980       0.00773041      -0.21718323       0.16192417
H       -0.85749953       1.65379362       1.97239134       0.74926810      -0.39071518       0.53464927
H        0.52181782       1.61408441       3.21174118      -0.84283583      -0.65409904      -1.10317310
H        2.63549179       1.45389585       2.33401677       0.27802079       0.45069929      -0.00082184
H        3.15413457       0.84121387       0.86813111       2.54059703       0.29642063      -3.10022096
H        2.69225985      -0.18356670       2.17551169       0.00349193      -1.11468847      -0.05517140
H       -0.74128287      -1.82182188       0.73192664       0.21394850      -0.31830490      -0.67971949
H       -1.01128119      -1.14098652      -0.97275069       0.15019512      -0.33032497       0.33959748
H       -1.52330749      -0.35246916       0.52036492      -0.14018201       0.36431657      -0.19832488
H        1.34595305      -1.90160127      -1.15863505      -0.36944947       0.39865044       0.49315190
H        2.18510229      -1.55265469       0.30661962       1.53922839      -1.69677004       2.01622909
H        2.37845642      -0.50202377      -0.98641839      -0.38375747      -0.19759576       0.19813290
