24
Properties=species:S:1:pos:R:3:forces:R:3 id=25398 bond=C-C smiles="[H:11][C:3](=[C:4]1[C:8]([C:6]([O:2][C:7]([O:1]1)([H:18])[C:10]([H:23])([H:24])[C:9]([H:21])([H:22])[C:5]([H:13])([H:14])[H:15])([H:16])[H:17])([H:19])[H:20])[H:12]" dataset=PubChem energy=-12620.734206411431 pbc="F F F"
O        0.94734673       1.79036552      -0.76436877      -0.24313879      -0.71926732      -0.28889786
O        0.85306536      -0.48510367      -0.06120061       0.40707920       0.53393831      -0.08630456
C        0.34858068       2.43351203      -2.95015162       0.01121839      -1.27311488       1.10701449
C        0.50354474       1.41889989      -2.02240079      -0.72277403       2.82404899      -1.74026760
C        1.14713251       0.02669670       4.29149006       0.04157831       0.48335201      -0.42456051
C        0.02695055      -0.91305285      -1.18227178       0.30319231       1.52617285       0.89621107
C        0.74871360       0.90338462       0.34837550      -0.32597214      -1.34281641      -0.89906638
C        0.26812199      -0.01208001      -2.39363473       0.60020727      -0.76659510       0.35372141
C       -0.93163319       0.08321744       2.16973621       0.01730396       1.78765271      -0.55067989
C       -0.58803357       1.12653619       1.06565339       0.88048673       0.35376936       1.16039266
H       -0.07774911       2.29270536      -3.97051137       0.63228308      -0.25933556       1.10100330
H        0.63880716       3.45355326      -2.68530315      -0.23030992      -0.42340943       0.01672218
H        2.09917760      -0.37182625       3.93425558      -0.53768048      -0.01252358      -0.65254705
H        1.30677634       1.04325304       4.66767237      -0.54199058      -0.05126407      -0.63307286
H        0.78760787      -0.58643939       5.09683726      -0.75439878      -0.37271362      -0.13205160
H       -1.02532942      -0.86190551      -0.87151092       0.15927877      -0.18301879      -0.14835497
H        0.31209843      -1.92573184      -1.42381233      -0.00924891      -0.21899045       0.30284869
H        1.58281498       1.16576952       1.01576555      -0.28618592      -0.71626913      -0.21169291
H        1.15578167      -0.37333208      -2.96200817      -0.61065697       0.20751329       0.43597619
H       -0.60835172      -0.10692877      -3.02406877       0.06112804       0.23370017      -0.33541549
H       -1.87813015       0.40688384       2.63844067       0.91599436      -0.22830481       0.50409454
H       -1.06010742      -0.89073878       1.74401123       0.62540848      -0.75240321       0.35508418
H       -1.37463159       1.17155904       0.30468258      -0.16722150      -0.18075072       0.20119953
H       -0.52095504       2.12962324       1.52968485      -0.22725701      -0.44990138      -0.33228323
