24
Properties=species:S:1:pos:R:3:forces:R:3 id=25398 bond=C-C smiles="[H:11][C:3](=[C:4]1[C:8]([C:6]([O:2][C:7]([O:1]1)([H:18])[C:10]([H:23])([H:24])[C:9]([H:21])([H:22])[C:5]([H:13])([H:14])[H:15])([H:16])[H:17])([H:19])[H:20])[H:12]" dataset=PubChem energy=-12605.406522570182 pbc="F F F"
O        1.67249755       1.77064898      -0.02422208      -0.16551740      -0.71149616      -0.23499522
O        1.57821618      -0.50482021       0.67894608       0.41297026       0.47795312       0.01620493
C        1.07373150       2.41379549      -2.21000493       0.02321960      -1.27736750       1.11595713
C        1.22869556       1.39918335      -1.28225410      -0.74628508       2.82350591      -1.73484966
C        0.42198169       0.04641324       3.55134337      76.31841193      -2.32253441      78.25923325
C        0.75210137      -0.93276939      -0.44212509       0.19400425       1.48151338       0.84836915
C        1.47386442       0.88366808       1.08852219      -0.43814515      -1.18217788      -0.80393960
C        0.99327281      -0.03179655      -1.65348804       0.62276091      -0.76273094       0.37063557
C       -0.20648237       0.06350090       2.90988290     -75.97210196       3.64908236     -77.91495454
C        0.13711725       1.10681965       1.80580008      -1.10744772       0.81824320      -2.36196167
H        0.64740171       2.27298882      -3.23036468       0.63427373      -0.26094686       1.10104873
H        1.36395798       3.43383672      -1.94515646      -0.23414987      -0.42335511       0.01758426
H        1.37402678      -0.35210971       3.19410889       1.38030761      -0.05313602       1.02816811
H        0.58162552       1.06296958       3.92752568       1.36893267       0.17954476       1.68197479
H        0.06245705      -0.56672285       4.35669057       1.40793011      -0.70349099       2.02658370
H       -0.30017860      -0.88162205      -0.13136423       0.20158308      -0.17581778      -0.12999869
H        1.03724925      -1.94544838      -0.68366564       0.00484258      -0.21822448       0.30082628
H        2.30796580       1.14605298       1.75591224      -0.15584770      -0.69517691      -0.33587237
H        1.88093249      -0.39304862      -2.22186148      -0.60862204       0.21042951       0.43070741
H        0.11679910      -0.12664531      -2.28392208       0.05942371       0.23057141      -0.32481466
H       -1.15297933       0.38716730       3.37858736      -1.55968672       0.13320450      -1.61868655
H       -0.33495660      -0.91045532       2.48415792      -1.51181309      -0.80883887      -1.73400205
H       -0.64948077       1.15184250       1.04482927       0.10258903       0.09653776       0.00558324
H        0.20419578       2.10990670       2.26983154      -0.23166055      -0.50652550      -0.01055506
