24
Properties=species:S:1:pos:R:3:forces:R:3 id=25398 bond=C-C smiles="[H:11][C:3](=[C:4]1[C:8]([C:6]([O:2][C:7]([O:1]1)([H:18])[C:10]([H:23])([H:24])[C:9]([H:21])([H:22])[C:5]([H:13])([H:14])[H:15])([H:16])[H:17])([H:19])[H:20])[H:12]" dataset=PubChem energy=-12625.706783006077 pbc="F F F"
O        1.42272338       1.77744023      -0.27916149      -0.19893122      -0.72011940      -0.28992887
O        1.32844201      -0.49802896       0.42400667       0.46853167       0.49498985      -0.07342933
C        0.82395733       2.42058674      -2.46494434       0.01776892      -1.27467091       1.10411350
C        0.97892139       1.40597460      -1.53719351      -0.72113937       2.82826106      -1.71917238
C        0.67175586       0.03962199       3.80628278      -1.13092304       0.35174468      -1.51164356
C        0.50232720      -0.92597814      -0.69706450       0.26110893       1.50899870       0.90080185
C        1.22409025       0.89045933       0.83358278      -0.46447092      -1.26215038      -0.80217996
C        0.74349864      -0.02500530      -1.90842745       0.60657879      -0.76389855       0.36263243
C       -0.45625654       0.07029215       2.65494349       1.38443203       1.47052984       0.98411394
C       -0.11265692       1.11361090       1.55086067       0.03321971       0.36205540       0.16712292
H        0.39762754       2.27978007      -3.48530409       0.63194088      -0.25970186       1.10078407
H        1.11418381       3.44062797      -2.20009587      -0.23242626      -0.42344583       0.01740849
H        1.62380095      -0.35890096       3.44904830      -0.22212298       0.03581628      -0.04750425
H        0.83139969       1.05617833       4.18246509      -0.02252560      -0.21080576      -0.07011960
H        0.31223122      -0.57351410       4.61162998      -0.02474857      -0.26541073       0.39977754
H       -0.54995277      -0.87483080      -0.38630364       0.17572848      -0.17855399      -0.13683793
H        0.78747508      -1.93865713      -0.93860505      -0.00298382      -0.21945442       0.29963129
H        2.05819163       1.15284423       1.50097283      -0.21085574      -0.70190731      -0.30139755
H        1.63115832      -0.38625737      -2.47680089      -0.60927755       0.20879497       0.43356894
H       -0.13297507      -0.11985406      -2.53886149       0.06020867       0.23287195      -0.33147501
H       -1.40275350       0.39395855       3.12364795       0.40050310      -0.27175246      -0.23572615
H       -0.58473077      -0.90366407       2.22921851      -0.03831744      -0.50844878      -0.17162261
H       -0.89925494       1.15863375       0.78988986       0.02576763      -0.00472318       0.18565680
H       -0.04557839       2.11669795       2.01489213      -0.18387704      -0.42821465      -0.26439974
