24
Properties=species:S:1:pos:R:3:forces:R:3 id=25398 bond=C-C smiles="[H:11][C:3](=[C:4]1[C:8]([C:6]([O:2][C:7]([O:1]1)([H:18])[C:10]([H:23])([H:24])[C:9]([H:21])([H:22])[C:5]([H:13])([H:14])[H:15])([H:16])[H:17])([H:19])[H:20])[H:12]" dataset=PubChem energy=-12620.854766024097 pbc="F F F"
O        0.96346119       1.78992738      -0.74792106      -0.24249733      -0.71918366      -0.29021375
O        0.86917982      -0.48554181      -0.04475290       0.40875039       0.53289906      -0.08701305
C        0.36469514       2.43307389      -2.93370391       0.01135926      -1.27313129       1.10671564
C        0.51965920       1.41846175      -2.00595308      -0.72223069       2.82427324      -1.73936782
C        1.13101805       0.02713484       4.27504235      -0.04015994       0.48336159      -0.50702354
C        0.04306501      -0.91349099      -1.16582407       0.30266548       1.52608432       0.89685733
C        0.76482806       0.90294648       0.36482321      -0.33137755      -1.34160830      -0.89372601
C        0.28423645      -0.01251815      -2.37718702       0.60013524      -0.76654391       0.35388840
C       -0.91551873       0.08277930       2.18618392       0.10294304       1.77806151      -0.45753313
C       -0.57191911       1.12609805       1.08210110       0.86811814       0.35623655       1.14289725
H       -0.06163465       2.29226722      -3.95406366       0.63223264      -0.25932275       1.10098789
H        0.65492162       3.45311512      -2.66885544      -0.23036349      -0.42339985       0.01674638
H        2.08306314      -0.37138811       3.91780787      -0.53679224      -0.01140971      -0.64569188
H        1.29066188       1.04369118       4.65122466      -0.53711033      -0.05535165      -0.62777038
H        0.77149341      -0.58600125       5.08038955      -0.74503424      -0.36932298      -0.12819463
H       -1.00921496      -0.86234365      -0.85506321       0.15959937      -0.18293486      -0.14819838
H        0.32821289      -1.92616998      -1.40736462      -0.00912497      -0.21903992       0.30272010
H        1.59892944       1.16533138       1.03221326      -0.28519211      -0.71630639      -0.21281505
H        1.17189613      -0.37377022      -2.94556046      -0.61060516       0.20754471       0.43591365
H       -0.59223726      -0.10736691      -3.00762106       0.06110078       0.23371360      -0.33539834
H       -1.86201569       0.40644570       2.65488838       0.91283652      -0.23008775       0.49404753
H       -1.04399296      -0.89117692       1.76045894       0.61801646      -0.74648298       0.35090480
H       -1.35851713       1.17112090       0.32113029      -0.16317697      -0.17808791       0.20223117
H       -0.50484058       2.12918510       1.54613256      -0.22591373      -0.45025896      -0.33175041
