24
Properties=species:S:1:pos:R:3:forces:R:3 id=25398 bond=C-C smiles="[H:11][C:3](=[C:4]1[C:8]([C:6]([O:2][C:7]([O:1]1)([H:18])[C:10]([H:23])([H:24])[C:9]([H:21])([H:22])[C:5]([H:13])([H:14])[H:15])([H:16])[H:17])([H:19])[H:20])[H:12]" dataset=PubChem energy=-12623.749377882732 pbc="F F F"
O        1.24546429       1.78225983      -0.46008624      -0.21980161      -0.71994741      -0.29889424
O        1.15118292      -0.49320936       0.24308192       0.44926420       0.51038074      -0.08980214
C        0.64669824       2.42540634      -2.64586909       0.01496613      -1.27378515       1.10317885
C        0.80166230       1.41079420      -1.71811826      -0.71722121       2.82741100      -1.72397633
C        0.84901495       0.03480239       3.98720753      -1.86226329       0.46163585      -2.33180690
C        0.32506811      -0.92115854      -0.87798925       0.28365563       1.51944951       0.90486581
C        1.04683116       0.89527893       0.65265803      -0.43080452      -1.30533144      -0.81290159
C        0.56623955      -0.02018570      -2.08935220       0.60173092      -0.76510980       0.35839390
C       -0.63351563       0.07511175       2.47401874       2.03215202       1.55134025       1.61301526
C       -0.28991601       1.11843050       1.36993592       0.49004603       0.37960947       0.68945518
H        0.22036845       2.28459967      -3.66622884       0.63161780      -0.25935547       1.10081646
H        0.93692472       3.44544757      -2.38102062      -0.23153392      -0.42335854       0.01716767
H        1.80106004      -0.36372056       3.62997305      -0.45283106       0.01510542      -0.40973670
H        1.00865878       1.05135873       4.36338984      -0.35249051      -0.14615208      -0.42870272
H        0.48949031      -0.57833370       4.79255473      -0.44738659      -0.29596729       0.05225434
H       -0.72721186      -0.87001120      -0.56722839       0.16770294      -0.18047488      -0.14239347
H        0.61021599      -1.93383753      -1.11952980      -0.00593992      -0.21961753       0.30052898
H        1.88093254       1.15766383       1.32004808      -0.24866223      -0.71120036      -0.25574759
H        1.45389923      -0.38143777      -2.65772564      -0.60969726       0.20824504       0.43458154
H       -0.31023416      -0.11503446      -2.71978624       0.06053067       0.23358151      -0.33386485
H       -1.58001259       0.39877815       2.94272320       0.74769732      -0.26491141       0.18838789
H       -0.76198986      -0.89884447       2.04829376       0.35864797      -0.60675557       0.16847192
H       -1.07651403       1.16345335       0.60896511      -0.06074405      -0.09075132       0.20813688
H       -0.22283748       2.12151755       1.83396738      -0.19772041      -0.44254658      -0.30978435
