24
Properties=species:S:1:pos:R:3:forces:R:3 id=25398 bond=C-C smiles="[H:11][C:3](=[C:4]1[C:8]([C:6]([O:2][C:7]([O:1]1)([H:18])[C:10]([H:23])([H:24])[C:9]([H:21])([H:22])[C:5]([H:13])([H:14])[H:15])([H:16])[H:17])([H:19])[H:20])[H:12]" dataset=PubChem energy=-12625.771272078473 pbc="F F F"
O        1.43883784       1.77700209      -0.26271379      -0.19716975      -0.72009501      -0.28839047
O        1.34455647      -0.49846710       0.44045437       0.46903127       0.49378064      -0.07083063
C        0.84007179       2.42014860      -2.44849664       0.01801076      -1.27477354       1.10439053
C        0.99503585       1.40553646      -1.52074581      -0.72187789       2.82824851      -1.71906571
C        0.65564140       0.04006013       3.78983508      -0.61337399       0.32543964      -0.97001426
C        0.51844166      -0.92641628      -0.68061680       0.25853965       1.50781764       0.89983139
C        1.24020471       0.89002119       0.85003048      -0.46485649      -1.25723825      -0.80327056
C        0.75961310      -0.02544344      -1.89197975       0.60718678      -0.76379210       0.36308231
C       -0.44014208       0.06985401       2.67139119       0.87306916       1.48057056       0.46267576
C       -0.09654246       1.11317276       1.56730837      -0.01941349       0.36195434       0.09863904
H        0.41374200       2.27934193      -3.46885639       0.63201114      -0.25974658       1.10078206
H        1.13029827       3.44018983      -2.18364817      -0.23250781      -0.42345026       0.01742892
H        1.60768649      -0.35846282       3.43260060      -0.18359529       0.03666210      -0.00166486
H        0.81528523       1.05661647       4.16601739       0.02407818      -0.21336531      -0.01803419
H        0.29611676      -0.57307596       4.59518228       0.02937240      -0.26737036       0.44985956
H       -0.53383831      -0.87526894      -0.36985594       0.17663946      -0.17837004      -0.13626516
H        0.80358954      -1.93909527      -0.92215735      -0.00267564      -0.21941175       0.29960480
H        2.07430609       1.15240609       1.51742053      -0.20740785      -0.70101410      -0.30547131
H        1.64727278      -0.38669551      -2.46035319      -0.60924153       0.20884950       0.43346277
H       -0.11686061      -0.12029220      -2.52241379       0.06017722       0.23277616      -0.33119909
H       -1.38663904       0.39352041       3.14009565       0.34750529      -0.26877939      -0.28960771
H       -0.56861631      -0.90410221       2.24566621      -0.09006284      -0.50343002      -0.21989047
H       -0.88314048       1.15819561       0.80633756       0.03325306       0.00294807       0.18144670
H       -0.02946393       2.11625981       2.03133983      -0.18348148      -0.42761113      -0.25761189
