38
Properties=species:S:1:pos:R:3:forces:R:3 id=43473 bond=C-P smiles="[H:17][C:3]1([C:5]([C:9]([C:13]([C:10]([C:6]1([H:23])[H:24])([H:31])[H:32])([H:37])[P:15](=[S:1])([C:14]2([C:11]([C:7]([C:4]([C:8]([C:12]2([H:35])[H:36])([H:27])[H:28])([H:19])[H:20])([H:25])[H:26])([H:33])[H:34])[H:38])[S:2][H:16])([H:29])[H:30])([H:21])[H:22])[H:18]" dataset=PubChem energy=-43791.15876979117 pbc="F F F"
S       -1.79953505      -1.50543429       0.19997705      -0.78832607      -1.08831060       0.98469567
S        0.30121475      -1.84788563      -1.96457928       0.54271940      -0.35761795      -0.03150595
C        2.38670360      -0.10811098       3.51412016       2.49620460      -1.12754046       1.32093598
C       -0.84947139       3.36524707      -1.60017874       1.01826407       0.44873582       0.67602987
C        1.28357064      -1.10414197       3.67081076      -1.16935986      -1.51732716      -0.06729929
C        3.14369248      -0.33770981       2.19922406       2.49421352       1.13410401       0.42136141
C        0.61778025       2.97089964      -1.55568268       1.11840295      -1.93745565      -1.11586490
C       -1.71486873       2.77215416      -0.56392696      -1.36137775      -2.52370441       0.03610282
C        0.33364062      -0.95380284       2.48529083      -0.58429967      -1.11977314      -0.58848836
C        2.25864564      -0.03588404       1.06726415      -0.06370950       2.19790114      -0.29543797
C        0.70937630       1.38840849      -1.55220058       0.99955384       0.75467899      -0.61151534
C       -1.64662761       1.20871824      -0.61867871      -0.57454373       2.03149161       0.59547457
C        1.13241868      -0.99422218       1.12097717      -1.82596504      -0.47530446      -0.18472566
C       -0.15245760       0.77617589      -0.42777433      -1.84442213      12.59949635      -4.39762635
P       -0.06719918      -0.70701768      -0.24151259      -0.37226063     -14.37627912       2.48164094
H       -0.55390323      -2.74542333      -1.34192400       0.67520670       0.57960583      -0.68823716
H        3.17867898      -0.42604901       4.25338108      -0.92522339       1.19308384      -0.03921926
H        2.04069780       0.93672686       3.61910517       0.40742866      -0.51968972       0.03330393
H       -1.23628802       3.19453890      -2.56230571      -0.44639607      -0.07832532      -1.34715490
H       -0.90806204       4.36720139      -1.32810154       0.05261997       2.29146260      -0.51218181
H        1.73898195      -2.17272927       3.66371710      -0.81840870       1.71715778       0.09827529
H        0.61891970      -1.00255682       4.57811863       1.19592398      -0.02847681      -0.61518233
H        3.52348565      -1.37753226       2.04676253      -0.28573808       0.64505760       0.67163100
H        4.09077905       0.34878255       2.14675457      -1.64825139      -1.19104138       0.27885041
H        1.17623424       3.18913156      -0.64696767      -0.36688496       0.84599092       0.13600239
H        1.20612257       3.41996104      -2.44824149      -1.02192397      -0.84250384       1.50026101
H       -2.79424709       3.08485085      -0.60167053       1.08184637      -0.15740066      -0.31103706
H       -1.35633964       3.09174377       0.37611655       0.35673114       0.31934830       1.33441285
H       -0.40389342      -1.79704477       2.47844381       0.73204701       0.78808663      -0.13670150
H       -0.31210936      -0.05886599       2.60348303       0.63865747      -0.20407547      -0.26543386
H        2.83567308      -0.04327669       0.15077550      -0.20464593      -0.17845029      -0.41586392
H        1.88543009       1.03151266       1.21185452       0.44290303      -1.18529280      -0.30323411
H        0.24909263       0.97662110      -2.43039157      -0.06359683       0.02151269      -0.77061148
H        1.78630358       1.03741539      -1.59456684      -1.26391263       0.38829794       0.43140622
H       -2.21178073       0.79623461       0.26182542       0.37825150       0.40517106      -1.52513421
H       -2.05574149       0.93345726      -1.61891892       0.31542760      -0.41909046       1.01543057
H        1.50370847      -2.00203015       0.98828755       0.08349005      -0.27736216       0.02509189
H        0.12815153       1.16855747       0.47840650       0.60187038       1.24977584       2.17699913
