16
Properties=species:S:1:pos:R:3:forces:R:3 id=24904 bond=C-S smiles="[H:10][C:4]([H:11])([H:12])[C:6]([H:15])([H:16])[C:5]([H:13])([H:14])[S:2][S:1][C:3]([H:7])([H:8])[H:9]" dataset="DES370K Monomers" energy=-25983.9981254648 pbc="F F F"
S       -0.99505105       0.30513287      -0.92399240       2.13398830      -1.24290620      -0.15082624
S        0.99688480       0.59070420      -1.46261299      -1.77271197       0.31033163       1.08844730
C       -0.64012132      -3.09270597       0.27313590       0.20164104      -0.79785671       1.60298030
C        2.95301769      -0.47894286       1.03273487       0.18600483       0.15532215       0.20560357
C        1.62875388       1.47195602       0.03749746      -0.25749343      -0.81641508       0.15708039
C        1.85862873       0.55152513       1.23006975      -1.26649726      -0.66764906       0.63347514
H       -1.52162788      -3.38996554       0.84491855      -0.33620196       0.80441894      -0.41527913
H        0.20028781      -3.13672305       0.99281663      -0.15523606       0.84991659      -0.79648834
H       -0.50210808      -3.75941301      -0.55827605       0.10927143       0.49925961      -0.80549624
H        3.92103288      -0.00978409       0.80909371      -0.18323139      -0.19221263       0.29190559
H        2.74107311      -1.16921984       0.22864866      -0.21597077      -0.05686895      -0.31160188
H        2.98359773      -1.07331716       1.94267225       0.48960583      -0.04248348       0.01996439
H        2.53220103       1.99188007      -0.23349428       0.46489694      -0.00186267      -0.31396347
H        0.91454742       2.21936990       0.31037950      -0.55379554       0.40128134      -0.10514794
H        0.89615092      -0.02876901       1.49408662       1.26614032       1.12293742      -0.53824059
H        2.08492611       1.17951495       2.11944294      -0.10863086      -0.32553053      -0.55844016
