20
Properties=species:S:1:pos:R:3:forces:R:3 id=3488 bond=C-S smiles="[H:13][c:4]1[n:2][c:6]2[c:7]([c:5]([n:1]1)[S:3][H:12])[C:9]([N:8]([C:11]2([H:20])[C:10]([H:17])([H:18])[H:19])[H:14])([H:15])[H:16]" dataset=PubChem energy=-22708.641052455452 pbc="F F F"
N        2.74333969       2.31481067       0.57851960      -2.85229718       4.95282053       1.76309351
N        0.45732567       2.19222549       1.14409726      -1.39134895       0.43463931       0.75314113
S        3.79513014       0.52716915      -0.01544053      58.44895797     -27.41831474     -18.33543976
C        1.58180902       2.88023011       1.00782512       0.73744792      -2.38598898      -0.55244541
C        2.76716152       1.00668297       0.30698733     -53.73319221      25.26020152      17.33661343
C        0.48174504       0.87126116       0.91824608       1.67273064      -0.47734384      -0.66012047
C        1.63599018       0.24183005       0.48905211      -3.42052612      -0.43338045       0.47221943
N        0.01343110      -1.41745873       0.49102964      -0.06570624      -0.13233194      -0.25950942
C        1.46347240      -1.23331984       0.27382413      -0.73503216       0.99827454      -0.23663064
C       -1.78519591       0.23235340       0.08200867      -0.30435690       1.10395941       0.59493284
C       -0.63426825      -0.16206469       0.97447930       0.59324106      -0.29518054      -0.08258137
H        4.55328167       1.66345966       0.16190293       0.48467169      -0.52013010      -0.48232673
H        1.55035546       3.92448799       1.31113390       0.31059431      -0.18560976      -0.35197489
H       -0.45213469      -1.75462754      -0.35078264       0.35274374       0.27025556       0.40861858
H        1.76847646      -1.53086646      -0.73016204       0.00775007      -0.12056207      -0.02375719
H        2.06190577      -1.77352102       0.98367678       0.27978935      -0.56717079       0.38103294
H       -2.30578073      -0.64375706      -0.22148968      -0.60592840      -0.67507080      -0.27252927
H       -2.46914729       0.86446438       0.66524776       0.10010300      -0.11880891      -0.38916620
H       -1.46750483       0.79478110      -0.79986573       0.06762254      -0.17085524       0.14837610
H       -0.97889385      -0.37233909       1.99685727       0.05508539       0.47870930      -0.20843267
