20
Properties=species:S:1:pos:R:3:forces:R:3 id=3488 bond=C-S smiles="[H:13][c:4]1[n:2][c:6]2[c:7]([c:5]([n:1]1)[S:3][H:12])[C:9]([N:8]([C:11]2([H:20])[C:10]([H:17])([H:18])[H:19])[H:14])([H:15])[H:16]" dataset=PubChem energy=-22716.196048078997 pbc="F F F"
N        1.85880855       2.72741557       0.85595752       0.30149156      -2.80102250      -0.60304995
N       -0.42720547       2.60483039       1.42153518      -0.59903302      -0.65374140       0.38022780
S        4.67966128       0.11456425      -0.29287845      -1.22869809       1.36219296       0.59478275
C        0.69727788       3.29283501       1.28526304       0.26970498      -1.26065131      -0.21602304
C        1.88263038       1.41928787       0.58442525      -0.36639720       4.10808201       1.11627901
C       -0.40278610       1.28386606       1.19568400       0.66556391       0.97672965      -0.03335056
C        0.75145904       0.65443495       0.76649003       1.83736662      -1.48835469      -0.81855124
N       -0.87110004      -1.00485383       0.76846756      -0.13413702      -0.04694652      -0.30528293
C        0.57894126      -0.82071494       0.55126205      -0.85109891       0.62109229      -0.24544497
C       -2.66972705       0.64495830       0.35944659      -0.31753077       1.17862331       0.58694849
C       -1.51879939       0.25054021       1.25191722       0.52107103      -0.59608836      -0.17948628
H        5.43781281       1.25085476      -0.11553499      -0.66600183      -0.65302857      -0.06151327
H        0.66582432       4.33709289       1.58857182       0.32587004      -0.21948699      -0.37521635
H       -1.33666583      -1.34202264      -0.07334472       0.32872302       0.26691724       0.41904278
H        0.88394532      -1.11826156      -0.45272412       0.01140759       0.03430300       0.09221772
H        1.17737463      -1.36091612       1.26111470       0.22354559      -0.38422170       0.34906857
H       -3.19031187      -0.23115216       0.05594824      -0.57341608      -0.66393720      -0.25523392
H       -3.35367843       1.27706928       0.94268568       0.09086156      -0.12530562      -0.39167044
H       -2.35203597       1.20738600      -0.52242781       0.05302292      -0.18646376       0.13850777
H       -1.86342499       0.04026581       2.27429519       0.10848330       0.53189055      -0.19313310
