20
Properties=species:S:1:pos:R:3:forces:R:3 id=3488 bond=C-S smiles="[H:13][c:4]1[n:2][c:6]2[c:7]([c:5]([n:1]1)[S:3][H:12])[C:9]([N:8]([C:11]2([H:20])[C:10]([H:17])([H:18])[H:19])[H:14])([H:15])[H:16]" dataset=PubChem energy=-22698.792218885774 pbc="F F F"
N        2.79115218       2.29250770       0.56352295      -3.65742936       6.21849358       2.21552001
N        0.50513816       2.16992252       1.12910061      -1.42610482       0.69702806       0.79843082
S        3.74731765       0.54947212      -0.00044388      99.46758039     -47.07405301     -31.29465789
C        1.62962151       2.85792714       0.99282847       0.61154149      -2.42195960      -0.51881781
C        2.81497401       0.98438000       0.29199068     -93.56709836      43.46261594      29.74560692
C        0.52955753       0.84895819       0.90324943       1.87302771      -0.68877496      -0.75812080
C        1.68380267       0.21952708       0.47405546      -4.58105356      -0.44465496       0.71326472
N        0.06124359      -1.43976170       0.47603299      -0.03204556      -0.11758939      -0.24770947
C        1.51128489      -1.25562281       0.25882748      -0.67539649       1.01850827      -0.25435508
C       -1.73738342       0.21005043       0.06701202      -0.29884680       1.10742010       0.59606993
C       -0.58645576      -0.18436766       0.95948265       0.62193446      -0.28386463      -0.07681754
H        4.50546918       1.68576263       0.17689958       1.05716014      -0.34162295      -0.59251693
H        1.59816795       3.90218502       1.29613725       0.32474097      -0.17933006      -0.34865747
H       -0.40432220      -1.77693051      -0.36577929       0.36023082       0.27275185       0.40434960
H        1.81628895      -1.55316943      -0.74515869       0.01113740      -0.14106359      -0.03414559
H        2.10971826      -1.79582399       0.96868013       0.28534114      -0.59270217       0.37934978
H       -2.25796824      -0.66606003      -0.23648633      -0.60554737      -0.67758223      -0.27268131
H       -2.42133480       0.84216141       0.65025111       0.10128593      -0.11870474      -0.38911492
H       -1.41969234       0.77247813      -0.81486238       0.06877781      -0.16985939       0.14918769
H       -0.93108136      -0.39464206       1.98186062       0.05311898       0.47832144      -0.20809794
