20
Properties=species:S:1:pos:R:3:forces:R:3 id=3488 bond=C-S smiles="[H:13][c:4]1[n:2][c:6]2[c:7]([c:5]([n:1]1)[S:3][H:12])[C:9]([N:8]([C:11]2([H:20])[C:10]([H:17])([H:18])[H:19])[H:14])([H:15])[H:16]" dataset=PubChem energy=-22706.64789312361 pbc="F F F"
N        2.75529281       2.30923492       0.57477044      -3.03855432       5.24813703       1.86925075
N        0.46927879       2.18664974       1.14034810      -1.40134488       0.49522237       0.76419905
S        3.78317702       0.53274490      -0.01169137      66.85397541     -31.45671770     -20.99123330
C        1.59376214       2.87465436       1.00407596       0.71248277      -2.39692212      -0.54628449
C        2.77911464       1.00110722       0.30323817     -61.86262606      28.96940040      19.86918943
C        0.49369816       0.86568541       0.91449692       1.72097346      -0.52594208      -0.68384262
C        1.64794330       0.23625430       0.48530295      -3.69295896      -0.44028192       0.52731980
N        0.02538422      -1.42303448       0.48728048      -0.05823144      -0.12957795      -0.25666560
C        1.47542552      -1.23889559       0.27007497      -0.72342449       1.00478238      -0.24002434
C       -1.77324279       0.22677765       0.07825951      -0.30304030       1.10467916       0.59519274
C       -0.62231513      -0.16764044       0.97073014       0.60034982      -0.29266429      -0.08134129
H        4.54132855       1.66903541       0.16565209       0.61215822      -0.48012481      -0.50886296
H        1.56230858       3.91891224       1.30738474       0.31387929      -0.18419463      -0.35126130
H       -0.44018157      -1.76020329      -0.35453180       0.35443111       0.27081924       0.40768326
H        1.78042958      -1.53644221      -0.73391120       0.00872299      -0.12546249      -0.02659469
H        2.07385889      -1.77909677       0.97992762       0.28157095      -0.57337756       0.38086145
H       -2.29382761      -0.64933281      -0.22523884      -0.60587861      -0.67568587      -0.27258218
H       -2.45719417       0.85888863       0.66149860       0.10039608      -0.11875660      -0.38914487
H       -1.45555171       0.78920535      -0.80361489       0.06791725      -0.17059694       0.14859525
H       -0.96694073      -0.37791484       1.99310811       0.05460705       0.47857955      -0.20836697
