35
Properties=species:S:1:pos:R:3:forces:R:3 id=40218 bond=C-O smiles="[H:21][c:4]1[c:5]([c:7]([c:9]([c:8]([c:6]1[H:23])[H:25])[C:12]([H:28])([H:29])[N:10]([H:26])[C:13]([H:30])([H:31])[C@@:15]2([C@@:17]([C@@:16]([C@@:14]([N:11]2[H:27])([H:32])[O:1][H:18])([H:34])[O:2][H:19])([H:35])[O:3][H:20])[H:33])[H:24])[H:22]" dataset=PubChem energy=-21867.597966063357 pbc="F F F"
O        1.28591172      -2.26233268       0.92723877       8.61551059     -15.80669749      -0.57101335
O        3.14727175      -1.51630898       2.90516627      -0.32637280       0.79541685      -1.22745663
O        2.81453101       1.09966999       3.46423856      -0.28597136       0.09595701       0.28669495
C        0.43450789       1.15337646      -2.91791685       0.36896268       0.17432663      -0.03891067
C       -0.33302362       0.11042729      -2.43357667      -0.45021597      -0.28688624      -0.14437601
C        0.32285179       2.39384830      -2.30836280       0.15364793       0.33539011       0.04407533
C       -1.20921155       0.28496808      -1.36572929      -0.37563590       0.70394862       0.04607945
C       -0.53234072       2.58712077      -1.22591861      -0.15609772      -1.01335661      -0.56743835
C       -1.34893473       1.53919554      -0.74076899       1.31128904       0.75288471      -0.51951405
N       -1.44283839       0.96207157       1.63037852      -0.27475306       0.19690794       0.59933500
N        0.75701092      -0.63586247       0.97759108      -1.15609670      19.26847864      -0.46884629
C       -2.12537153       1.70105588       0.54396256       1.83317735       0.07530280       0.40335365
C       -0.12245711       1.46331203       2.10440258      -0.80950768      -1.29529450      -1.50487467
C        2.09312967      -1.17694950       0.70721845      -2.26661092       0.30517834       0.12491045
C        0.83652328       0.26826072       2.18957249       0.12623782       1.33209849      -0.13991697
C        3.03641979      -0.58798122       1.75199905      -0.03872527      -1.56819973       0.88338629
C        2.31371693       0.68667343       2.20809297       0.21454215      -0.95123643       0.93751790
H        0.55491528      -1.62059426       1.13713286      -4.69665979      -3.82437479       1.42582704
H        2.47478747      -2.22571178       2.78646791       0.55809834       0.67404471      -0.35408834
H        2.84913913       0.33509070       4.08336249      -0.05267941       0.52950756      -1.08119667
H        1.13246707       0.96736804      -3.73750385      -0.33004818       0.22158497       0.24642281
H       -0.28883775      -0.83104229      -2.96285232       0.00917063      -0.15903160       0.26276871
H        0.89519764       3.26384354      -2.63905271      -0.05245525      -0.46909982      -0.03909086
H       -1.82077821      -0.53565836      -1.00707038       0.11823357      -0.04803879      -0.10074694
H       -0.50088389       3.57921529      -0.83047517      -0.47901927       0.29110590       0.61338744
H       -1.42396219      -0.04856002       1.47717968      -0.14812975       0.83343811      -0.09959170
H        0.42353326      -0.08822536       0.17885790      -0.28118413       0.26169741       0.28697936
H       -3.08174665       1.29631001       0.40948335      -1.46696133      -0.60268449       0.04623976
H       -2.24510821       2.76405191       0.82416988       0.19717084      -0.56617081      -0.13818355
H       -0.23737212       1.97195578       3.03763929       0.08417373       0.21366538       0.64389615
H        0.27432833       2.16399443       1.37461785       0.12979093       0.17634498      -0.12292536
H        2.46414165      -1.08334994      -0.30852946      -0.08180646       0.11714120      -0.18322212
H        0.62146779      -0.27894074       3.11213747      -0.01184180      -0.38980076      -0.37645834
H        4.01634542      -0.35016870       1.31363109      -0.17474267      -0.43271102       0.55594326
H        2.44885306       1.48107779       1.46933732       0.19788841       0.05628376       0.27165409
