35
Properties=species:S:1:pos:R:3:forces:R:3 id=40218 bond=C-O smiles="[H:21][c:4]1[c:5]([c:7]([c:9]([c:8]([c:6]1[H:23])[H:25])[C:12]([H:28])([H:29])[N:10]([H:26])[C:13]([H:30])([H:31])[C@@:15]2([C@@:17]([C@@:16]([C@@:14]([N:11]2[H:27])([H:32])[O:1][H:18])([H:34])[O:2][H:19])([H:35])[O:3][H:20])[H:33])[H:24])[H:22]" dataset=PubChem energy=-21865.211489793484 pbc="F F F"
O        1.26582984      -2.09415736       0.71833167       8.28310578     -15.58858001      -0.96048380
O        3.16735363      -1.68448430       3.11407337      -0.45796996       2.43180851      -2.71933457
O        2.79444913       1.26784531       3.25533146      -0.25998733       0.16753510       0.23240905
C        0.41442601       1.32155178      -3.12682395       0.37299863       0.17239701      -0.03875421
C       -0.35310550       0.27860261      -2.64248377      -0.44816371      -0.29050629      -0.14516696
C        0.30276991       2.56202362      -2.51726990       0.15721548       0.33776909       0.04557677
C       -1.22929343       0.45314340      -1.57463639      -0.37649173       0.70108997       0.05044809
C       -0.55242260       2.75529609      -1.43482571      -0.15443205      -1.01102838      -0.56378998
C       -1.36901661       1.70737086      -0.94967609       1.31255066       0.75072718      -0.51786045
N       -1.46292027       1.13024689       1.42147142      -0.24058307       0.19000798       0.59489091
N        0.73692904      -0.46768715       0.76868398      -1.04354512      19.33345964      -0.34995678
C       -2.14545341       1.86923120       0.33505546       1.82986282       0.08375184       0.39795284
C       -0.14253899       1.63148735       1.89549548      -0.80821301      -1.27664952      -1.50852085
C        2.07304779      -1.00877418       0.49831135      -2.25601015      -0.44839277       1.14864200
C        0.81644140       0.43643604       1.98066539       0.03078966       1.33157745      -0.13561075
C        3.01633791      -0.41980590       1.54309195      -0.30861115      -1.50497049       0.65256546
C        2.29363505       0.85484875       1.99918587       0.24674837      -1.76382108       1.84722212
H        0.53483340      -1.45241894       0.92822576      -4.57774601      -4.06030634       1.43574343
H        2.49486935      -2.39388710       2.99537501       0.44890114       0.99137846      -0.66738202
H        2.82905725       0.50326602       3.87445539      -0.05633898       0.41531840      -1.02611537
H        1.11238519       1.13554336      -3.94641095      -0.33143855       0.22204111       0.24487295
H       -0.30891963      -0.66286697      -3.17175942       0.00797437      -0.15875309       0.26281874
H        0.87511576       3.43201886      -2.84795981      -0.05368806      -0.46837765      -0.04041901
H       -1.84086009      -0.36748304      -1.21597748       0.11813300      -0.04851757      -0.10206817
H       -0.52096577       3.74739061      -1.03938227      -0.48072482       0.29249664       0.61201929
H       -1.44404407       0.11961530       1.26827258      -0.15421606       0.82804798      -0.09353464
H        0.40345138       0.07994996      -0.03004920      -0.26204139       0.29033847       0.25333635
H       -3.10182853       1.46448533       0.20057625      -1.46455544      -0.60322300       0.04923572
H       -2.26519009       2.93222723       0.61526278       0.19649851      -0.56736848      -0.13751089
H       -0.25745400       2.14013110       2.82873219       0.08396172       0.21217996       0.64354450
H        0.25424645       2.33216975       1.16571075       0.12839786       0.19239807      -0.13373222
H        2.44405977      -0.91517462      -0.51743656       0.09356601       0.14519054      -0.15324628
H        0.60138591      -0.11076542       2.90323037       0.05066683      -0.39647709      -0.39597957
H        3.99626354      -0.18199338       1.10472399       0.06248361      -0.85932834       1.09157023
H        2.42877118       1.64925311       1.26043022       0.31204717      -0.04219689       0.12594839
