22
Properties=species:S:1:pos:R:3:forces:R:3 id=34039 bond=N-P smiles="[H:11][C:6]([H:12])([H:13])[N:4]([C:7]([H:14])([H:15])[H:16])[P:10]([N:5]([C:8]([H:17])([H:18])[H:19])[C:9]([H:20])([H:21])[H:22])([F:1])([F:2])[F:3]" dataset=PubChem energy=-24773.720387898782 pbc="F F F"
F       -1.54621445      -0.29682252       1.92517174       1.61926755       2.91186701      -1.11493889
F       -0.30592548       1.85870918       2.71469058       0.22027847      -1.48286926      -0.25639520
F       -1.67326902       2.25880202       1.12173737      -0.25160051      -1.22580740       0.14413553
N        1.51798168       0.31421265       1.24941942      -2.14866168      -0.60387797      -0.86079742
N       -0.48815333       0.79090996      -0.35379265      -1.56262345      -1.14868058       1.46249268
C        2.57253471       1.23923226       1.59447124      -0.18154185       0.42978105       0.05682126
C        1.71145550      -1.12479119       1.56774810       0.15048349       1.91589344       2.24579270
C       -1.18650495      -0.38226721      -0.95190714      -0.49063011       1.34414644       0.89150720
C        0.06478607       1.86258599      -1.18453108       0.48745200      -1.72152676      -0.53752717
P       -0.66543095       1.00067448       1.37860275       2.56139940      -0.32640977      -1.41919486
H        3.57967010       0.80072804       1.63826802      -0.34018383      -0.39729651      -0.39024187
H        2.61217168       2.07891555       0.85067141      -0.08397036      -0.62640698       0.68894700
H        2.45974901       1.64828451       2.58854785      -0.13901326       0.46924180       0.43491503
H        2.67787758      -1.43130056       1.20597318       0.41217152      -0.08870897      -0.40654207
H        0.95253858      -1.78463892       1.15913144      -0.18179923       0.26229026      -0.00069760
H        1.78160551      -1.21685533       2.69736305      -0.28930480      -0.54420792      -1.02157240
H       -2.26193915      -0.11701766      -1.05304538       0.50703982      -0.51639444      -0.22672555
H       -0.75478672      -0.59250251      -1.90777312       0.21887923      -0.09564002      -0.54366355
H       -1.09749686      -1.27562156      -0.32570337       0.06485616       0.29913867      -0.13072736
H        0.03356714       2.79105863      -0.66149340      -0.27985033       0.75664514       0.10167782
H        1.13601173       1.64183113      -1.39343224      -0.57210857       0.13389294       0.02931817
H       -0.47772788       1.89198073      -2.15908847       0.26786644       0.26366185       0.85545456
