22
Properties=species:S:1:pos:R:3:forces:R:3 id=34039 bond=N-P smiles="[H:11][C:6]([H:12])([H:13])[N:4]([C:7]([H:14])([H:15])[H:16])[P:10]([N:5]([C:8]([H:17])([H:18])[H:19])[C:9]([H:20])([H:21])[H:22])([F:1])([F:2])[F:3]" dataset=PubChem energy=-24774.557344589273 pbc="F F F"
F       -1.40493481      -0.34124064       1.91681282       1.65471025       2.95655182      -1.09280883
F       -0.16464584       1.81429106       2.70633166      -0.10641561      -1.32093114      -0.15200710
F       -1.53198938       2.21438390       1.11337845      -0.28090538      -1.15773912       0.17714079
N        1.37670204       0.35863077       1.25777834      -1.87955342      -0.65006253       0.34463637
N       -0.34687369       0.74649184      -0.36215157      -2.32368162      -1.18852676       0.74807181
C        2.43125507       1.28365038       1.60283016       0.06322513       0.52488247       0.13084942
C        1.57017586      -1.08037307       1.57610702       0.34666705       1.67179068       2.02844589
C       -1.04522531      -0.42668533      -0.96026606      -0.56627202       1.57052641       0.83279707
C        0.20606571       1.81816787      -1.19289000       0.31486199      -1.84234860      -0.50185729
P       -0.52415131       0.95625636       1.37024383       3.27916505      -0.48649589      -1.69347431
H        3.43839046       0.84514616       1.64662694      -0.41827993      -0.38581457      -0.45197955
H        2.47089204       2.12333367       0.85903033      -0.05414021      -0.63387215       0.69178278
H        2.31846937       1.69270263       2.59690677      -0.13420291       0.45970596       0.38863648
H        2.53659794      -1.38688244       1.21433210       0.35124530      -0.09631418      -0.39668030
H        0.81125894      -1.74022080       1.16749036      -0.13673249       0.25540390       0.02125991
H        1.64032587      -1.17243721       2.70572197      -0.32405134      -0.50489710      -1.04042910
H       -2.12065951      -0.16143578      -1.06140430       0.45789740      -0.57467030      -0.26026596
H       -0.61350708      -0.63692063      -1.91613204       0.19799673      -0.09958987      -0.56160929
H       -0.95621722      -1.32003968      -0.33406229       0.05116026       0.29015420      -0.13213305
H        0.17484678       2.74664051      -0.66985232      -0.27459238       0.77048137       0.09077184
H        1.27729137       1.59741301      -1.40179116      -0.51983782       0.13951613       0.00784643
H       -0.33644824       1.84756261      -2.16744739       0.29797600       0.29807029       0.82323666
