22
Properties=species:S:1:pos:R:3:forces:R:3 id=34039 bond=N-P smiles="[H:11][C:6]([H:12])([H:13])[N:4]([C:7]([H:14])([H:15])[H:16])[P:10]([N:5]([C:8]([H:17])([H:18])[H:19])[C:9]([H:20])([H:21])[H:22])([F:1])([F:2])[F:3]" dataset=PubChem energy=-24772.50019266608 pbc="F F F"
F       -1.76455571      -0.22817633       1.93809007       1.39077496       2.78824846      -1.12194306
F       -0.52426674       1.92735537       2.72760891       0.45327347      -1.46532586      -0.09998212
F       -1.89161028       2.32744821       1.13465570      -0.24436881      -1.30279860       0.07136424
N        1.73632294       0.24556646       1.23650109      -1.64215232      -0.68655171      -1.59915799
N       -0.70649459       0.85955615      -0.34087432      -0.99345530      -1.18794023       1.80723068
C        2.79087597       1.17058607       1.58155291      -0.18629975       0.12293218      -0.12407611
C        1.92979676      -1.19343738       1.55482977       0.11375180       2.11266438       2.30590023
C       -1.40484621      -0.31362102      -0.93898881      -0.38140386       1.10361499       0.85451814
C       -0.15355519       1.93123218      -1.17161275       0.67733376      -1.58910680      -0.60380539
P       -0.88377221       1.06932067       1.39152108       1.13012623       0.12813056      -1.13452013
H        3.79801136       0.73208185       1.62534969      -0.21413262      -0.38346557      -0.29728216
H        2.83051294       2.01026936       0.83775308      -0.15795094      -0.63110633       0.69621863
H        2.67809027       1.57963832       2.57562952      -0.17014164       0.44409992       0.44902745
H        2.89621884      -1.49994675       1.19305485       0.51087123      -0.10604859      -0.38331992
H        1.17087984      -1.85328511       1.14621311      -0.20954156       0.30274161      -0.00140330
H        1.99994677      -1.28550152       2.68444472      -0.24432373      -0.52274651      -1.01906251
H       -2.48028041      -0.04837147      -1.04012705       0.55704687      -0.44147009      -0.17502795
H       -0.97312798      -0.52385632      -1.89485479       0.22888164      -0.10682357      -0.53331808
H       -1.31583812      -1.20697537      -0.31278504       0.06935043       0.31419267      -0.12695052
H       -0.18477412       2.85970482      -0.64857507      -0.28925548       0.73639350       0.12080553
H        0.91767047       1.71047732      -1.38051391      -0.62985978       0.13944961       0.03168202
H       -0.69606914       1.96062692      -2.14617014       0.24316736       0.22263405       0.88196660
