22
Properties=species:S:1:pos:R:3:forces:R:3 id=34039 bond=N-P smiles="[H:11][C:6]([H:12])([H:13])[N:4]([C:7]([H:14])([H:15])[H:16])[P:10]([N:5]([C:8]([H:17])([H:18])[H:19])[C:9]([H:20])([H:21])[H:22])([F:1])([F:2])[F:3]" dataset=PubChem energy=-24772.379090252714 pbc="F F F"
F       -1.79024292      -0.22010031       1.93960988       1.36223910       2.77164034      -1.12156439
F       -0.54995395       1.93543139       2.72912872       0.46562387      -1.45023429      -0.06747702
F       -1.91729749       2.33552423       1.13617551      -0.25025862      -1.30377982       0.06166672
N        1.76201015       0.23749044       1.23498128      -1.58322431      -0.69441956      -1.61014740
N       -0.73218180       0.86763217      -0.33935451      -0.96061171      -1.19720468       1.80782667
C        2.81656318       1.16251005       1.58003310      -0.17170912       0.08184833      -0.15311126
C        1.95548397      -1.20151340       1.55330996       0.12246431       2.12871786       2.29039885
C       -1.43053342      -0.30554500      -0.93746900      -0.37184624       1.08584593       0.84566593
C       -0.17924240       1.93930820      -1.17009294       0.69086572      -1.57846451      -0.61108805
P       -0.90945942       1.07739669       1.39304089       1.00421198       0.17421614      -1.11222024
H        3.82369857       0.72400583       1.62382988      -0.20089862      -0.37979864      -0.28796342
H        2.85620015       2.00219334       0.83623327      -0.16683487      -0.63174321       0.69782058
H        2.70377748       1.57156230       2.57410971      -0.17746360       0.44043763       0.44936126
H        2.92190605      -1.50802277       1.19153504       0.52126742      -0.11132793      -0.37803529
H        1.19656705      -1.86136113       1.14469330      -0.21186172       0.30807884       0.00005049
H        2.02563398      -1.29357754       2.68292491      -0.24060764      -0.51499348      -1.01903361
H       -2.50596762      -0.04029545      -1.03860724       0.56066430      -0.43504608      -0.17027323
H       -0.99881519      -0.51578030      -1.89333498       0.22870352      -0.10849904      -0.53311033
H       -1.34152533      -1.19889935      -0.31126523       0.06914309       0.31554896      -0.12601778
H       -0.21046133       2.86778084      -0.64705526      -0.29002987       0.73451589       0.12278676
H        0.89198326       1.71855334      -1.37899410      -0.63456380       0.14084612       0.03016414
H       -0.72175635       1.96870294      -2.14465033       0.24202386       0.21941503       0.88332619
