22
Properties=species:S:1:pos:R:3:forces:R:3 id=34039 bond=N-P smiles="[H:11][C:6]([H:12])([H:13])[N:4]([C:7]([H:14])([H:15])[H:16])[P:10]([N:5]([C:8]([H:17])([H:18])[H:19])[C:9]([H:20])([H:21])[H:22])([F:1])([F:2])[F:3]" dataset=PubChem energy=-24772.32050475172 pbc="F F F"
F       -1.80308653      -0.21606230       1.94036978       1.34830358       2.76342616      -1.12131741
F       -0.56279756       1.93946940       2.72988862       0.47105404      -1.44254844      -0.05117864
F       -1.93014110       2.33956224       1.13693541      -0.25329915      -1.30405124       0.05689671
N        1.77485376       0.23345243       1.23422138      -1.55473273      -0.69820259      -1.61118361
N       -0.74502541       0.87167018      -0.33859461      -0.94615660      -1.20189489       1.80628012
C        2.82940679       1.15847204       1.57927320      -0.16392399       0.06144624      -0.16804112
C        1.96832758      -1.20555141       1.55255006       0.12734921       2.13633665       2.28126749
C       -1.44337703      -0.30150699      -0.93670910      -0.36739761       1.07766839       0.84116307
C       -0.19208601       1.94334621      -1.16933304       0.69701780      -1.57350841      -0.61458348
P       -0.92230303       1.08143470       1.39380079       0.94498062       0.19632055      -1.10187799
H        3.83654218       0.71996782       1.62306998      -0.19449677      -0.37788586      -0.28351281
H        2.86904376       1.99815533       0.83547337      -0.17116624      -0.63203016       0.69865917
H        2.71662109       1.56752429       2.57334981      -0.18131497       0.43864332       0.44951492
H        2.93474966      -1.51206078       1.19077514       0.52629907      -0.11416208      -0.37529469
H        1.20941066      -1.86539914       1.14393340      -0.21298418       0.31069958       0.00085996
H        2.03847759      -1.29761555       2.68216501      -0.23889654      -0.51085343      -1.01897654
H       -2.51881123      -0.03625744      -1.03784734       0.56232387      -0.43203396      -0.16802969
H       -1.01165880      -0.51174229      -1.89257508       0.22854887      -0.10932806      -0.53305291
H       -1.35436894      -1.19486134      -0.31050533       0.06900276       0.31619462      -0.12554894
H       -0.22330494       2.87181885      -0.64629536      -0.29038410       0.73362424       0.12373746
H        0.87913965       1.72259135      -1.37823420      -0.63674052       0.14157636       0.02933372
H       -0.73459996       1.97274095      -2.14389043       0.24156824       0.21791892       0.88390741
