31
Properties=species:S:1:pos:R:3:forces:R:3 id=31066 bond=C-N smiles="[H:17][C:6]([H:18])([H:19])[C:10]([H:27])([H:28])[C:11]([H:29])([H:30])[C:12]([H:31])([C:7]([H:20])([H:21])[H:22])[O:2][C:3](=[S:1])[N:4]([H:13])[C:8]([H:23])([H:24])[C:9]([H:25])([H:26])[C:5]([H:14])([H:15])[H:16]" dataset=PubChem energy=-24023.571265166804 pbc="F F F"
S        3.06522123      -1.30451934       1.71272516      -0.91211358      -0.62541642      -0.31613302
O        0.97435640       0.04627048       0.61675308       2.40525446      -1.51232515      -2.03196312
C        2.21078662      -0.55061297       0.47588975       2.51128404       2.86942778       0.48469686
N        3.05566374      -0.06475304      -0.55916214      -4.58391303       1.87393057      -1.37252595
C        0.62751313      -0.41982809      -2.87273783       0.79771626       0.13980625       0.77356461
C       -0.99854000       2.58516414       4.22203540      -0.89826382      -0.01157384       1.47361979
C       -1.26651974      -0.53724502       1.07274961       0.78528696       1.56665076       0.47642678
C        2.47318828       1.00431391      -1.79849048      -1.26798882      -1.92830433       2.06366395
C        1.99202335       0.21834397      -2.99739833      -0.05705675      -2.35688788      -0.66610649
C       -1.09640892       1.61972923       3.07362914      -2.40081338      -1.00645722      -0.63896499
C        0.15023898       0.96468396       2.64218616       2.34407687      -1.59471374       1.83120264
C        0.13167785      -0.31192480       1.72197878      -0.91375753       0.13872295       0.18413044
H        4.05611793      -0.27879296      -0.50254417      -1.02953989       0.12778198       0.02920601
H        0.59462654      -1.22019830      -2.17603964       0.30867430      -0.92943086       0.53636200
H        0.24433064      -0.74603119      -3.78629965      -0.41155562      -0.66352195      -1.55447764
H       -0.05977678       0.25251433      -2.48475213      -1.41845426       1.60022705       0.64452596
H       -0.54407235       2.19315989       5.13701486       0.32026749      -0.35674100      -0.30236212
H       -0.36345311       3.42951734       3.90732979      -0.79985918       0.11548153       0.35378117
H       -2.06351002       2.79634173       4.61019968       1.66840160       0.52477864      -1.01794913
H       -2.08778866      -0.67284863       1.79162287       0.39404720       0.43199895      -0.40243086
H       -1.34391530       0.32345015       0.38555580      -0.73496920       0.19902989       0.85904292
H       -1.33356638      -1.28534321       0.34709346       0.44776819      -1.91821134      -0.62341609
H        1.71632886       1.86121878      -1.50873179       1.62395437      -2.16228735       0.19099514
H        3.32839262       1.40652224      -2.18982882       2.43772625       1.46902022       0.00951026
H        2.66864359      -0.69704333      -3.22030992      -0.45830890       1.95949074       0.28660038
H        1.94819057       0.86686772      -3.89125866       0.42047394      -0.08833306       0.47668953
H       -1.79380043       0.72610743       3.31818318       0.47016824       1.97539171      -0.39982563
H       -1.45065816       2.27303417       2.23853433      -0.47999695      -1.06160361       0.37698904
H        0.82618149       1.72443910       2.24156021       0.16590506      -0.41288210      -0.12662860
H        0.61639603       0.57399221       3.60486554      -0.12803179       0.65606534      -1.07980458
H        0.58013056      -1.20439236       2.23705983      -0.60592398       0.98353454      -0.52089821
