31
Properties=species:S:1:pos:R:3:forces:R:3 id=31066 bond=C-N smiles="[H:17][C:6]([H:18])([H:19])[C:10]([H:27])([H:28])[C:11]([H:29])([H:30])[C:12]([H:31])([C:7]([H:20])([H:21])[H:22])[O:2][C:3](=[S:1])[N:4]([H:13])[C:8]([H:23])([H:24])[C:9]([H:25])([H:26])[C:5]([H:14])([H:15])[H:16]" dataset=PubChem energy=-24024.34011347651 pbc="F F F"
S        3.00921398      -1.20172444       1.59355897      -0.98083555      -0.60666358      -0.29201150
O        0.91834915       0.14906538       0.49758689       2.50140159      -1.48620881      -2.07513204
C        2.15477937      -0.44781807       0.35672356       2.54551256       2.36009277       1.03404578
N        2.99965649       0.03804186      -0.67832833      -2.79607851      -1.06569053       2.80461358
C        0.68352038      -0.52262299      -2.75357164       0.80714391       0.14398689       0.79523306
C       -1.05454725       2.68795904       4.10286921      -0.89598269      -0.01146440       1.47371758
C       -1.32252699      -0.43445012       0.95358342       0.79370087       1.56995357       0.46237056
C        2.52919553       0.90151901      -1.67932429      -2.24848768       0.57896374      -1.04966965
C        2.04803060       0.11554907      -2.87823214      -0.32452157      -1.78896499      -1.55409541
C       -1.15241617       1.72252413       2.95446295      -2.40497215      -1.00586387      -0.64343070
C        0.09423173       1.06747886       2.52301997       2.35023788      -1.59501107       1.83239264
C        0.07567060      -0.20912990       1.60281259      -0.94275254       0.12906779       0.23902908
H        4.00011068      -0.17599806      -0.62171036      -1.17025307      -0.05532126       0.30660276
H        0.65063379      -1.32299320      -2.05687345       0.27105763      -0.95791582       0.53596579
H        0.30033789      -0.84882609      -3.66713346      -0.40244687      -0.68403965      -1.54582758
H       -0.00376953       0.14971943      -2.36558594      -1.41033456       1.59779738       0.64083648
H       -0.60007960       2.29595479       5.01784867       0.31993909      -0.35669442      -0.30189223
H       -0.41946036       3.53231224       3.78816360      -0.80083690       0.11544086       0.35371660
H       -2.11951727       2.89913663       4.49103349       1.66979032       0.52375552      -1.01930852
H       -2.14379591      -0.57005373       1.67245668       0.40033959       0.43286394      -0.40030351
H       -1.39992255       0.42624505       0.26638961      -0.73727270       0.19720602       0.85869101
H       -1.38957363      -1.18254831       0.22792727       0.44784977      -1.91600872      -0.62430027
H        1.77233611       1.75842388      -1.38956560       1.54103531      -1.91342816      -0.15052851
H        3.38439987       1.30372734      -2.07066263       2.12479144       1.92467726      -0.62636966
H        2.72465084      -0.79983823      -3.10114373      -0.42602600       1.93260243       0.32306743
H        2.00419782       0.76407282      -3.77209247       0.34416432      -0.20828155       0.37425865
H       -1.84980768       0.82890233       3.19901699       0.47154928       1.97551158      -0.39985758
H       -1.50666541       2.37582907       2.11936814      -0.47887200      -1.06342016       0.37801760
H        0.77017424       1.82723400       2.12239402       0.16426339      -0.40955263      -0.12473015
H        0.56038878       0.67678711       3.48569935      -0.12761474       0.65544674      -1.08077724
H        0.52412331      -1.10159746       2.11789364      -0.60580880       0.98827489      -0.52584695
