23
Properties=species:S:1:pos:R:3:forces:R:3 id=35988 bond=C-O smiles="[H:13][c:3]1[c:4]([c:6]([c:8]([c:7]([c:5]1[H:15])[H:17])[C:11]([H:23])([C:10]([H:21])([H:22])[O:1][H:12])[S:2][C:9]([H:18])([H:19])[H:20])[H:16])[H:14]" dataset=PubChem energy=-22417.223219185304 pbc="F F F"
O        1.54921019      -0.82433543      -1.82895636       1.13831311       2.96939516       1.42013328
S        1.34202449       3.00591506       1.06798897       0.17773478       0.15311450      -0.05917067
C       -0.78031225      -1.49750982       2.68266920       0.98568862       0.14500590      -0.33504351
C        0.57971189      -1.10423659       2.89177064      -1.46378379      -0.04449365      -0.06951238
C       -1.50306948      -0.94678365       1.61264102       0.74551789      -0.74500627       1.26814904
C        1.11401142      -0.09665661       2.09328477      -0.24171726       0.38330723      -0.66371914
C       -0.91642626      -0.01814894       0.76756032      -0.54083166       0.75533378       0.01847020
C        0.36369006       0.45955371       0.99574048       0.61439336      -1.20402687       1.81831231
C        1.18031536       4.33320059      -0.16428896      -0.18910404      -1.19429448      -1.43048154
C        2.17732970       0.94917878      -0.65804311      -0.42006406      -0.58188856       1.07009673
C        0.95406000       1.50097032       0.11014608       0.08894344      -1.04415594      -1.14641250
H        1.14848232      -1.46024594      -1.22051525       0.18768409       0.52406130       0.42872224
H       -1.22689326      -2.25202737       3.34865383       0.20411519       0.50234273      -0.47919396
H        1.12256528      -1.57582484       3.72309975      -0.10486642       0.48603717      -0.53841026
H       -2.52090247      -1.26329671       1.49451367      -0.28356577       0.04665062      -0.26329019
H        2.11092536       0.30972142       2.32893614      -0.53047243      -0.33570807      -0.28949402
H       -1.55692823       0.45472326       0.01521997       0.49146104      -0.30212479       0.03726856
H        0.46319937       4.03660883      -0.94566460       0.13455682      -0.18904513       0.34833703
H        0.75003928       5.22217287       0.23682181       0.13252914       0.55629964       0.70322290
H        2.11062138       4.50383891      -0.69976266       0.07438316       0.29224257       0.31842400
H        3.01353590       0.69942888       0.05686788      -1.05671833      -0.64306448      -1.10619641
H        2.53708283       1.70722563      -1.34607526      -0.13363008      -0.76562484      -0.88247220
H        0.18703301       1.75437195      -0.61059328      -0.01048500       0.23599558      -0.17115148
