23
Properties=species:S:1:pos:R:3:forces:R:3 id=35988 bond=C-O smiles="[H:13][c:3]1[c:4]([c:6]([c:8]([c:7]([c:5]1[H:15])[H:17])[C:11]([H:23])([C:10]([H:21])([H:22])[O:1][H:12])[S:2][C:9]([H:18])([H:19])[H:20])[H:16])[H:14]" dataset=PubChem energy=-22395.59301351274 pbc="F F F"
O        1.74740324      -0.26473143      -1.45949344     -43.22472466    -123.75699349     -80.12544715
S        1.14383144       2.44631106       0.69852605      -0.29338901       0.41599645       0.37080516
C       -0.97850530      -2.05711382       2.31320628       1.06864552       0.15662387      -0.28547818
C        0.38151884      -1.66384059       2.52230772      -1.53733629      -0.15628863      -0.06196661
C       -1.70126253      -1.50638765       1.24317810       0.66770533      -0.68620925       1.16672630
C        0.91581837      -0.65626061       1.72382185       0.05900545       0.28605324      -0.51327588
C       -1.11461931      -0.57775294       0.39809740      -0.78214051       0.36187973       0.02018094
C        0.16549701      -0.10005029       0.62627756       1.02563413      -0.82970508       1.19548249
C        0.98212231       3.77359659      -0.53375188      -0.22023905      -1.19975130      -1.33190263
C        1.97913665       0.38957478      -1.02750603      42.44515627     117.96838207      74.65231131
C        0.75586695       0.94136632      -0.25931684      -1.39640686       4.07793894       3.13921678
H        1.34667537      -0.90064194      -0.85105233      -1.40672040      -3.36159490      -0.52819734
H       -1.42508631      -2.81163137       2.97919091       0.19567180       0.50924045      -0.47184943
H        0.92437223      -2.13542884       3.35363683      -0.10821754       0.49094088      -0.53416179
H       -2.71909552      -1.82290071       1.12505075      -0.29137163       0.04779849      -0.25153677
H        1.91273231      -0.24988258       1.95947322      -0.58227219      -0.28395535      -0.34057629
H       -1.75512128      -0.10488074      -0.35424295       0.48868281      -0.27338204       0.05699376
H        0.26500632       3.47700483      -1.31512752       0.14342010      -0.18201844       0.31337802
H        0.55184623       4.66256887      -0.13264111       0.12123437       0.58269423       0.67022418
H        1.91242833       3.94423491      -1.06922558       0.07549491       0.25284327       0.29079057
H        2.81534285       0.13982488      -0.31259504       2.14522060       1.85142379       2.86198765
H        2.33888978       1.14762163      -1.71553818       1.43204762       3.58268793       0.13685860
H       -0.01116004       1.19476795      -0.98005620      -0.02419326       0.14654378      -0.43289215
