41
Properties=species:S:1:pos:R:3:forces:R:3 id=46584 bond=C-N smiles="[H:38][C:20]1([C:21]([C:16]([N:9]([C:15]1([H:30])[H:31])[C:18]([H:36])([H:37])[C:23]([C:19]([N:10]2[C:17]([C:22]2([C:11]([H:24])([H:25])[H:26])[C:12]([H:27])([H:28])[H:29])([H:34])[H:35])([F:7])[F:8])([C:13]([F:1])([F:2])[F:3])[C:14]([F:4])([F:5])[F:6])([H:32])[H:33])([H:40])[H:41])[H:39]" dataset=PubChem energy=-38507.115171650104 pbc="F F F"
F        2.56687666       1.94002971      -1.45035298      -0.78778521      -0.15255067      -1.05256693
F        3.89655496       2.63379285       0.06108271      -0.79479214      -1.01482105      -0.08232172
F        3.64160896       0.50074524      -0.30547983      -0.27897107      -0.51473502       0.18237053
F        2.00284912       1.56017038       3.24233787       0.45557026       0.25382659      -1.10754464
F        2.29061533      -0.23012426       2.17018359      -0.18745960      -1.05902639      -0.42202831
F        3.87324263       1.20108047       2.16015105      -1.07147383       0.38688066      -0.02983026
F        0.77452852       3.49480471      -0.13743163       0.00272492       0.60939782      -0.67170597
F        2.14617742       3.92370924       1.51349150      -0.13521498      -0.60794679      -0.55104382
N        1.02524248      -1.64131491      -0.33069635       3.98561447       0.51294007      -0.16319832
N        0.15887319       3.08332833       2.12248616       2.23384003       0.22349190      -2.09620467
C       -2.04428433       2.68797144       3.18133013      -1.24122089      -0.37495958       0.48236834
C       -1.95431803       2.72213468       0.60304013      -1.78793554      -0.31955339       0.36390971
C        2.95809866       1.62884876      -0.23177583       3.47048594       2.58775845      -1.62163066
C        2.51684596       1.05856095       2.08276860       0.42708365       0.24896271       1.30306585
C        1.72630837      -2.09563403      -1.61346400      -1.32166270       0.52650972      -0.12145970
C        0.13524130      -2.71797971       0.06136354       2.04229537       0.35475017       0.76363595
C       -0.49552928       4.39596948       2.11038093      -1.34237051      -1.35187953       0.81726365
C        0.72962610       0.62519685       0.26042723      -1.32225546      -0.24713601      -0.10845363
C        1.22862036       3.03442892       1.03916590      -1.35522236       0.12804250       1.82367449
C        0.87264734      -3.32876258      -2.07434476      -0.25896017       1.66478181      -0.25328109
C        0.42219341      -3.93362836      -0.77279175      -1.35845416       0.10646938      -0.70814876
C       -1.28291736       3.06130084       1.93011134       0.43905299       0.98481055      -0.11545831
C        1.87847199       1.65244683       0.73220351      -1.97457655      -3.05142229       3.32270962
H       -1.39464675       2.16627821       3.87297122       0.24626110       0.37955987       0.31426530
H       -2.90387772       1.98634073       3.07444064       0.59700000       0.49424694      -0.53935403
H       -2.47724627       3.61551246       3.61479990       0.42399203      -0.78028189       0.02744123
H       -1.30980240       2.75700554      -0.27524890      -0.22928801      -0.27346739       0.30840796
H       -2.67154668       1.79470077       0.64356262       1.93792929       1.40324918      -0.00454907
H       -2.67104219       3.53647312       0.50197567      -0.15352445       0.03716184      -0.41982280
H        2.80218986      -2.34679274      -1.58908594      -0.33555131      -0.05478823       1.15811268
H        1.74158802      -1.29061608      -2.33041656      -0.42881318       0.25723340      -0.40238620
H       -0.77004084      -2.34489922      -0.09826654      -4.52931123       0.82792443      -0.48542350
H        0.24443206      -2.98157076       1.08002644       0.12467615       0.12719227       1.35767182
H       -0.46662258       4.87360534       3.08813589      -0.28165024      -0.21821903      -0.13703021
H       -0.53355346       5.12224850       1.32118099       0.60611074      -0.33801009      -0.73584190
H       -0.04186384       0.45528746       1.01963424       0.93824417      -0.46569656       0.29535435
H        0.11826218       1.11017084      -0.49672277       0.70318407      -0.42425018      -0.74456525
H        0.00587413      -2.94974903      -2.67841852       0.82391687      -0.58007883       0.41301806
H        1.43640318      -4.08579139      -2.56012881       0.49950613      -0.21878146      -1.12514900
H       -0.53200504      -4.53760986      -0.92163432       1.51485862       0.39174765       0.49763244
H        1.27322230      -4.46900634      -0.36707992      -0.29631658      -0.44864245       0.26305723
