41
Properties=species:S:1:pos:R:3:forces:R:3 id=46584 bond=C-N smiles="[H:38][C:20]1([C:21]([C:16]([N:9]([C:15]1([H:30])[H:31])[C:18]([H:36])([H:37])[C:23]([C:19]([N:10]2[C:17]([C:22]2([C:11]([H:24])([H:25])[H:26])[C:12]([H:27])([H:28])[H:29])([H:34])[H:35])([F:7])[F:8])([C:13]([F:1])([F:2])[F:3])[C:14]([F:4])([F:5])[F:6])([H:32])[H:33])([H:40])[H:41])[H:39]" dataset=PubChem energy=-38511.00565651098 pbc="F F F"
F        2.61880781       1.54186990      -1.55419610      -0.76506969      -0.14528061      -1.09780950
F        3.94848611       2.23563304      -0.04276041      -0.76576352      -1.02397565      -0.11274091
F        3.69354011       0.10258543      -0.40932295      -0.15439825      -0.50462936       0.20910086
F        2.05478027       1.16201057       3.13849475       0.47562678       0.22256921      -1.10679057
F        2.34254648      -0.62828407       2.06634047      -0.11135752      -1.09255360      -0.21230812
F        3.92517378       0.80292066       2.05630793      -1.02167722       0.35070703      -0.00650812
F        0.82645967       3.09664490      -0.24127475      -0.01755886       0.62154165      -0.67462453
F        2.19810857       3.52554943       1.40964838      -0.13300703      -0.55473733      -0.52691514
N        0.97331133      -1.24315510      -0.22685323       3.58668749       0.98791851      -1.86663731
N        0.21080434       2.68516852       2.01864304       2.19549802       0.23160910      -2.09401964
C       -1.99235318       2.28981163       3.07748701      -1.23881604      -0.37385307       0.48028690
C       -1.90238688       2.32397487       0.49919701      -1.78961847      -0.29784292       0.35541127
C        3.01002981       1.23068895      -0.33561895       3.32723803       2.74800733      -1.40414957
C        2.56877711       0.66040114       1.97892548       0.36564632       0.43459112       1.17750974
C        1.67437722      -1.69747422      -1.50962088      -0.74674435       0.10908152       0.27745766
C        0.08331015      -2.31981990       0.16520666       2.62585702      -0.02557192       1.17709082
C       -0.44359813       3.99780967       2.00653781      -1.34269923      -1.35299862       0.82094658
C        0.78155725       0.22703704       0.15658411      -1.72857860      -2.52175291      -0.33823945
C        1.28055151       2.63626911       0.93532278      -1.21009648      -0.04569293       1.78837481
C        0.82071619      -2.93060277      -1.97050164      -0.24421839       1.74508336      -0.12230700
C        0.37026226      -3.53546855      -0.66894863      -1.36621256       0.21588301      -0.52982951
C       -1.23098621       2.66314103       1.82626822       0.46102086       0.98019851      -0.12508456
C        1.93040314       1.25428702       0.62836039      -1.89501302      -2.65440251       3.56318543
H       -1.34271560       1.76811840       3.76912810       0.24770778       0.37942887       0.31437118
H       -2.85194657       1.58818092       2.97059752       0.59449072       0.49289799      -0.53966409
H       -2.42531512       3.21735265       3.51095678       0.42254049      -0.77992968       0.02934661
H       -1.25787125       2.35884573      -0.37909202      -0.22957733      -0.28413254       0.32223652
H       -2.61961553       1.39654096       0.53971950       1.93813080       1.40063363      -0.00356112
H       -2.61911104       3.13831331       0.39813255      -0.15914559       0.04024533      -0.41246607
H        2.75025871      -1.94863293      -1.48524282      -0.44485844      -0.17188819       0.96148332
H        1.68965687      -0.89245627      -2.22657344      -0.49574099       0.33768543      -0.39857885
H       -0.82197199      -1.94673941       0.00557658      -4.49956133       0.88966617      -0.50844125
H        0.19250091      -2.58341095       1.18386956       0.05687184      -0.02472897       1.35483993
H       -0.41469143       4.47544553       2.98429277      -0.28272243      -0.21428688      -0.13598456
H       -0.48162231       4.72408869       1.21733787       0.60526958      -0.33706717      -0.73520621
H        0.01006731       0.05712765       0.91579112       0.61987311       0.76568122       0.57724066
H        0.17019333       0.71201103      -0.60056589       0.58701268       0.30223436      -0.48321409
H       -0.04605702      -2.55158922      -2.57457540       0.81992401      -0.58674053       0.40816090
H        1.38447203      -3.68763158      -2.45628569       0.48824973      -0.19328668      -1.12573466
H       -0.58393619      -4.13945005      -0.81779120       1.52902245       0.39228131       0.49956985
H        1.22129115      -4.07084653      -0.26323680      -0.29678650      -0.46161385       0.25226688
