41
Properties=species:S:1:pos:R:3:forces:R:3 id=10388 bond=C-N smiles="[H:18][C:5]1=[C:4]([C:13]([C:17]([C:14]([C:15]1([H:40])[C:8]([H:21])([H:22])[H:23])([H:38])[H:39])([C:11]([H:30])([H:31])[H:32])[C:12]([H:33])([H:34])[H:35])([H:36])[H:37])[N:6]([C:3](=[O:1])[C:7]([H:19])([H:20])[Cl:2])[C:16]([H:41])([C:9]([H:24])([H:25])[H:26])[C:10]([H:27])([H:28])[H:29]" dataset=PubChem energy=-30974.824833256214 pbc="F F F"
O       -0.12758848       2.40954323      -2.61084599       0.18315826      -3.71050618       2.18007596
Cl      -1.79445354      -0.83715026      -1.65563148      -0.75331787      -1.14241313       0.82025956
C       -0.13924685       1.33453651      -1.89043206      -0.12691782       6.45896878      -2.28771386
C        0.38892894       0.64175234       0.06771951       6.21637623     -37.87064860      27.97469966
C        1.43105831      -0.24582479      -0.11795552      -0.58656426      -1.60001014       2.93944886
N        0.27851930       1.44385441      -0.56008250      -4.96168467      34.77891072     -31.41899766
C       -0.71209518       0.13600441      -2.57329696       0.32352815       0.35024471      -1.09229055
C        1.86535604      -2.76449600       0.03146063       5.07447955       1.57585899       1.07679833
C        2.05390795       3.30239149      -0.98219949      -0.67565123       0.25267882      -0.40100178
C       -0.24162439       3.77807112       0.05574756      -0.81158262      -0.41354737       1.21636766
C        1.24251886       0.80458906       2.93814944       0.20123251      -2.81618939      -1.40526715
C       -0.92394690      -0.44495812       3.44967936      -1.47667988      -1.39260168       2.30327192
C       -0.60355262       0.49760936       1.22312795      -1.67062274      -1.15595461       1.10841508
C        0.57169465      -1.58970085       1.77860592       2.03694007       1.69988008       1.86935908
C        1.75498410      -1.44221798       0.81163292      -0.39005161       1.16207664      -0.31290658
C        0.90902236       2.65080376      -0.14942193      -1.37240856       6.70790584       1.08393090
C        0.06630059      -0.18771342       2.36695860       1.82085714      -0.63013379       0.22431577
H        2.24303062      -0.04350475      -0.77683081       0.01003234       0.53696297      -1.02925804
H        0.12260568      -0.43458585      -2.97456640      -0.15574589      -0.31336863       0.10122508
H       -1.32476750       0.50038293      -3.42138380       0.81822683       0.08802203       0.58939787
H        2.74886890      -2.66477075      -0.71524133      -1.78606013      -0.26360888       0.78238565
H        2.25653024      -3.47915665       0.78124283      -0.91108924      -0.27521457      -0.66521252
H        0.94395300      -2.89090195      -0.38913299      -2.07454185      -1.21325114      -1.32501158
H        2.54785844       2.48597546      -1.47245402       0.72214867       0.01444712      -0.47856898
H        2.75044044       3.95714612      -0.43564791      -0.17303669      -1.01257680       0.67893342
H        1.70086381       4.05169363      -1.69332308      -0.42652737      -0.78276907      -0.38385134
H       -0.63629845       4.20996709      -0.89646250       0.99386671       0.00998416       0.91220136
H       -1.18721309       3.44055529       0.57625803       0.98311906      -0.68757759      -0.79481379
H        0.04914310       4.46099444       0.89547276       0.39336468       0.20253715      -1.46988794
H        0.80605598       1.59080907       3.49796413      -0.39614848       1.00669129       0.09540764
H        1.93066700       0.29202654       3.60914038      -0.35725954      -0.38908294       0.31510002
H        1.94233127       1.08260148       2.12778424      -0.83602324       0.39690458       0.35740931
H       -1.62543849      -1.30294565       3.22016429       0.35349212       1.25124774      -0.38064550
H       -0.53015952      -0.87126056       4.41674994       0.35807679       0.73702263      -0.90212404
H       -1.50691728       0.46098078       3.75674676       0.36370278      -0.73459911      -0.47144640
H       -1.48054235      -0.19090906       0.88856100       1.37092825       1.41726298       0.41507486
H       -1.07453613       1.42462137       1.67413448       0.70839728      -0.54522365      -1.35454027
H       -0.17988537      -2.11213699       1.21657728      -0.78333254      -0.12515413       0.34139671
H        0.96097378      -2.13902727       2.65484975      -0.61448850      -0.32927672      -0.45886135
H        2.72556086      -1.25079861       1.36410700      -1.05108305      -0.04366777      -0.58203128
H        1.35885009       2.60858531       0.84351297      -0.53792660      -1.19741062      -0.17489475
