41
Properties=species:S:1:pos:R:3:forces:R:3 id=10388 bond=C-N smiles="[H:18][C:5]1=[C:4]([C:13]([C:17]([C:14]([C:15]1([H:40])[C:8]([H:21])([H:22])[H:23])([H:38])[H:39])([C:11]([H:30])([H:31])[H:32])[C:12]([H:33])([H:34])[H:35])([H:36])[H:37])[N:6]([C:3](=[O:1])[C:7]([H:19])([H:20])[Cl:2])[C:16]([H:41])([C:9]([H:24])([H:25])[H:26])[C:10]([H:27])([H:28])[H:29]" dataset=PubChem energy=-30964.663261736183 pbc="F F F"
O       -0.12038785       2.35723223      -2.56990238       0.15295396      -3.63683070       2.13745448
Cl      -1.78725291      -0.88946126      -1.61468787      -0.75659396      -1.16857020       0.77951898
C       -0.13204622       1.28222551      -1.84948845      -0.19658163       6.96793555      -3.34379024
C        0.38172831       0.69406334       0.02677590      12.18292133     -80.96386190      61.74660693
C        1.42385768      -0.19351379      -0.15889913       0.03529512      -3.16165352       3.37825075
N        0.28571993       1.39154341      -0.51913889     -11.18125735      78.36663827     -65.75181630
C       -0.70489455       0.08369341      -2.53235335       0.37000040       0.26917235      -1.00131004
C        1.85815541      -2.71218500      -0.00948298       5.08025565       1.54374312       1.11964689
C        2.06110858       3.25008049      -0.94125588      -0.70956741       0.17186674      -0.47906891
C       -0.23442376       3.72576012       0.09669117      -0.83757504      -0.40778469       1.19062049
C        1.23531823       0.85690006       2.89720583       0.20119527      -2.83192639      -1.38517724
C       -0.93114753      -0.39264712       3.40873575      -1.45543694      -1.39916623       2.33489333
C       -0.61075325       0.54992036       1.18218434      -1.94801973      -1.57275584       2.29626044
C        0.56449402      -1.53738985       1.73766231       2.04389704       1.71330269       1.85494346
C        1.74778347      -1.38990698       0.77068931      -0.32338953       1.14765344      -0.40767411
C        0.91622299       2.59849276      -0.10847832      -1.35511513       7.90538824       1.14942295
C        0.05909996      -0.13540242       2.32601499       1.72441245      -0.64143850       0.24750808
H        2.23582999       0.00880625      -0.81777442      -0.01596159       0.63703700      -1.03087429
H        0.12980631      -0.48689685      -2.93362279      -0.17739775      -0.31570729       0.10360306
H       -1.31756687       0.44807193      -3.38044019       0.81913745       0.11674659       0.60898945
H        2.74166827      -2.61245975      -0.75618494      -1.78338449      -0.25843181       0.78238551
H        2.24932961      -3.42684565       0.74029922      -0.90431749      -0.29966997      -0.66484461
H        0.93675237      -2.83859095      -0.43007660      -2.07926462      -1.20404952      -1.32498710
H        2.55505907       2.43366446      -1.43151041       0.73646893       0.02249498      -0.47774172
H        2.75764107       3.90483512      -0.39470430      -0.18908024      -1.03399854       0.70602741
H        1.70806444       3.99938263      -1.65237947      -0.43832158      -0.79461841      -0.37891651
H       -0.62909782       4.15765609      -0.85551889       1.00307473       0.00624102       0.90831909
H       -1.18001246       3.38824429       0.61720164       1.00455300      -0.64924031      -0.81602612
H        0.05634373       4.40868344       0.93641637       0.39815828       0.18538216      -1.46255980
H        0.79885535       1.64312007       3.45702052      -0.39761037       1.01354480       0.10084712
H        1.92346637       0.34433754       3.56819677      -0.35573278      -0.38696548       0.31286534
H        1.93513064       1.13491248       2.08684063      -0.81509551       0.33857998       0.39749387
H       -1.63263912      -1.25063465       3.17922068       0.35564839       1.25035604      -0.38325406
H       -0.53736015      -0.81894956       4.37580633       0.35309384       0.72927390      -0.88466355
H       -1.51411791       0.51329178       3.71580315       0.36191873      -0.73200842      -0.46968676
H       -1.48774298      -0.13859806       0.84761739       1.42829848       1.43837655       0.37368992
H       -1.08173676       1.47693237       1.63319087       0.71193365      -0.57593028      -1.34150166
H       -0.18708600      -2.05982599       1.17563367      -0.78387179      -0.12312784       0.33971855
H        0.95377315      -2.08671627       2.61390614      -0.61547809      -0.33143093      -0.45315549
H        2.71836023      -1.19848761       1.32316339      -1.03738077      -0.07217025      -0.54762717
H        1.36605072       2.55627431       0.88445658      -0.60290985      -1.25908537      -0.26686861
