41
Properties=species:S:1:pos:R:3:forces:R:3 id=10388 bond=C-N smiles="[H:18][C:5]1=[C:4]([C:13]([C:17]([C:14]([C:15]1([H:40])[C:8]([H:21])([H:22])[H:23])([H:38])[H:39])([C:11]([H:30])([H:31])[H:32])[C:12]([H:33])([H:34])[H:35])([H:36])[H:37])[N:6]([C:3](=[O:1])[C:7]([H:19])([H:20])[Cl:2])[C:16]([H:41])([C:9]([H:24])([H:25])[H:26])[C:10]([H:27])([H:28])[H:29]" dataset=PubChem energy=-30978.713336337016 pbc="F F F"
O       -0.18999392       2.86290527      -2.96569061       0.18170522      -3.38378006       2.02891106
Cl      -1.85685898      -0.38378822      -2.01047610      -0.65954380      -1.07275179       1.07128159
C       -0.20165229       1.78789855      -2.24527668       0.36033157       4.67962281       0.15145027
C        0.45133438       0.18839030       0.42256413       1.61552784      -0.76227806      -1.11196611
C        1.49346375      -0.69918683       0.23688910      -1.45356740       2.29842231       0.75051078
N        0.21611386       1.89721645      -0.91492712       0.11287880      -4.18223082      -0.57689778
C       -0.77450062       0.58936645      -2.92814158       0.23591822       0.57285266      -1.20836540
C        1.92776148      -3.21785804       0.38630525       5.03549940       1.69335810       0.88612479
C        1.99150251       3.75575353      -1.33704411      -0.59580025       0.42381299      -0.29143905
C       -0.30402983       4.23143316      -0.29909706      -0.88632484      -0.47493264       1.24185892
C        1.30492430       0.35122702       3.29299406       0.24863148      -2.77362506      -1.43007031
C       -0.86154146      -0.89832016       3.80452398      -1.67664858      -1.31085593       2.14911641
C       -0.54114718       0.04424732       1.57797257      -2.34839465       0.74909768      -1.33609111
C        0.63410009      -2.04306289       2.13345054       2.02589935       1.62586648       1.92820872
C        1.81738954      -1.89558002       1.16647754      -0.60853211       1.00344634       0.28796815
C        0.84661692       3.10416580      -0.50426655      -1.10538037       3.78844911       1.25545973
C        0.12870603      -0.64107546       2.72180322       2.57922577      -0.64932040       0.12030776
H        2.30543606      -0.49686679      -0.42198619       0.01878959       0.27387830      -0.96845195
H        0.06020024       0.01877619      -3.32941102      -0.13053892      -0.30611119       0.08901530
H       -1.38717294       0.95374497      -3.77622842       0.78729166       0.01794771       0.54401173
H        2.81127434      -3.11813279      -0.36039671      -1.80818378      -0.27720504       0.79437694
H        2.31893568      -3.93251869       1.13608745      -0.91926549      -0.18940485      -0.63760426
H        1.00635844      -3.34426399      -0.03428837      -2.05133190      -1.23872973      -1.32687552
H        2.48545300       2.93933750      -1.82729864       0.67358632      -0.01074313      -0.46999457
H        2.68803500       4.41050816      -0.79049253      -0.12248592      -0.95351137       0.64337877
H        1.63845837       4.50505567      -2.04816770      -0.41378295      -0.75246322      -0.39905460
H       -0.69870389       4.66332913      -1.25130712       0.98968891       0.00413080       0.90355600
H       -1.24961853       3.89391733       0.22141341       0.95696054      -0.73130545      -0.77560898
H       -0.01326234       4.91435648       0.54062814       0.41495630       0.22725726      -1.45992759
H        0.86846142       1.13744703       3.85280875      -0.39335780       0.98619353       0.07554986
H        1.99307244      -0.16133550       3.96398500      -0.38165105      -0.40711661       0.31764931
H        2.00473671       0.62923944       2.48262886      -0.88697676       0.50063311       0.32406634
H       -1.56303305      -1.75630769       3.57500891       0.34843314       1.25505855      -0.36781642
H       -0.46775408      -1.32462260       4.77159456       0.40394901       0.76153995      -0.98270401
H       -1.44451184       0.00761874       4.11159138       0.37685913      -0.75340293      -0.47370941
H       -1.41813691      -0.64427110       1.24340562       1.30614764       1.40394458       0.32733519
H       -1.01213069       0.97125933       2.02897910       0.66817161      -0.65043859      -1.29125747
H       -0.11747993      -2.56549903       1.57142190      -0.77665877      -0.13705181       0.35461811
H        1.02337922      -2.59238931       3.00969437      -0.61366622      -0.31078766      -0.48372308
H        2.78796630      -1.70416065       1.71895162      -1.09898103       0.06900090      -0.67843645
H        1.29644465       3.06194735       0.48866835      -0.40907542      -1.00326532       0.02108600
