43
Properties=species:S:1:pos:R:3:forces:R:3 id=37178 bond=C-N smiles="[H:31][c:13]1[c:15]([c:20]([c:16]([c:18]([c:14]1[H:32])[Cl:2])[H:34])[N:22]([H:36])[c:12]2[c:8]([n:3][c:7]([c:11]([n:5]2)[c:19]3[c:17]([c:21]([c:9]([n:4][c:10]3[F:1])[H:30])[N:23]([H:37])[C:25]([H:40])([H:41])[C:26]([H:42])([H:43])[C:24]([H:38])([H:39])[O:6][H:27])[H:35])[H:28])[H:29])[H:33]" dataset=PubChem energy=-43696.094815199904 pbc="F F F"
F       -0.97831723      -3.49683221       2.68756208       0.03936371       0.48467285      -0.25673279
Cl       7.90687538       3.82498420       3.46247859      -0.40123544      -0.14752609      -0.41342048
N        2.64283016      -1.64449223       3.37605486      -0.64289022       1.19105687      -1.18657335
N       -2.78097936      -2.58526834       1.67911551       0.69906310       0.21027572      -0.00858623
N        1.46280173      -0.49936851       1.08947823      -1.48986699      -0.55137885       0.91514180
O       -7.22915908      -0.65427038      -1.40320280      -0.91550922      -0.57265678       0.81256577
C        1.30373362      -1.75027283       3.14396796       0.91850668       0.37750320      -0.70603387
C        3.33804396      -0.89012238       2.50028310       0.01127213      -0.87213186      -0.16920757
C       -3.41107055      -1.63059386       0.96511004       1.88381631       0.55190526       0.59175105
C       -1.50368151      -2.45303091       2.00912270      -1.39962717       0.88945213      -0.83444670
C        0.72023955      -1.20962688       1.96251795       0.78323474       0.26275504       0.48230908
C        2.75635722      -0.31862199       1.33837489      -0.19642699       1.35997279      -0.57346635
C        7.22061564       3.52396000      -0.49399500       0.46506254      -0.34007024       1.25977977
C        7.79536177       3.85586632       0.74763117       0.13581561       0.36382784      -0.31612343
C        6.11169983       2.67193199      -0.54130321      -1.42827162      -0.99462250       0.18443382
C        6.10488583       2.54143119       1.86173708      -1.60918707      -0.79828662       0.15135044
C       -1.40926227      -0.29292026       0.98651001      -0.20351411      -0.32390360       0.04025084
C        7.18577648       3.40346420       1.91689581       1.10962107       0.14106361      -0.72829335
C       -0.73573121      -1.30316385       1.67050705      -0.32031362      -0.94948297       0.14850893
C        5.55495955       2.15157748       0.65009744       1.27537652       1.62339232      -0.69924227
C       -2.75323316      -0.43961277       0.59423091      -0.36663848       0.17537468      -0.23838400
N        3.41633561       0.39382420       0.35386570       2.39521850      -1.12035414       0.42879417
N       -3.36682531       0.58511928      -0.13046798      -0.70851342      -0.37125146       0.53833039
C       -6.32735845      -0.24031960      -2.41114369       1.29451666      -1.59608864       0.03316458
C       -4.76465294       0.60996530      -0.62092688       1.40041086      -0.77562915       0.27880117
C       -4.87808153      -0.24507713      -1.87606349      -1.01210120      -0.65847079       0.02482188
H       -7.16002294      -1.58109780      -1.04823449       0.47820904       1.55182489      -1.21329803
H        0.72244599      -2.27654179       3.89609346       0.11753260       0.12345906      -0.30542774
H        4.42178180      -0.83584651       2.57566747      -0.24079130       0.04246065       0.41369389
H       -4.43473169      -1.77050599       0.72537521      -0.66427702      -0.32688476      -0.10274373
H        7.73510862       3.87579764      -1.38540189      -0.48885014      -0.15039369       0.01870861
H        8.71757866       4.47536934       0.79058758      -0.95565159      -0.53886258       0.02008380
H        5.65311600       2.41520811      -1.48834067       0.17095741       0.01336185       0.00285486
H        5.66946245       2.25237919       2.79194707      -0.22834538      -0.34709422       0.44434183
H       -0.90441587       0.63872603       0.75136349       0.14352255      -0.28401586      -0.00045233
H        2.83415702       0.56056089      -0.47136983      -0.05620297       0.68232155       0.80526682
H       -2.78896877       1.33193127      -0.43700292       0.35266432       0.23551084      -0.05582065
H       -6.55423089       0.75829295      -2.74670782      -0.59575416       0.36622208       0.29008685
H       -6.40264865      -0.88596007      -3.30367174       0.04141811       0.15858122       0.29263626
H       -5.43646928       0.27549164       0.17561868       0.10751278       0.00853985      -0.27196327
H       -5.02400848       1.62726096      -0.85969188      -0.01271161       0.44563117       0.07711491
H       -4.21570512       0.11468491      -2.66413035       0.12918906      -0.02380991       0.16330485
H       -4.59712049      -1.28336223      -1.60858050      -0.01865637       0.48986431      -0.33977611
