43
Properties=species:S:1:pos:R:3:forces:R:3 id=37178 bond=C-N smiles="[H:31][c:13]1[c:15]([c:20]([c:16]([c:18]([c:14]1[H:32])[Cl:2])[H:34])[N:22]([H:36])[c:12]2[c:8]([n:3][c:7]([c:11]([n:5]2)[c:19]3[c:17]([c:21]([c:9]([n:4][c:10]3[F:1])[H:30])[N:23]([H:37])[C:25]([H:40])([H:41])[C:26]([H:42])([H:43])[C:24]([H:38])([H:39])[O:6][H:27])[H:35])[H:28])[H:29])[H:33]" dataset=PubChem energy=-43701.043404081945 pbc="F F F"
F       -0.54203795      -3.13825054       2.74799335       0.02395487       0.49385671      -0.27022769
Cl       7.47059610       3.46640253       3.40204732      -0.38663098      -0.13156955      -0.41630700
N        3.07910944      -1.28591056       3.43648613      -0.77022264       1.23879937      -1.22445687
N       -2.34470008      -2.22668667       1.73954678       0.70269060       0.21708615      -0.01471670
N        1.89908101      -0.14078684       1.14990950      -0.59657124      -0.42176419       0.46060315
O       -6.79287980      -0.29568871      -1.34277153      -0.91218399      -0.57405364       0.81322470
C        1.74001290      -1.39169116       3.20439923       0.81653104       0.40095210      -0.76996807
C        3.77432324      -0.53154071       2.56071437      -0.10288512      -0.69822901      -0.39808538
C       -2.97479127      -1.27201219       1.02554131       1.88291062       0.55313975       0.59065145
C       -1.06740223      -2.09444924       2.06955397      -1.38358223       0.86481230      -0.81119580
C        1.15651883      -0.85104521       2.02294922       0.81815354       0.25210668       0.92612790
C        3.19263650       0.03995968       1.39880616      -0.44563046       0.00726052       0.58760618
C        6.78433636       3.16537833      -0.55442627       0.17048517      -0.43015212       0.98497377
C        7.35908249       3.49728465       0.68719990       0.24547397       0.43070673      -0.23039258
C        5.67542055       2.31335032      -0.60173448      -0.36620976      -0.19743834       0.40162971
C        5.66860655       2.18284952       1.80130581      -0.81039581      -0.21871975       0.28832440
C       -0.97298299       0.06566141       1.04694128      -0.20781497      -0.33505981       0.03725689
C        6.74949720       3.04488253       1.85646454       0.88118846       0.04529903      -0.72423452
C       -0.29945193      -0.94458218       1.73093832      -0.29333755      -0.91490523       0.13077949
C        5.11868027       1.79299581       0.58966617      -2.16901815      -1.66163501      -1.34787896
C       -2.31695388      -0.08103110       0.65466218      -0.36801606       0.17444812      -0.23539276
N        3.85261489       0.75240587       0.41429697       3.42318891       2.53843754       0.22238533
N       -2.93054603       0.94370095      -0.07003671      -0.70839248      -0.36707450       0.53503827
C       -5.89107917       0.11826207      -2.35071242       1.29169030      -1.59669359       0.03355675
C       -4.32837366       0.96854697      -0.56049561       1.39828142      -0.77477687       0.27819468
C       -4.44180225       0.11350454      -1.81563222      -1.01211117      -0.65888721       0.02582072
H       -6.72374366      -1.22251613      -0.98780322       0.47720740       1.55144399      -1.21303066
H        1.15872527      -1.91796012       3.95652473       0.13141840       0.08390382      -0.34104476
H        4.85806108      -0.47726484       2.63609874      -0.24196047      -0.04522286       0.43936839
H       -3.99845241      -1.41192432       0.78580648      -0.66398299      -0.32608385      -0.10249415
H        7.29882934       3.51721597      -1.44583316      -0.45616421      -0.11427564       0.06537649
H        8.28129938       4.11678767       0.73015631      -0.94137893      -0.55402127       0.01934614
H        5.21683672       2.05662644      -1.54877194       0.16317959      -0.05271576       0.04413984
H        5.23318317       1.89379752       2.73151580      -0.22625125      -0.36705600       0.35125651
H       -0.46813659       0.99730770       0.81179476       0.13828148      -0.28113315       0.00049317
H        3.27043630       0.91914256      -0.41093856       0.49354857       0.18909136       0.70908217
H       -2.35268949       1.69051294      -0.37657165       0.34965333       0.23594325      -0.05456016
H       -6.11795161       1.11687462      -2.68627655      -0.59583290       0.36594177       0.28993405
H       -5.96636937      -0.52737840      -3.24324047       0.04154510       0.15861658       0.29260367
H       -5.00019000       0.63407331       0.23604995       0.10805246       0.00886851      -0.27237778
H       -4.58772920       1.98584263      -0.79926061      -0.01291455       0.44549551       0.07740524
H       -3.77942584       0.47326658      -2.60369908       0.12913241      -0.02323154       0.16245561
H       -4.16084121      -0.92478056      -1.54814923      -0.01886140       0.48991294      -0.33971012
