43
Properties=species:S:1:pos:R:3:forces:R:3 id=37178 bond=C-N smiles="[H:31][c:13]1[c:15]([c:20]([c:16]([c:18]([c:14]1[H:32])[Cl:2])[H:34])[N:22]([H:36])[c:12]2[c:8]([n:3][c:7]([c:11]([n:5]2)[c:19]3[c:17]([c:21]([c:9]([n:4][c:10]3[F:1])[H:30])[N:23]([H:37])[C:25]([H:40])([H:41])[C:26]([H:42])([H:43])[C:24]([H:38])([H:39])[O:6][H:27])[H:35])[H:28])[H:29])[H:33]" dataset=PubChem energy=-43695.95212409767 pbc="F F F"
F       -1.00398072      -3.51792525       2.68400729       0.04372420       0.48349695      -0.25475080
Cl       7.93253887       3.84607724       3.46603338      -0.39494408      -0.14384249      -0.40443623
N        2.61716667      -1.66558527       3.37250007      -0.64737457       1.17853399      -1.17791759
N       -2.80664285      -2.60636138       1.67556072       0.69975890       0.21185363      -0.00930904
N        1.43713824      -0.52046155       1.08592344      -1.59769292      -0.60564888       0.95888568
O       -7.25482257      -0.67536342      -1.40675759      -0.91443359      -0.57240603       0.81290368
C        1.27807013      -1.77136587       3.14041317       0.95084144       0.37314664      -0.68714602
C        3.31238047      -0.91121542       2.49672831       0.03484577      -0.87524525      -0.15726897
C       -3.43673404      -1.65168690       0.96155525       1.88408491       0.54831453       0.59383830
C       -1.52934500      -2.47412395       2.00556791      -1.40202853       0.89167457      -0.83631195
C        0.69457606      -1.23071992       1.95896316       0.77043368       0.29933639       0.42166581
C        2.73069373      -0.33971503       1.33482010      -0.19064987       1.42539223      -0.71878162
C        7.24627913       3.54505304      -0.49044021       0.47308708      -0.33607359       1.25372051
C        7.82102526       3.87695936       0.75118596       0.13589893       0.36446161      -0.31544744
C        6.13736332       2.69302503      -0.53774842      -1.42008335      -0.98459707       0.19799497
C        6.13054932       2.56252423       1.86529187      -1.59451096      -0.78306020       0.13394563
C       -1.43492576      -0.31401330       0.98295522      -0.20214846      -0.32147198       0.03929474
C        7.21143997       3.42455724       1.92045060       1.11234899       0.14174463      -0.72954297
C       -0.76139470      -1.32425689       1.66695226      -0.32431944      -0.95398167       0.15293795
C        5.58062304       2.17267052       0.65365223       1.40713164       1.71865423      -0.67621162
C       -2.77889665      -0.46070581       0.59067612      -0.36729380       0.18223954      -0.24278239
N        3.39067212       0.37273116       0.35031091       2.34859380      -1.25418077       0.50865668
N       -3.39248880       0.56402624      -0.13402277      -0.70481847      -0.37599236       0.54175392
C       -6.35302194      -0.26141264      -2.41469848       1.29379029      -1.59605891       0.03301296
C       -4.79031643       0.58887226      -0.62448167       1.39776701      -0.77572088       0.27783483
C       -4.90374502      -0.26617017      -1.87961828      -1.01135587      -0.65808503       0.02479895
H       -7.18568643      -1.60219084      -1.05178928       0.47767514       1.55161205      -1.21358676
H        0.69678250      -2.29763483       3.89253867       0.11696379       0.12463647      -0.30244813
H        4.39611831      -0.85693955       2.57211268      -0.24302564       0.04628771       0.41333666
H       -4.46039518      -1.79159903       0.72182042      -0.66393312      -0.32681881      -0.10253059
H        7.76077211       3.89689068      -1.38184710      -0.48546781      -0.14866847       0.01707207
H        8.74324215       4.49646238       0.79414237      -0.95556809      -0.53804177       0.02008946
H        5.67877949       2.43630115      -1.48478588       0.17046349       0.01571600      -0.00274174
H        5.69512594       2.27347223       2.79550186      -0.22787307      -0.34506297       0.44970695
H       -0.93007936       0.61763299       0.74780870       0.14295567      -0.28373466      -0.00034302
H        2.80849353       0.53946785      -0.47492462      -0.12010994       0.64711313       0.82188927
H       -2.81463226       1.31083823      -0.44055771       0.35294059       0.23592132      -0.05593030
H       -6.57989438       0.73719991      -2.75026261      -0.59562400       0.36607711       0.29007360
H       -6.42831214      -0.90705311      -3.30722653       0.04163939       0.15875841       0.29286103
H       -5.46213277       0.25439860       0.17206389       0.10751824       0.00875392      -0.27188726
H       -5.04967197       1.60616792      -0.86324667      -0.01237512       0.44535324       0.07747272
H       -4.24136861       0.09359187      -2.66768514       0.12913928      -0.02390100       0.16337822
H       -4.62278398      -1.30445527      -1.61213529      -0.01875727       0.48951589      -0.33995372
