43
Properties=species:S:1:pos:R:3:forces:R:3 id=37178 bond=C-N smiles="[H:31][c:13]1[c:15]([c:20]([c:16]([c:18]([c:14]1[H:32])[Cl:2])[H:34])[N:22]([H:36])[c:12]2[c:8]([n:3][c:7]([c:11]([n:5]2)[c:19]3[c:17]([c:21]([c:9]([n:4][c:10]3[F:1])[H:30])[N:23]([H:37])[C:25]([H:40])([H:41])[C:26]([H:42])([H:43])[C:24]([H:38])([H:39])[O:6][H:27])[H:35])[H:28])[H:29])[H:33]" dataset=PubChem energy=-43664.99808438872 pbc="F F F"
F       -0.19985812      -2.85701002       2.79539043       0.07471521       0.49457015      -0.25899642
Cl       7.12841627       3.18516201       3.35465024      -0.39057194      -0.08751809      -0.36223478
N        3.42128927      -1.00467004       3.48388321      -0.98002823       1.01750021      -1.29558626
N       -2.00252025      -1.94544615       1.78694386       0.71641567       0.25923917      -0.03311604
N        2.24126084       0.14045368       1.19730658       0.14890953      -0.34653957       0.42709901
O       -6.45069997      -0.01444819      -1.29537445      -0.89092856      -0.57021527       0.81906951
C        2.08219273      -1.11045064       3.25179631       1.00915189       0.51839055      -0.82176222
C        4.11650307      -0.25030019       2.60811145      -0.12022989      -1.38923286      -0.76226856
C       -2.63261144      -0.99077167       1.07293839       1.88100137       0.49386348       0.62516278
C       -0.72522240      -1.81320872       2.11695105      -1.39691189       0.86126143      -0.81637033
C        1.49869866      -0.56980469       2.07034630       0.41959593       0.38930822       0.91924526
C        3.53481633       0.32120020       1.44620324      -4.59955190      -3.92970925       2.55735404
C        6.44215653       2.88413781      -0.60182335      -0.47344284      -0.88510803       0.73521542
C        7.01690266       3.21604413       0.63980282       1.10810890       1.04723054      -0.06519057
C        5.33324072       2.03210980      -0.64913156       5.00075042       4.64954857      -1.96264912
C        5.32642672       1.90160900       1.75390873       4.21026792       3.40539375       3.29708180
C       -0.63080316       0.34690193       1.09433836      -0.19576419      -0.31767210       0.02148886
C        6.40731737       2.76364201       1.80906746       0.29773208      -0.45907053      -0.97848157
C        0.04272790      -0.66334166       1.77833540      -0.32033293      -0.94155281       0.15314634
C        4.77650044       1.51175529       0.54226909     165.77879869     133.99711225      20.96199209
C       -1.97477405       0.20020942       0.70205926      -0.38280101       0.29402460      -0.30547355
N        4.19479472       1.03364639       0.46169405    -167.75767436    -134.33806523     -21.90201742
N       -2.58836620       1.22494147      -0.02263963      -0.64606382      -0.44280448       0.58866205
C       -5.54889934       0.39950259      -2.30331534       1.27670928      -1.59672855       0.03125709
C       -3.98619383       1.24978749      -0.51309853       1.35169983      -0.77517935       0.26174583
C       -4.09962242       0.39474506      -1.76823514      -0.99956427      -0.65311552       0.02622483
H       -6.38156383      -0.94127561      -0.94040614       0.46759189       1.54753902      -1.21733091
H        1.50090510      -1.63671960       4.00392181       0.11446652       0.08705712      -0.33282340
H        5.20024091      -0.19602432       2.68349582      -0.42023378      -0.24908089       0.54111554
H       -3.65627258      -1.13068380       0.83320356      -0.65726686      -0.32447071      -0.10096711
H        6.95664951       3.23597545      -1.49323024      -0.40262268      -0.04095151       0.04018689
H        7.93911955       3.83554715       0.68275923      -0.94420749      -0.58548494       0.00763410
H        4.87465689       1.77538592      -1.59616902      -0.38501309      -0.31457626       0.16855483
H        4.89100334       1.61255700       2.68411872      -0.05137801       0.47914602      -0.13468321
H       -0.12595676       1.27854822       0.85919184       0.11608576      -0.26763640      -0.00050061
H        3.61261613       1.20038308      -0.36354148      -1.96799989      -2.71060019      -1.00079996
H       -2.01050966       1.97175346      -0.32917457       0.35029245       0.24438630      -0.05538972
H       -5.77577178       1.39811514      -2.63887947      -0.59373808       0.36317363       0.28954357
H       -5.62418954      -0.24613788      -3.19584339       0.04534556       0.16155980       0.29628293
H       -4.65801017       0.91531383       0.28344703       0.10901351       0.01265715      -0.27147362
H       -4.24554937       2.26708315      -0.75186353      -0.00734862       0.44094750       0.08360948
H       -3.43724601       0.75450710      -2.55630200       0.12817865      -0.02393320       0.16263241
H       -3.81866138      -0.64354004      -1.50075215      -0.02093316       0.48417044      -0.34231655
