43
Properties=species:S:1:pos:R:3:forces:R:3 id=37178 bond=C-N smiles="[H:31][c:13]1[c:15]([c:20]([c:16]([c:18]([c:14]1[H:32])[Cl:2])[H:34])[N:22]([H:36])[c:12]2[c:8]([n:3][c:7]([c:11]([n:5]2)[c:19]3[c:17]([c:21]([c:9]([n:4][c:10]3[F:1])[H:30])[N:23]([H:37])[C:25]([H:40])([H:41])[C:26]([H:42])([H:43])[C:24]([H:38])([H:39])[O:6][H:27])[H:35])[H:28])[H:29])[H:33]" dataset=PubChem energy=-43683.549330840346 pbc="F F F"
F       -0.24263059      -2.89216508       2.78946580       0.06631464       0.49652916      -0.26270008
Cl       7.17118874       3.22031707       3.36057487      -0.37081057      -0.08975010      -0.35449847
N        3.37851680      -1.03982510       3.47795858      -0.95789829       1.03759235      -1.28541438
N       -2.04529272      -1.98060121       1.78101923       0.71412631       0.25485425      -0.03168725
N        2.19848837       0.10529862       1.19138195      -0.03870608      -0.36143658       0.41157480
O       -6.49347244      -0.04960325      -1.30129908      -0.89271963      -0.57064272       0.81822930
C        2.03942026      -1.14560570       3.24587168       0.99971007       0.49389355      -0.79040560
C        4.07373060      -0.28545525       2.60218682      -0.09461310      -1.13428710      -0.71061768
C       -2.67538391      -1.02592673       1.06701376       1.88198029       0.50097135       0.62118260
C       -0.76799487      -1.84836378       2.11102642      -1.39191354       0.85813271      -0.81197536
C        1.45592619      -0.60495975       2.06442167       0.49304552       0.37320137       0.89590490
C        3.49204386       0.28604514       1.44027861      -3.40096494      -2.89164517       2.12187776
C        6.48492900       2.91929287      -0.59589872      -0.41163205      -0.82269901       0.74167167
C        7.05967513       3.25119919       0.64572745       0.95027300       0.94736449      -0.01591442
C        5.37601319       2.06726486      -0.64320693       3.76098622       3.58887561      -1.33545472
C        5.36919919       1.93676406       1.75983336       2.93948248       2.45876522       2.54491515
C       -0.67357563       0.31174687       1.08841373      -0.19765291      -0.32047085       0.02298811
C        6.45008984       2.79879707       1.81499209       0.46930648      -0.33315027      -0.98268610
C       -0.00004457      -0.69849672       1.77241077      -0.31493045      -0.93783167       0.14669304
C        4.81927291       1.54691035       0.54819372      86.54985431      69.53711069      10.24098400
C       -2.01754652       0.16505436       0.69613463      -0.38092757       0.27924815      -0.29651902
N        4.15202225       0.99849133       0.45576942     -88.32151870     -69.77565402     -11.38838733
N       -2.63113867       1.18978641      -0.02856426      -0.65349405      -0.43313735       0.58146497
C       -5.59167181       0.36434753      -2.30923997       1.27791158      -1.59686236       0.03161375
C       -4.02896630       1.21463243      -0.51902316       1.35680392      -0.77499522       0.26347550
C       -4.14239489       0.35959000      -1.77415977      -1.00106207      -0.65389085       0.02646814
H       -6.42433630      -0.97643067      -0.94633077       0.46851649       1.54788614      -1.21679992
H        1.45813263      -1.67187466       3.99799718       0.11798434       0.08772926      -0.33465318
H        5.15746844      -0.23117938       2.67757119      -0.39171166      -0.18919618       0.52631941
H       -3.69904505      -1.16583886       0.82727893      -0.65806198      -0.32458392      -0.10105151
H        6.99942198       3.27113051      -1.48730561      -0.40593533      -0.05983939       0.04864542
H        7.98189202       3.87070221       0.68868386      -0.94261514      -0.57934744       0.01069062
H        4.91742936       1.81054098      -1.59024439      -0.19859163      -0.19568658       0.07692029
H        4.93377581       1.64771206       2.69004335      -0.08399355       0.24757842       0.01548068
H       -0.16872923       1.24339316       0.85326721       0.11824374      -0.26922130       0.00049538
H        3.56984366       1.16522802      -0.36946611      -1.06410104      -2.08056264      -0.39653909
H       -2.05328213       1.93659840      -0.33509920       0.34962067       0.24347503      -0.05489361
H       -5.81854425       1.36296008      -2.64480410      -0.59397839       0.36347665       0.28957291
H       -5.66696201      -0.28129294      -3.20176802       0.04492877       0.16123828       0.29585891
H       -4.70078264       0.88015877       0.27752240       0.10897911       0.01227925      -0.27164218
H       -4.28832184       2.23192809      -0.75778816      -0.00807912       0.44145538       0.08293506
H       -3.48001848       0.71935204      -2.56222663       0.12827769      -0.02374948       0.16243896
H       -3.86143385      -0.67869510      -1.50667678      -0.02071635       0.48482476      -0.34200164
