8
Properties=species:S:1:pos:R:3:forces:R:3 id=14710 bond=O-P smiles="[H:6][O:2][P:5](=[S:1])([O:3][H:7])[S:4][H:8]" dataset=PubChem energy=-35064.67443584539 pbc="F F F"
S        1.69165645       0.71974606      -0.99467909       0.72589221       0.32896643      -0.41260765
O       -0.81690015       1.18883605       0.18170821      -1.43064580       2.59806239       0.64115415
O       -0.03349775      -0.66842535       0.09412520    -113.77866213    -243.51077915     -42.35983466
S        1.16179404       0.20066675       2.13427508       1.35335018       0.12616258       1.37057381
P        0.33037226       0.13098549       0.24512183     117.85500559     244.80149159      39.68288642
H       -0.42454847       2.04575903      -0.07767880      -0.60395519      -0.48998245       0.34486556
H       -0.74099856      -0.69199303       0.76805558      -2.75505311      -4.09087147       0.23665783
H        2.42547498      -0.09835954       1.61687922      -1.36489753       0.21164611       0.50503521
