8
Properties=species:S:1:pos:R:3:forces:R:3 id=14710 bond=O-P smiles="[H:6][O:2][P:5](=[S:1])([O:3][H:7])[S:4][H:8]" dataset=PubChem energy=-35107.76998170407 pbc="F F F"
S        2.09833470       1.61320522      -0.82591816      -0.10608841      -0.97842293      -0.32987517
O       -0.41022190       2.08229521       0.35046914      -1.53888652       0.59224113       0.61564074
O       -0.44017600      -1.56188451      -0.07463573       0.58198339       2.26510568       0.84618594
S        1.56847229       1.09412591       2.30303601       0.75006420      -0.79106546       0.32341517
P        0.73705051       1.02444465       0.41388276       1.52944747      -0.96674707      -1.55490347
H       -0.01787022       2.93921819       0.09108213      -0.37191699      -0.51024293      -0.01025273
H       -1.14767681      -1.58545219       0.59929465       0.45360290       0.15127686      -0.35731197
H        2.83215323       0.79509962       1.78564015      -1.29792855       0.23742887       0.47022202
