8
Properties=species:S:1:pos:R:3:forces:R:3 id=14710 bond=O-P smiles="[H:6][O:2][P:5](=[S:1])([O:3][H:7])[S:4][H:8]" dataset=PubChem energy=-35108.83402292203 pbc="F F F"
S        2.02877132       1.46037668      -0.85478516      -0.13564567      -0.97055096      -0.28519665
O       -0.47978528       1.92946667       0.32160214      -1.58094351       0.48929033       0.64023684
O       -0.37061262      -1.40905597      -0.04576873       0.91026660       3.13441672       1.02904398
S        1.49890891       0.94129737       2.27416901       0.70650952      -0.79759082       0.26864777
P        0.66748713       0.87161611       0.38501576       1.29086575      -1.70091623      -1.74843012
H       -0.08743360       2.78638965       0.06221513      -0.32323094      -0.53914053      -0.01355597
H       -1.07811343      -1.43262365       0.62816165       0.44486846       0.13789595      -0.35082429
H        2.76258985       0.64227108       1.75677315      -1.31244771       0.24345059       0.45934973
