50
Properties=species:S:1:pos:R:3:forces:R:3 id=44440 bond=C-C smiles="[H:28][c:3]1[c:7]([c:13]([c:18]([c:14]([c:8]1[H:33])[H:39])[C:25]2([C:23]([C:21]([S:1][C:24]3([C:26]2([c:19]4[c:15]([c:9]([c:4]([c:10]([c:16]4[C:20]([C:22]3([H:44])[H:45])([H:41])[H:42])[H:35])[H:29])[H:34])[H:40])[H:50])[H:48])([H:43])[c:17]5[c:11]([c:5]([c:2]([c:6]([c:12]5[H:37])[H:31])[H:27])[H:30])[H:36])([H:46])[H:47])[H:49])[H:38])[H:32]" dataset=PubChem energy=-37167.89368963519 pbc="F F F"
S       -2.46592755       1.32374136       1.46648901       0.70598577      -0.87784145      -0.25995972
C       -3.66711874       4.97481761      -2.09162970      -0.01965217      -1.63382931       0.46769600
C        5.73492241       0.86929593      -0.84923315      -0.78011424       1.07369219       0.31015664
C        1.94372134      -3.68524183       3.30568604       0.32048193      -0.04229856      -0.55513045
C       -4.00153680       3.66298733      -2.51314397      -0.60909767       0.54109648      -0.63971039
C       -2.79832144       5.11808477      -0.99945707       0.11959067      -0.03019499      -0.48747870
C        5.06931352       1.76745421       0.00651037       0.93574150      -0.21181231       0.49615765
C        4.99498772      -0.08461016      -1.53020859       0.03885514      -0.32090841      -0.27724554
C        2.70719938      -2.71165528       2.65181522      -0.62501222       0.01799124       0.09804445
C        0.58053510      -3.51114668       3.43868331       0.03448264       0.43797663       0.30101068
C       -3.47511692       2.54297457      -1.88408942       0.19661017       0.08506950       0.06080063
C       -2.18666191       3.99012504      -0.42804820      -1.06898720       0.54852520      -0.75871281
C        3.72056579       1.63843817       0.32139371      -0.97222030      -0.06093812      -0.47586554
C        3.62597632      -0.21103876      -1.28389490      -1.32134281       0.36207642       0.83553214
C        2.09792833      -1.55526795       2.14466147      -0.62060716      -0.55273343       0.40271865
C       -0.04333851      -2.34788956       2.95932989       0.23979906      -0.11624663      -0.46771447
C       -2.53694077       2.70664654      -0.86290509      -0.07409519       0.31625672      -0.09288603
C        2.99314165       0.65072024      -0.33483386      -0.98873076      -1.03980382      -0.53206418
C        0.69906579      -1.34779491       2.24843960       0.07553147      -0.76160918       0.58441983
C       -1.53899415      -2.24680962       3.18598823       0.34165210       0.93358015       0.58823261
C       -1.89620204       1.50069724      -0.25582661      -0.04255549      -0.16712831       0.29113065
C       -1.95385320      -0.76203634       3.12168602      -0.62529773      -1.05111590      -0.46890567
C       -0.38128482       1.63083432      -0.30890078       2.50369286      -0.76754135      -0.21709543
C       -1.50477882      -0.23434873       1.76948671      -1.08878599       0.54850290       0.24366503
C        0.34844892       0.33772973       0.20632725       0.02076353       0.64770689       0.63115926
C       -0.00014112      -0.06426557       1.71045725       1.51600661       0.31363644      -0.97542203
H       -4.15030522       5.79288469      -2.59211369       0.11434144       0.34507940       0.05320609
H        6.78728151       1.01460261      -1.03376436       0.06198387      -0.12799807      -0.02884096
H        2.40266614      -4.61344017       3.64107303      -0.01360328       0.31253839       0.05891228
H       -4.71344228       3.51663623      -3.36440797       0.73300457       0.25032887       0.92434025
H       -2.53888126       6.11270986      -0.61474343      -0.16645648      -0.48986323      -0.25071572
H        5.63608360       2.54983872       0.53093283      -0.18791656      -0.38705653      -0.39278014
H        5.49163913      -0.72248130      -2.28155995      -0.41980979       0.29197476       0.56052724
H        3.77170758      -2.88342394       2.53934054      -0.10612890       0.24496606      -0.04475423
H        0.00591086      -4.25984730       4.00279026       0.12424144       0.45017717      -0.44838169
H       -3.76107759       1.52118764      -2.17414899       0.12758090       0.65689856       0.02848204
H       -1.48887785       4.18262634       0.36050625       0.24564952      -0.33758684       0.30611874
H        3.22862506       2.35398430       0.99120712       0.31344733      -0.42814304      -0.22140567
H        3.03716588      -0.98233335      -1.80619335       0.38367645       0.53797671       0.34057224
H        2.73140268      -0.82921316       1.67787461      -0.03724863       0.28739426      -0.25958364
H       -2.07154174      -2.81291498       2.41104059       0.01275831       0.18369690       0.19330110
H       -1.82518192      -2.66517081       4.16881399       0.28533253       0.05829685      -0.51791642
H       -2.21601100       0.57823731      -0.78761608       0.23161842       0.65407489       0.22497649
H       -1.53719051      -0.12792792       3.89703326       0.11923570      -0.24066022       0.31099353
H       -3.04787226      -0.75506808       3.20107298       0.23884280       0.39857131      -0.06256989
H        0.04115160       2.49387560       0.23032849      -0.67446548      -0.26768408      -0.01235125
H       -0.07107295       1.79461155      -1.36714478      -0.27742824      -0.25557737       0.65770206
H       -1.79104610      -0.97322382       1.02312495      -0.22182436       0.10984866      -0.21799271
H        0.03229951      -0.47668846      -0.43743987       0.78425638      -0.31137329      -0.20148366
H        0.25053670       0.78100682       2.36075132       0.11945073      -0.12984279      -0.10424194
