50
Properties=species:S:1:pos:R:3:forces:R:3 id=44440 bond=C-C smiles="[H:28][c:3]1[c:7]([c:13]([c:18]([c:14]([c:8]1[H:33])[H:39])[C:25]2([C:23]([C:21]([S:1][C:24]3([C:26]2([c:19]4[c:15]([c:9]([c:4]([c:10]([c:16]4[C:20]([C:22]3([H:44])[H:45])([H:41])[H:42])[H:35])[H:29])[H:34])[H:40])[H:50])[H:48])([H:43])[c:17]5[c:11]([c:5]([c:2]([c:6]([c:12]5[H:37])[H:31])[H:27])[H:30])[H:36])([H:46])[H:47])[H:49])[H:38])[H:32]" dataset=PubChem energy=-37168.03510159875 pbc="F F F"
S       -2.44351490       1.32639382       1.46190289       0.70486673      -0.87752302      -0.25924529
C       -3.64470609       4.97747007      -2.09621582      -0.01984690      -1.63364069       0.46736949
C        5.71250976       0.86664347      -0.84464703      -0.77906730       1.07325235       0.31043899
C        1.96613399      -3.68258937       3.30109992       0.32099452      -0.04243947      -0.55494362
C       -3.97912415       3.66563979      -2.51773009      -0.60896793       0.54134395      -0.64015000
C       -2.77590879       5.12073723      -1.00404319       0.11955584      -0.03028114      -0.48756502
C        5.04690087       1.76480175       0.01109649       0.93083075      -0.20774221       0.50049834
C        4.97257507      -0.08726262      -1.52562247       0.03350644      -0.32360793      -0.27988068
C        2.72961203      -2.70900282       2.64722910      -0.62460325       0.01758638       0.09787284
C        0.60294775      -3.50849422       3.43409719       0.03453319       0.43795072       0.30084619
C       -3.45270427       2.54562703      -1.88867554       0.19632755       0.08607848       0.06124276
C       -2.16424926       3.99277750      -0.43263432      -1.06910062       0.54908114      -0.75909851
C        3.69815314       1.63578571       0.32597983      -0.95740793      -0.05960124      -0.48266765
C        3.60356367      -0.21369122      -1.27930878      -1.30875832       0.36650045       0.83371146
C        2.12034098      -1.55261549       2.14007535      -0.61962912      -0.55419743       0.40395232
C       -0.02092586      -2.34523710       2.95474377       0.23995929      -0.11686287      -0.46740753
C       -2.51452812       2.70929900      -0.86749121      -0.07645641       0.31414085      -0.09190762
C        2.97072900       0.64806778      -0.33024774      -1.11496664      -1.05280140      -0.50722127
C        0.72147844      -1.34514245       2.24385348       0.07448572      -0.75721341       0.58226761
C       -1.51658150      -2.24415716       3.18140211       0.34141345       0.93394850       0.58810081
C       -1.87378939       1.50334970      -0.26041273      -0.03275421      -0.15774769       0.28801787
C       -1.93144055      -0.75938388       3.11709990      -0.62851832      -1.04971256      -0.47185121
C       -0.35887217       1.63348678      -0.31348690       2.47314926      -0.77442212      -0.21528606
C       -1.48236617      -0.23169627       1.76490059      -1.07958185       0.54679628       0.25458866
C        0.37086157       0.34038219       0.20174113       0.18253696       0.65815637       0.59170516
C        0.02227153      -0.06161311       1.70587113       1.49157672       0.30929662      -0.97738363
H       -4.12789257       5.79553715      -2.59669981       0.11427651       0.34507408       0.05324105
H        6.76486886       1.01195015      -1.02917824       0.06194846      -0.12820320      -0.02863694
H        2.42507879      -4.61078771       3.63648691      -0.01354497       0.31257589       0.05891705
H       -4.69102963       3.51928869      -3.36899409       0.73295586       0.25043072       0.92423065
H       -2.51646861       6.11536232      -0.61932955      -0.16651870      -0.48977103      -0.25071429
H        5.61367095       2.54718626       0.53551895      -0.18733504      -0.38790306      -0.39382400
H        5.46922648      -0.72513376      -2.27697383      -0.41935007       0.29279955       0.56123331
H        3.79412023      -2.88077148       2.53475442      -0.10597265       0.24471646      -0.04464440
H        0.02832351      -4.25719484       3.99820414       0.12429999       0.45015319      -0.44844968
H       -3.73866494       1.52384010      -2.17873511       0.12759448       0.65693776       0.02869700
H       -1.46646520       4.18527880       0.35592013       0.24541915      -0.33778257       0.30612484
H        3.20621241       2.35133184       0.99579324       0.31201849      -0.42964703      -0.22111017
H        3.01475323      -0.98498581      -1.80160723       0.38283252       0.53809116       0.34235160
H        2.75381533      -0.82656070       1.67328849      -0.03773027       0.28196988      -0.25285517
H       -2.04912909      -2.81026252       2.40645447       0.01292943       0.18376765       0.19335687
H       -1.80276927      -2.66251835       4.16422787       0.28547904       0.05803891      -0.51788082
H       -2.19359835       0.58088977      -0.79220220       0.23201751       0.65369531       0.22495860
H       -1.51477786      -0.12527546       3.89244714       0.11927094      -0.24069083       0.31110319
H       -3.02545961      -0.75241562       3.19648686       0.23869669       0.39808109      -0.06138775
H        0.06356425       2.49652806       0.22574237      -0.67317820      -0.26689588      -0.01213155
H       -0.04866030       1.79726401      -1.37173090      -0.27614386      -0.25569007       0.65772845
H       -1.76863345      -0.97057136       1.01853883      -0.22133878       0.11003589      -0.21868834
H        0.05471216      -0.47403600      -0.44202599       0.77008361      -0.30807144      -0.19585901
H        0.27294935       0.78365928       2.35616520       0.12046090      -0.12933340      -0.10356782
