50
Properties=species:S:1:pos:R:3:forces:R:3 id=44440 bond=C-C smiles="[H:28][c:3]1[c:7]([c:13]([c:18]([c:14]([c:8]1[H:33])[H:39])[C:25]2([C:23]([C:21]([S:1][C:24]3([C:26]2([c:19]4[c:15]([c:9]([c:4]([c:10]([c:16]4[C:20]([C:22]3([H:44])[H:45])([H:41])[H:42])[H:35])[H:29])[H:34])[H:40])[H:50])[H:48])([H:43])[c:17]5[c:11]([c:5]([c:2]([c:6]([c:12]5[H:37])[H:31])[H:27])[H:30])[H:36])([H:46])[H:47])[H:49])[H:38])[H:32]" dataset=PubChem energy=-37168.33365253166 pbc="F F F"
S       -2.39868960       1.33169875       1.45273067       0.70272414      -0.87697758      -0.25779459
C       -3.59988079       4.98277500      -2.10538804      -0.02041308      -1.63321552       0.46690812
C        5.66768446       0.86133854      -0.83547481      -0.77698108       1.07211521       0.31120021
C        2.01095929      -3.67728444       3.29192770       0.32193611      -0.04265847      -0.55469844
C       -3.93429885       3.67094472      -2.52690231      -0.60853182       0.54193963      -0.64092077
C       -2.73108349       5.12604216      -1.01321541       0.11985860      -0.03063116      -0.48781805
C        5.00207557       1.75949682       0.02026871       0.92049136      -0.19867366       0.51001901
C        4.92774977      -0.09256755      -1.51645025       0.02241268      -0.32963035      -0.28573776
C        2.77443733      -2.70369789       2.63805688      -0.62371794       0.01668849       0.09768590
C        0.64777305      -3.50318929       3.42492497       0.03454162       0.43817862       0.30032346
C       -3.40787897       2.55093196      -1.89784776       0.19598588       0.08844248       0.06209985
C       -2.11942396       3.99808243      -0.44180654      -1.06971256       0.54967257      -0.75994052
C        3.65332784       1.63048078       0.33515205      -0.92442112      -0.05702030      -0.49836153
C        3.55873837      -0.21899615      -1.27013656      -1.28096812       0.37714338       0.83001409
C        2.16516628      -1.54731056       2.13090313      -0.61775964      -0.55761649       0.40682332
C        0.02389944      -2.33993217       2.94557155       0.24016484      -0.11865817      -0.46694350
C       -2.46970282       2.71460393      -0.87666343      -0.08120248       0.30943735      -0.08989377
C        2.92590370       0.64276285      -0.32107552      -1.37966980      -1.08030513      -0.45393028
C        0.76630374      -1.33983752       2.23468126       0.07221428      -0.74797280       0.57781308
C       -1.47175620      -2.23885223       3.17222989       0.34125363       0.93530223       0.58827728
C       -1.82896409       1.50865463      -0.26958495      -0.01332355      -0.13716695       0.28138913
C       -1.88661525      -0.75407895       3.10792768      -0.63525807      -1.04709422      -0.47812852
C       -0.31404687       1.63879171      -0.32265912       2.40782037      -0.78986580      -0.21095295
C       -1.43754087      -0.22639134       1.75572837      -1.06072173       0.54341329       0.27807539
C        0.41568687       0.34568712       0.19256891       0.52340380       0.68033338       0.50852912
C        0.06709683      -0.05630818       1.69669891       1.43948946       0.29991050      -0.98219658
H       -4.08306727       5.80084208      -2.60587203       0.11402217       0.34519476       0.05325659
H        6.72004356       1.00664522      -1.02000602       0.06180514      -0.12863998      -0.02820998
H        2.46990409      -4.60548278       3.62731469      -0.01339487       0.31255105       0.05892299
H       -4.64620433       3.52459362      -3.37816631       0.73274172       0.25063113       0.92386942
H       -2.47164331       6.12066725      -0.62850177      -0.16656932      -0.48938441      -0.25068509
H        5.56884565       2.54188133       0.54469117      -0.18599679      -0.38965348      -0.39603196
H        5.42440118      -0.73043869      -2.26780161      -0.41828547       0.29451545       0.56270176
H        3.83894553      -2.87546655       2.52558220      -0.10571298       0.24420406      -0.04440834
H        0.07314881      -4.25188991       3.98903192       0.12434891       0.45003965      -0.44844858
H       -3.69383964       1.52914503      -2.18790733       0.12757633       0.65681257       0.02904440
H       -1.42163990       4.19058373       0.34674791       0.24506709      -0.33809905       0.30628352
H        3.16138711       2.34602691       1.00496546       0.30883965      -0.43270289      -0.22036495
H        2.96992793      -0.99029074      -1.79243501       0.38082525       0.53814602       0.34592434
H        2.79864063      -0.82125577       1.66411627      -0.03818657       0.27055100      -0.23875262
H       -2.00430379      -2.80495759       2.39728225       0.01323437       0.18377555       0.19324103
H       -1.75794397      -2.65721342       4.15505565       0.28580667       0.05741856      -0.51761119
H       -2.14877305       0.58619470      -0.80137442       0.23288517       0.65275138       0.22496805
H       -1.46995256      -0.11997053       3.88327492       0.11948291      -0.24059299       0.31148146
H       -2.98063431      -0.74711069       3.18731464       0.23815093       0.39707664      -0.05892456
H        0.10838955       2.50183299       0.21657015      -0.67029297      -0.26490238      -0.01153879
H       -0.00383500       1.80256894      -1.38090312      -0.27349892      -0.25584305       0.65714725
H       -1.72380815      -0.96526643       1.00936661      -0.22024027       0.11040018      -0.22023038
H        0.09953746      -0.46873107      -0.45119821       0.73815102      -0.30152240      -0.18393501
H        0.31777465       0.78896421       2.34699298       0.12264927      -0.12821596      -0.10198207
