35
Properties=species:S:1:pos:R:3:forces:R:3 id=44571 bond=C-O smiles="[H:31][C:15]1([O:3][c:5]2[c:9]([c:10]([c:6]([c:8]([c:7]2[S:4]1)[C:11]([H:20])([H:21])[H:22])[O:1][H:18])[C:13]([H:26])([H:27])[H:28])[C:12]([H:23])([H:24])[H:25])[C:17]([H:34])([H:35])[C:16]([H:32])([H:33])[C:14]([H:29])([H:30])[O:2][H:19]" dataset=PubChem energy=-30764.5427886354 pbc="F F F"
O       -2.18886678       3.23341966      -1.83189352       3.51606089      -3.03555556       0.03798989
O        0.64999446      -1.24101182       4.69840419       0.39367244      -0.41991423      -0.25292058
O        1.45088038      -0.79349836       0.39112361       0.40141696       0.10691745      -0.64868335
S        0.73780043       1.00997779       2.20619237      -0.14008270       0.70679938      -0.22346524
C        0.68816638       0.12587441      -0.27968729       0.55882521       0.40398582       1.11139432
C       -0.91888788       2.07130782      -1.35694110      -1.41220582       1.52910187       0.29885375
C        0.22622878       1.14638070       0.53154608      -0.55541821       0.17577398      -0.50138856
C       -0.59576216       2.11871115       0.00605285      -0.91415841       1.12603640       0.03341071
C        0.50279165       0.13102601      -1.63799846       0.24784327      -0.55970122      -0.69876942
C       -0.26646366       1.14668170      -2.21490633      -2.27481043       1.84413842      -0.22726367
C       -1.12207654       3.20919017       0.92368859       0.34190332       0.10840107      -0.43660497
C        1.07485971      -1.01952120      -2.45751583      -0.50057354       0.31693682       0.48903478
C       -0.59202256       1.19369153      -3.69879257       0.09882713      -0.45286965      -0.33594069
C        2.05591747      -1.57618590       4.72885787      -0.20787743       1.11462914       0.35714393
C        1.43154505      -0.59272047       1.80452025      -0.32480598      -1.53014812       0.32031615
C        2.89705941      -0.57481464       3.93453085       1.07015574      -1.29472818      -1.07130609
C        2.81756660      -0.79485627       2.38512790      -0.16117264      -0.24298954       0.76838194
H       -2.62753694       3.54045820      -1.03162737       0.47666247      -0.47256430       0.23963879
H        0.50528690      -0.41723736       5.17997300       0.23668210      -0.31579065      -0.16711765
H       -0.49540976       3.29265122       1.81438875      -0.25475510      -0.15166902      -0.02874590
H       -2.15781763       3.01049236       1.21229583       0.15070854       0.13309947       0.05833368
H       -1.04311803       4.18004516       0.42075367      -0.25772377      -0.23549763       0.08265616
H        0.96564904      -1.92457672      -1.84427655       0.36903207       0.20577014      -0.35557736
H        2.11995348      -0.83922025      -2.72456133      -0.16449160      -0.20689614       0.07647677
H        0.48053085      -1.14671012      -3.35648882       0.14989892      -0.08230238      -0.09767982
H       -0.90658619       2.18015317      -4.07932389      -0.08978932      -0.44857089       0.67472136
H        0.31040770       0.95328931      -4.28705656      -0.50413578      -0.22277320       0.22045560
H       -1.40385773       0.44666712      -3.89235270       0.74530431       0.64475476      -0.15983881
H        2.22672233      -2.57730838       4.35063159      -0.49433928      -0.15549971      -0.13685358
H        2.36622497      -1.56929847       5.76944864       0.23415565      -0.06921629       0.15539626
H        0.72186953      -1.34383102       2.17267740       0.32640276       0.16849507       0.24779635
H        2.56881735       0.41009596       4.15390575      -0.13224706       1.00777013       0.37931364
H        3.97799560      -0.67273613       4.23511159      -1.06813952       0.15022736      -0.23175727
H        3.13257191      -1.80902334       2.17167270      -0.04886634      -0.33149592      -0.04668272
H        3.50433848      -0.17147168       1.83416581       0.18770283       0.48529650       0.06336700
