35
Properties=species:S:1:pos:R:3:forces:R:3 id=44571 bond=C-O smiles="[H:31][C:15]1([O:3][c:5]2[c:9]([c:10]([c:6]([c:8]([c:7]2[S:4]1)[C:11]([H:20])([H:21])[H:22])[O:1][H:18])[C:13]([H:26])([H:27])[H:28])[C:12]([H:23])([H:24])[H:25])[C:17]([H:34])([H:35])[C:16]([H:32])([H:33])[C:14]([H:29])([H:30])[O:2][H:19]" dataset=PubChem energy=-30761.03994159949 pbc="F F F"
O       -2.48723532       3.50644593      -1.94347872       1.92691246      -1.58128763       0.03133424
O        0.94836300      -1.51403809       4.80998939       0.40029008      -0.40800214      -0.27702758
O        1.74924892      -1.06652463       0.50270881       0.26630236       0.24637758      -0.82494754
S        1.03616897       0.73695152       2.31777757      -0.17125193       0.75250284      -0.20984325
C        0.98653492      -0.14715186      -0.16810209       0.67569259       0.30454774       1.17246243
C       -0.62051934       1.79828155      -1.24535590       1.44094780      -1.34092103       0.96190003
C        0.52459732       0.87335443       0.64313128      -0.56058759       0.00293098      -0.59152004
C       -0.29739362       1.84568488       0.11763805      -1.67006124       2.08187324      -0.20140476
C        0.80116019      -0.14200026      -1.52641326       0.21440960      -0.64618931      -0.54378249
C        0.03190488       0.87365543      -2.10332113      -2.52344425       2.21386319      -0.65213386
C       -0.82370800       2.93616390       1.03527379       0.33111037       0.26088041      -0.31802097
C        1.37322825      -1.29254747      -2.34593063      -0.51961179       0.31150580       0.42257003
C       -0.29365402       0.92066526      -3.58720737       0.14988402      -0.44809347      -0.46967842
C        2.35428601      -1.84921217       4.84044307      -0.20939163       1.10813612       0.36523871
C        1.72991359      -0.86574674       1.91610545      -0.32950218      -1.53606600       0.39212749
C        3.19542795      -0.84784091       4.04611605       1.06748056      -1.29296529      -1.06325761
C        3.11593514      -1.06788254       2.49671310      -0.15687289      -0.23420665       0.76127053
H       -2.92590548       3.81348447      -1.14321257       0.28976484      -0.29568855       0.36495468
H        0.80365544      -0.69026363       5.29155820       0.23178721      -0.31864982      -0.15501931
H       -0.19704122       3.01962495       1.92597395      -0.21650859      -0.17005997      -0.02569365
H       -1.85944909       2.73746609       1.32388103       0.19366010       0.10377831      -0.05033088
H       -0.74474949       3.90701889       0.53233887      -0.32082536      -0.30761709       0.02706618
H        1.26401758      -2.19760299      -1.73269135       0.35480222       0.21814397      -0.34558479
H        2.41832202      -1.11224652      -2.61297613      -0.17525851      -0.19091841       0.08397965
H        0.77889939      -1.41973639      -3.24490362       0.15397893      -0.08704322      -0.09161433
H       -0.60821765       1.90712690      -3.96773869      -0.10482098      -0.44588078       0.69924409
H        0.60877624       0.68026304      -4.17547136      -0.49831991      -0.22309227       0.23426319
H       -1.10548919       0.17364085      -3.78076750       0.75698598       0.65259935      -0.11698052
H        2.52509087      -2.85033465       4.46221679      -0.49383529      -0.15556291      -0.13463223
H        2.66459351      -1.84232474       5.88103384       0.23424215      -0.06823582       0.14959764
H        1.02023807      -1.61685729       2.28426260       0.33013665       0.17075662       0.23832297
H        2.86718589       0.13706969       4.26549095      -0.12897004       1.00888637       0.38269337
H        4.27636414      -0.94576240       4.34669679      -1.07210095       0.15295709      -0.23779318
H        3.43094045      -2.08204961       2.28325790      -0.05513527      -0.32870725      -0.04817138
H        3.80270702      -0.44449795       1.94575101       0.18962308       0.48551560       0.06381280
