26
Properties=species:S:1:pos:R:3:forces:R:3 id=10762 bond=N-O smiles="[H:20][c:8]1[c:7]([c:11]2[c:10]([c:9]([c:12]1[C:16]([H:24])([H:25])[C:17]3([N:15]([C:6](=[S:1])[O:5][N:14]3[H:22])[H:23])[H:26])[H:21])[N:2]=[N:3][N:13]2[O:4][H:18])[H:19]" dataset=PubChem energy=-31867.975005331697 pbc="F F F"
S        5.56267066      -1.08612756       3.87755683      -1.28954966      -0.78973620      -0.95391299
N       -2.40287785       2.93467970       0.45971775      -0.75701173       0.30887592       0.14556146
N       -3.38229660       2.61181588      -0.30640491      -0.19794898      -0.51681564      -0.75126040
O       -3.95934763       0.69172427      -2.36142777       2.94108148       1.33422252       3.29872187
O        3.46821399      -2.00688700       2.32495895       0.04676485      -0.12583293       0.78205502
C        4.08692975      -1.05688552       3.05722860       1.06677937       0.94511889       0.74339306
C       -0.69648604       0.37790675      -1.32720014      -0.33980634      -0.14284416      -0.69990568
C        0.54890946       0.33457218      -0.73259422      -0.56629123      -0.47482634      -0.25388116
C       -0.06781636       2.10706110       0.79427693       1.78207100      -1.13997856      -0.00965802
C       -1.30693023       2.16199394       0.17479262      -0.33904476      -0.02331253       0.00467865
C       -1.63648085       1.31056125      -0.86624488       0.34679524      -1.03113714      -0.81702690
C        0.89377002       1.17586811       0.33530718      -0.75983357       1.10695262       0.74455714
N       -2.93512707       1.64886721      -1.15817138      -1.82861107      -1.12352766      -2.05367005
N        2.40737064      -1.37994127       1.60779229       0.33036408       2.04338929      -1.33562141
N        3.34679718       0.07839955       3.04714969      -0.34864135       0.32132037      -0.86463245
C        2.24061079       1.07484571       1.04852709      -0.52747490      -0.10274252      -0.67400244
C        2.21747048      -0.00712370       2.12523213       0.52192889      -0.52460802       0.52533354
H       -4.56472340       1.29931185      -2.80319022       0.24489411       0.96766269       0.44108459
H       -0.92535131      -0.27795236      -2.16550442      -0.00870023       0.12350647       0.33077529
H        1.20149650      -0.45767169      -1.08345696       0.27889414       0.33876111       0.11368769
H        0.19546293       2.68453569       1.67133072      -0.31329985       0.29643956      -0.18816983
H        1.55312724      -1.88542609       1.46481285       0.24681803      -0.95808631       0.93940213
H        3.80357309       0.98042114       3.18678048      -0.16738290      -0.83620516       0.16242340
H        3.01638503       0.82521576       0.31545195      -0.04288553       0.14129222       0.31436456
H        2.45533116       2.04944117       1.50391904       0.05964085      -0.29214386      -0.04000537
H        1.29771699       0.05499960       2.69269565      -0.38192598       0.15460943       0.09350741
