32
Properties=species:S:1:pos:R:3:forces:R:3 id=30480 bond=C-O smiles="[H:27]/[C:16](=[C:15](/[C:17]([H:28])([H:29])[H:30])[C:22]([H:31])([H:32])[C:24]([C:20]([F:7])([F:8])[F:9])([C:21]([F:10])([F:11])[F:12])[O:14][H:26])/[C:23]([C:18]([F:1])([F:2])[F:3])([C:19]([F:4])([F:5])[F:6])[O:13][H:25]" dataset=PubChem energy=-47220.34674610768 pbc="F F F"
F       -2.97016023       3.39322493      -0.72236887      -0.07611695       0.36254507       0.06142569
F       -0.93278096       4.16414568      -0.44329742      -0.48697251      -0.61494296      -0.78376670
F       -1.38922547       2.40273211      -1.76989332       0.37774541       0.86282343       0.23801612
F       -1.66298626       1.97695682       3.08068999      -0.64518981      -1.85805669       0.05777970
F       -3.12006996       2.98510692       1.84435030      -1.10824117       0.08121221       0.49874248
F       -1.08270286       3.69140599       2.13250979      -0.01559600       0.87547701      -0.66976491
F        1.34554918      -0.05487647      -1.77818289       0.77214798      -2.04891131       0.29255832
F        2.05269982      -2.20369675      -2.15007464      -0.84870665       1.53808208       1.15907590
F        0.21460976      -1.73682931      -1.03952447       0.17788639      -0.27801211       0.03655811
F        4.37807919      -1.13534334       1.04828205      -0.09177066      -0.86752189      -0.76586770
F        4.16786696      -0.36497375      -0.96631721      -0.41648809      -2.20803014       0.41130991
F        4.30566479      -2.61728098      -0.57262352      -1.16787013       1.48207691       0.25166856
O       -2.09733150       1.15713168       0.21571963     -23.39868960     -32.69366406      -9.74048161
O        1.86451961      -2.31364538       1.07072421       0.53852020      -1.42639069      -2.83951208
C        0.46091314       0.37053364       1.20024785      -1.09473724       2.58053939      -3.47081753
C       -0.04966403       1.47118077       0.53061040       3.57522107       1.59016850       1.65304681
C       -0.36530553      -0.46242043       2.07337459      -0.02226928       0.25528711       1.20163249
C       -1.69180845       3.05292580      -0.60541967       1.07051225       1.11939040      -0.29299980
C       -1.86297701       2.59983871       1.92148909       1.77976996       2.38798122      -0.14956651
C        1.46605017      -1.32926061      -1.23889938       0.10854019       0.71839603      -0.65250189
C        3.77983691      -1.44859388      -0.14240882       1.69031062       2.94355394       0.77077740
C        1.90487923       0.05572034       0.94309901       1.29931982       0.27336638      -1.48567719
C       -1.48790834       1.94860003       0.47783957      22.08443880      28.93728226      11.46688285
C        2.27174391      -1.27958645       0.10878536      -1.68763294      -0.74290750       1.84809272
H       -1.46355722       0.41588212       0.13622900      -1.95089652      -1.39636309      -0.82216028
H        1.93163468      -3.21812202       0.61086471      -0.14368760       1.94326257       1.08519096
H        0.63845800       2.24980197       0.16014891       0.07387879      -1.05562824      -0.27583008
H        0.00913553      -0.32998171       3.10966643      -0.36131851      -0.13615009      -0.47356372
H       -1.38075291      -0.10820778       2.01885232      -0.25848389      -0.25845828       0.47264950
H       -0.32077478      -1.49587371       1.84426829       0.08878310      -0.94045673      -0.21749597
H        2.50911237       0.88754479       0.50870549      -1.03014054      -0.49041779       0.05744636
H        2.26490094      -0.00603410       1.93007239       1.14453439      -0.93942418       1.07217020
