32
Properties=species:S:1:pos:R:3:forces:R:3 id=30480 bond=C-O smiles="[H:27]/[C:16](=[C:15](/[C:17]([H:28])([H:29])[H:30])[C:22]([H:31])([H:32])[C:24]([C:20]([F:7])([F:8])[F:9])([C:21]([F:10])([F:11])[F:12])[O:14][H:26])/[C:23]([C:18]([F:1])([F:2])[F:3])([C:19]([F:4])([F:5])[F:6])[O:13][H:25]" dataset=PubChem energy=-47225.87991304967 pbc="F F F"
F       -2.87493786       3.51689187      -0.68141263       0.10512724       0.45175538       0.18292100
F       -0.83755859       4.28781262      -0.40234118      -0.57353292      -1.03782604      -0.50303609
F       -1.29400310       2.52639905      -1.72893708       0.45917243       1.09448094       0.30445789
F       -1.56776389       2.10062376       3.12164623      -0.55937449      -1.73344856      -0.30658597
F       -3.02484759       3.10877386       1.88530654      -0.85219739       0.11671367       0.46854505
F       -0.98748049       3.81507293       2.17346603      -0.06088663       0.52064364      -0.97908073
F        1.44077155       0.06879047      -1.73722665       0.77795264      -2.05273115       0.29069975
F        2.14792219      -2.08002981      -2.10911840      -0.84517356       1.53105093       1.15217952
F        0.30983213      -1.61316237      -0.99856823       0.18235286      -0.27821434       0.03380076
F        4.47330156      -1.01167640       1.08923829      -0.08506564      -0.87090941      -0.76685160
F        4.26308933      -0.24130681      -0.92536097      -0.41104211      -2.20332901       0.40840668
F        4.40088716      -2.49361404      -0.53166728      -1.16387100       1.47994141       0.25039609
O       -2.19255387       1.03346474       0.17476339      -0.63054618      -1.68504471       0.03075244
O        1.95974198      -2.18997844       1.11168045       0.54778359      -1.42575482      -2.84105545
C        0.55613551       0.49420058       1.24120409      -1.00697136       2.66544215      -3.51152505
C        0.04555834       1.59484771       0.57156664       1.67859470       0.20898449       1.22838109
C       -0.27008316      -0.33875349       2.11433083      -0.03694117       0.29755674       1.14492294
C       -1.59658608       3.17659274      -0.56446343       0.21871748      -0.95344567      -0.51811523
C       -1.76775464       2.72350565       1.96244533       0.95455588       1.15749298      -0.69597296
C        1.56127254      -1.20559367      -1.19794314       0.09057704       0.73408622      -0.64192819
C        3.87505928      -1.32492694      -0.10145258       1.67700693       2.94590799       0.78041853
C        2.00010160       0.17938728       0.98405525       1.31596356       0.35699132      -1.32844320
C       -1.39268597       2.07226697       0.51879581       1.46633298       0.93666260       2.61974883
C        2.36696628      -1.15591951       0.14974160      -1.71394351      -0.73160339       1.84198077
H       -1.55877959       0.29221518       0.09527276      -1.02485766       0.32114165      -0.28742342
H        2.02685705      -3.09445508       0.65182095      -0.14464592       1.94509923       1.08349880
H        0.73368037       2.37346891       0.20110515      -0.10369659      -1.00364700      -0.28013724
H        0.10435790      -0.20631477       3.15062267      -0.32244571      -0.15763012      -0.46691733
H       -1.28553054       0.01545916       2.05980856      -0.22484104      -0.23163573       0.40344228
H       -0.22555241      -1.37220677       1.88522453       0.09304325      -0.95109011      -0.20938784
H        2.60433474       1.01121173       0.54966173      -1.01573028      -0.48598755       0.05002675
H        2.36012331       0.11763284       1.97102863       1.18570548      -0.96132912       1.05921534
