44
Properties=species:S:1:pos:R:3:forces:R:3 id=40896 bond=C-S smiles="[H:41][C:21]1([C:17]([C:13]([N:11]([C:14]([C:18]1([H:35])[H:36])([H:27])[H:28])[N:9]([H:23])[C:7](=[S:1])[S:5][S:3][S:4][S:6][C:8](=[S:2])[N:10]([H:24])[N:12]2[C:15]([C:19]([C:22]([C:20]([C:16]2([H:31])[H:32])([H:39])[H:40])([H:43])[H:44])([H:37])[H:38])([H:29])[H:30])([H:25])[H:26])([H:33])[H:34])[H:42]" dataset=PubChem energy=-83792.70836489271 pbc="F F F"
S        3.26874609      -4.36943473      -0.13329030      -1.90733323      -0.27092170      -0.13758568
S       -2.52947107       0.31894297       2.38411938       1.34860502      -0.28560079      -2.47096882
S       -1.35106568      -3.89704075       0.32474496      -0.13446492       0.02714063      -0.76877134
S       -1.92951779      -2.61381330      -1.23141152       1.38133969       1.55384922       0.82230485
S        0.31277288      -4.71270504      -0.58284015       0.50542529      -0.02088762       0.72733264
S       -0.49888103      -1.09805395      -1.12302704      -2.02831837      -0.12933830       0.64610768
C        1.67460592      -3.92509164       0.22051557       2.51690213       2.20755844       1.35594387
C       -1.73221126       0.86661558       1.01364050      -1.14134291       2.56125087       2.48158603
N        1.47759117      -2.86034049       1.11211508      -0.38245698      -0.30927021      -0.42635673
N       -1.59595767       2.25891966       0.90037430       0.83228262      -1.61231722      -2.53446601
N        2.54603965      -2.15293755       1.74109106       0.09033509      -1.16463897      -0.73098182
N       -1.12005451       2.88097471      -0.30491973       0.45628160      -1.15456739       0.50500268
C        2.81597348      -0.78440823       1.22335380      -1.04218945      -0.05572665       0.50379638
C        2.62127109      -2.36282338       3.22656446      -0.04295698       0.95314454      -1.05350270
C        0.10379458       3.74985236      -0.28351403      -1.61682009      -0.12239112       0.13912149
C       -2.01585164       2.96714848      -1.48690463       0.36561669       0.76446713       0.64288458
C        1.86572380       0.22055104       1.93421965       0.49419175       0.08743768      -0.28797197
C        1.79006333      -1.27758135       3.93158441      -0.16090799      -0.13329939       1.23364723
C        0.87974337       3.59123749      -1.57588578      -0.40697937      -0.16648460      -0.43849734
C       -1.21331445       2.87165529      -2.79809857       0.02708936       0.85264053      -0.29885322
C        2.10425002       0.15321973       3.45126205      -0.38691571      -0.60476795      -0.42406522
C        0.02220963       3.82888025      -2.82852364      -0.57748999      -0.94003597       1.05834054
H        0.52826939      -2.46955647       1.18308824       0.75432237      -0.28749963      -0.02511069
H       -2.07197681       2.83821375       1.60403400       0.32382763      -0.46756087      -0.56668066
H        2.74656935      -0.72859659       0.11797342      -0.22267800      -0.44328913       0.73001893
H        3.84698649      -0.48475887       1.46019762      -0.18233139      -0.43948573       0.12777338
H        2.22304244      -3.36901226       3.42598586       0.38474000       0.44083893      -0.04787141
H        3.70015545      -2.28776445       3.54780989      -1.06153584      -0.17843860      -0.45392232
H        0.73105928       3.48013562       0.55090012      -0.03170847      -0.24983616       0.32343846
H       -0.20647279       4.80183143      -0.13659800       0.15782778      -0.20695586      -0.11443118
H       -2.51599446       3.94651264      -1.44038058      -0.17175879      -0.12091018      -0.19451310
H       -2.78478566       2.18639642      -1.43937135       0.39261160       0.17138546       0.10705987
H        0.80836063      -0.01289255       1.72473841       0.42922014       0.08119256      -0.07445338
H        2.08340998       1.22805831       1.55823844      -0.19582432      -0.11896191       0.05069754
H        0.70567850      -1.46796193       3.79954772       0.53462719       0.03000300      -0.10011865
H        1.97107335      -1.35833933       5.02939277      -0.13377699       0.09046957      -0.66535809
H        1.26956019       2.57589049      -1.60613490       0.11670777      -0.05828109      -0.02666969
H        1.70903525       4.28171057      -1.61034346       0.33456862       0.16683616       0.26147074
H       -0.94740525       1.84401518      -2.94260312       0.56902583      -0.55695741       0.04136726
H       -1.85063711       3.11032862      -3.66240121      -0.08036746       0.04220190       0.43408659
H        1.45152796       0.86833630       3.96030336       0.18971852      -0.11526471       0.01655241
H        3.14405627       0.40235270       3.67053967      -0.01352831       0.05829615       0.04694195
H       -0.33407340       4.85862368      -2.81073857       0.02887740       0.06696821      -0.20876273
H        0.66266823       3.66167563      -3.69138146      -0.31572982       0.06428170      -0.20552772
