38
Properties=species:S:1:pos:R:3:forces:R:3 id=28594 bond=C-N smiles="[H:20][c:3]1[c:5]([c:9]([c:12]2[c:10]([c:6]([c:4]([c:8]([c:11]2[c:7]1[H:23])[H:24])[H:21])[N:13]([C:18]([H:37])([C:14]([H:27])([H:28])[H:29])[C:16]([H:33])([H:34])[Cl:1])[C:19]([H:38])([C:15]([H:30])([H:31])[H:32])[C:17]([H:35])([H:36])[Cl:2])[H:26])[H:25])[H:22]" dataset=PubChem energy=-43423.95844688451 pbc="F F F"
Cl      -2.83739705      -2.43556775       1.48187672      -0.63626415      -0.13301590       0.27326489
Cl      -0.42443056       3.61962543      -2.62500067       0.20086781      -0.46359035       0.25130735
C        4.73195624       0.56899623       2.56730365       0.12590628      -1.22280795      -1.35839247
C        1.02917278      -0.30886686      -0.50665403       8.20285475      -3.39516796      -0.11282914
C        3.86502098       1.23515219       3.42340731      -1.97658924       0.80817128      -0.14667169
C        0.15471906       0.41856646       0.29922333     154.43242492     -24.61750348      52.70986318
C        4.22281265      -0.04420573       1.40662848       1.18547509       0.96646004       1.15602575
C        2.37773919      -0.45648318      -0.14593649      -2.09686841      -0.46731877      -1.73207816
C        2.49339747       1.38254625       3.08972525       1.43419558      -0.62919637      -0.08141470
C        0.61097303       0.97044658       1.47702682       3.90751757       0.91005109       4.17285413
C        2.88539433       0.10294053       1.03033381      -0.51041619       0.43299355       0.71534304
C        1.96799731       0.83169463       1.86171448       0.61811659       0.87421278       1.45911258
N       -0.59643478       0.54183457       0.04726045    -161.84219461      26.29076447     -53.94740805
C       -1.36973853      -1.58682884      -1.08106143      -0.71670002       0.50885618      -0.39461311
C       -1.27000017       2.87780724       0.44333437       0.33675452       0.12445913      -0.17622388
C       -1.48009129      -1.33403720       1.33287262       0.92997935       0.20403616       0.11207098
C        0.15359037       2.25724183      -1.61165495      -0.31936021      -1.31494593       0.43084762
C       -1.57993789      -0.55867554       0.03920173      -2.29579743      -1.62771950      -1.79004023
C       -0.97580154       1.82094393      -0.62488122      -1.67319395       2.13250811      -0.19576392
H        5.80001807       0.47674642       2.80417990      -0.59309343       0.05304126      -0.10734254
H        0.65794617      -0.80141884      -1.39290190       0.35615401       0.46437098       0.02859356
H        4.26685023       1.71080726       4.31808400      -0.27440755      -0.20959392      -0.14217620
H        4.90949368      -0.57332224       0.75430297      -0.16305329      -0.02051039       0.02649784
H        3.03049850      -0.97506148      -0.83338523       0.29561691      -0.10857833       0.10473644
H        1.82713604       1.87952429       3.79613042       0.15813783      -0.04308142      -0.34501197
H       -0.15073985       1.49893474       2.12980783       1.33297313      -0.97530211      -0.75399387
H       -1.21926351      -1.06875314      -2.00560684      -0.07459839       0.15249855      -0.69941235
H       -2.24191828      -2.20820822      -1.18247158      -0.36163651      -0.16770903       0.02301090
H       -0.52500017      -2.23090042      -0.92614121       0.23227670      -0.22215813       0.29993400
H       -0.44569941       2.98465930       1.16294627      -0.40650849      -0.18365495      -0.44648819
H       -1.35292430       3.86220322       0.00648271      -0.43278974       0.16528223      -0.28218190
H       -2.18885322       2.58407460       0.95315709       0.12886477       0.28925678       0.10018450
H       -1.45661040      -0.60250510       2.11518793      -0.09148469      -0.11832341       0.88266281
H       -0.59614379      -1.98670830       1.36678331      -0.15920800       0.65612520       0.03685217
H        1.01745178       2.56766807      -1.02385289      -0.00554181       0.08210862      -0.37045434
H        0.42418061       1.37463914      -2.24578662      -0.16491809       1.14532876       0.35012386
H       -2.60627718      -0.13179530      -0.00565035       0.78811313      -0.12409349      -0.15923169
H       -1.88253279       1.66157959      -1.21229668       0.13339783      -0.21713010       0.11078544
