38
Properties=species:S:1:pos:R:3:forces:R:3 id=28594 bond=C-N smiles="[H:20][c:3]1[c:5]([c:9]([c:12]2[c:10]([c:6]([c:4]([c:8]([c:11]2[c:7]1[H:23])[H:24])[H:21])[N:13]([C:18]([H:37])([C:14]([H:27])([H:28])[H:29])[C:16]([H:33])([H:34])[Cl:1])[C:19]([H:38])([C:15]([H:30])([H:31])[H:32])[C:17]([H:35])([H:36])[Cl:2])[H:26])[H:25])[H:22]" dataset=PubChem energy=-43449.59877162671 pbc="F F F"
Cl      -3.51552203      -2.32428403       1.25441024      -0.78503241      -0.42636255       0.43185297
Cl      -1.10255554       3.73090915      -2.85246715       0.30123912      -0.17128101      -0.00831549
C        5.41008122       0.45771251       2.79477013      -0.03301374      -1.31054457      -1.56323247
C        1.70729776      -0.42015058      -0.27918755       0.53872277      -0.51992397      -0.44361394
C        4.54314596       1.12386847       3.65087379      -2.07955797       0.90106908      -0.15978171
C        0.83284404       0.30728274       0.52668981      -1.41007194       0.70903381      -0.11554162
C        4.90093763      -0.15548945       1.63409496       1.47628846       0.94542109       1.26028073
C        3.05586417      -0.56776690       0.08152999      -1.70936207       0.09447859      -0.89995878
C        3.17152245       1.27126253       3.31719173       1.17105896      -0.55689029      -0.03892748
C        1.28909801       0.85916286       1.70449330      -2.65827746       0.68205886       0.16885381
C        3.56351931      -0.00834319       1.25780029      -0.93451200       0.40919092       0.42075240
C        2.64612229       0.72041091       2.08918096       1.04093938       0.10224956       1.02666037
N       -1.27455976       0.65311829      -0.18020603       1.35196219      -0.08678916       0.86610478
C       -2.04786351      -1.47554512      -1.30852791      -0.66669242       0.78040898      -0.33684836
C       -1.94812515       2.98909096       0.21586789       0.39069128       0.01286466      -0.09767947
C       -2.15821627      -1.22275348       1.10540614       0.72494766       0.21845680      -0.01974192
C       -0.52453461       2.36852555      -1.83912143      -0.63069841      -1.24044408       0.45080222
C       -2.25806287      -0.44739182      -0.18826475       1.56670501      -0.65351814      -0.33817465
C       -1.65392652       1.93222765      -0.85234770       1.81991519      -0.39219913       0.65319630
H        6.47814305       0.36546270       3.03164638      -0.60795769       0.04885763      -0.11258403
H        1.33607115      -0.91270256      -1.16543542       0.09446854       0.15171705      -0.09962668
H        4.94497521       1.59952354       4.54555048      -0.31273620      -0.21236312      -0.16499758
H        5.58761866      -0.68460596       0.98176945      -0.18109277      -0.00747283       0.04485413
H        3.70862348      -1.08634520      -0.60591875       0.00371582      -0.14062053       0.10267578
H        2.50526102       1.76824057       4.02359690       0.17180263      -0.06078877      -0.36141057
H        0.52738513       1.38765102       2.35727431       1.32709207      -0.58519956      -0.77783789
H       -1.89738849      -0.95746942      -2.23307332       0.04815717       0.25853258      -0.65635295
H       -2.92004326      -2.09692450      -1.40993806      -0.30734700      -0.30538970      -0.09371414
H       -1.20312515      -2.11961670      -1.15360769       0.50369138      -0.13875071       0.35317897
H       -1.12382439       3.09594302       0.93547979      -0.23183353      -0.47759093      -0.16716416
H       -2.03104928       3.97348694      -0.22098377      -0.47943754       0.26277758      -0.21417844
H       -2.86697820       2.69535832       0.72569061       0.17188341       0.26853954       0.11578034
H       -2.13473538      -0.49122138       1.88772145      -0.13091135      -0.04966642       0.76278063
H       -1.27426877      -1.87542458       1.13931683      -0.13393317       0.61310084      -0.03148599
H        0.33932680       2.67895179      -1.25131937      -0.03257488       0.10809249      -0.28837468
H       -0.25394437       1.48592286      -2.47325310      -0.25659824       1.05064294       0.41314222
H       -3.28440216      -0.02051158      -0.23311683       0.75205327       0.02490351      -0.09313482
H       -2.56065777       1.77286331      -1.43976316       0.13078784      -0.30731829       0.01175065
