16
Properties=species:S:1:pos:R:3:forces:R:3 id=7944 bond=C-C smiles="[H:8][C:2]([H:9])([H:10])[C:5]([C:3]([H:11])([H:12])[H:13])([C:4]([H:14])([H:15])[H:16])[P:1]([H:6])[H:7]" dataset=PubChem energy=-13588.746568721677 pbc="F F F"
P       -0.74205172      -0.25259447      -0.38895563      -3.02757217       0.82122015      -2.70094180
C        1.81641257       0.78851474      -0.17074535       0.41856021       0.41904447      -1.95574835
C        0.73307613      -0.35290178       1.21652302      29.73546050    -118.04909907      99.27956313
C        0.08513618       1.37440050       1.59851547      -0.17281082       4.98038298      -0.15402470
C        0.59030211       0.26248789       0.67958461     -24.77566351     115.40139218     -98.86521724
H       -0.90131521      -1.62457156      -0.66197089       0.27728275       0.55237893       0.08217991
H       -1.58941543       0.72422326      -0.89578966      -0.07590566      -0.34576592      -0.70632017
H        1.62398636       1.51843286      -1.01161126      -0.08593121      -0.68919351       1.12294339
H        2.51094770       1.26702649       0.53188460       0.10741185      -0.37087776      -0.16602324
H        2.25114966      -0.14287009      -0.68477587      -0.42903225       1.32872192       1.03843844
H        1.38793693      -0.10867866       2.01829299       1.24332379      -0.58270776       2.04918347
H       -0.20859482      -0.72702142       1.56536420      -0.09316897      -1.97506122       2.71858077
H        1.38933472      -1.24774452       0.95360317      -0.88198039      -1.02796069      -0.41269286
H       -0.88420367       1.09038950       1.96135076      -0.40846460       0.04679339       0.22707954
H        0.81262720       1.56392706       2.50985440      -1.23057350      -0.73661948      -2.06193020
H        0.06217456       2.30512715       1.01577746      -0.60101605       0.22650054       0.50470712
