16
Properties=species:S:1:pos:R:3:forces:R:3 id=7944 bond=C-C smiles="[H:8][C:2]([H:9])([H:10])[C:5]([C:3]([H:11])([H:12])[H:13])([C:4]([H:14])([H:15])[H:16])[P:1]([H:6])[H:7]" dataset=PubChem energy=-13615.985764563973 pbc="F F F"
P       -0.86103008       0.26023027      -0.83640431      -0.46377337      -1.45763039      -0.31554489
C        1.69743421       1.30133948      -0.61819403       0.47761505      -1.99005300       0.03265412
C        0.85205449      -0.86572652       1.66397170       1.23007853      -0.11388853      -2.40595444
C       -0.03384218       1.88722524       1.15106679       1.95157000       0.10083783       1.41535178
C        0.47132375       0.77531263       0.23213593       1.43103436      -0.30489887       1.34026121
H       -1.02029357      -1.11174682      -1.10941957      -0.11565036       0.74168117      -0.04268846
H       -1.70839379       1.23704800      -1.34323834      -0.00343268      -0.24270341       0.08874784
H        1.50500800       2.03125760      -1.45905994      -0.55943374      -0.78831967       1.16555969
H        2.39196934       1.77985123       0.08443592       0.20722870      -0.33041966      -0.37050239
H        2.13217130       0.36995465      -1.13222455      -0.20113452       1.56627431       0.84080866
H        1.50691529      -0.62150340       2.46574167      -0.02775870       1.79528137       0.86470049
H       -0.08961646      -1.23984616       2.01281288      -0.62225197       0.32193774      -0.13175862
H        1.50831308      -1.76056926       1.40105185      -1.25802007       0.96801323      -1.22125226
H       -1.00318203       1.60321424       1.51390208      -0.37436316       0.27389705       0.36465902
H        0.69364884       2.07675180       2.06240572      -1.40577038      -0.40326891      -1.86904465
H       -0.05680380       2.81795189       0.56832878      -0.26765830      -0.13682196       0.24191172
