16
Properties=species:S:1:pos:R:3:forces:R:3 id=7944 bond=C-C smiles="[H:8][C:2]([H:9])([H:10])[C:5]([C:3]([H:11])([H:12])[H:13])([C:4]([H:14])([H:15])[H:16])[P:1]([H:6])[H:7]" dataset=PubChem energy=-13615.889614068707 pbc="F F F"
P       -0.86301305       0.26877735      -0.84386178      -0.45082515      -1.46828942      -0.30794745
C        1.69545124       1.30988656      -0.62565150       0.48328631      -2.00117624       0.04215880
C        0.85403746      -0.87427360       1.67142917       1.24049039      -0.15789909      -2.35969654
C       -0.03582515       1.89577232       1.14360932       1.95609837       0.07883345       1.42574775
C        0.46934078       0.78385971       0.22467846       1.40418700      -0.23632250       1.28235551
H       -1.02227654      -1.10319974      -1.11687704      -0.11549660       0.74254383      -0.04442412
H       -1.71037676       1.24559508      -1.35069581      -0.00717125      -0.24123420       0.09398212
H        1.50302503       2.03980468      -1.46651741      -0.56205124      -0.78802587       1.16437924
H        2.38998637       1.78839831       0.07697845       0.20676214      -0.33097316      -0.37089551
H        2.13018833       0.37850173      -1.13968202      -0.20110149       1.56679903       0.84026422
H        1.50889826      -0.63005048       2.47319914      -0.02626513       1.80141316       0.86316310
H       -0.08763349      -1.24839324       2.02027035      -0.62947956       0.32942095      -0.14060314
H        1.51029605      -1.76911634       1.40850932      -1.25671430       0.96948787      -1.22393767
H       -1.00516500       1.61176132       1.50644461      -0.37342888       0.27370728       0.36444106
H        0.69166587       2.08529888       2.05494825      -1.40675039      -0.40203736      -1.86949209
H       -0.05878677       2.82649897       0.56087131      -0.26375030      -0.13699185       0.23787458
