16
Properties=species:S:1:pos:R:3:forces:R:3 id=7944 bond=C-C smiles="[H:8][C:2]([H:9])([H:10])[C:5]([C:3]([H:11])([H:12])[H:13])([C:4]([H:14])([H:15])[H:16])[P:1]([H:6])[H:7]" dataset=PubChem energy=-13618.011538645793 pbc="F F F"
P       -0.78964306      -0.04746457      -0.56793510      -1.18062519      -0.60175377      -1.00158352
C        1.76882123       0.99364464      -0.34972482       0.21338480      -1.31692972      -0.48848905
C        0.78066747      -0.55803168       1.39550249       2.99394917      -6.16804834       2.42248721
C        0.03754484       1.57953040       1.41953600       1.40433962       1.68043274       0.65898411
C        0.54271077       0.46761779       0.50060514       0.56544628       4.63206547      -2.99772672
H       -0.94890655      -1.41944166      -0.84095036      -0.03912158       0.69003591       0.01795438
H       -1.63700677       0.92935316      -1.07476913       0.06018221      -0.31139859      -0.13565942
H        1.57639502       1.72356276      -1.19059073      -0.38228717      -0.79642152       1.20482314
H        2.46335636       1.47215639       0.35290513       0.21495458      -0.32286505      -0.32683562
H        2.20355832       0.06225981      -0.86375534      -0.22248799       1.48923774       0.87561236
H        1.43552827      -0.31380856       2.19727246       0.06041970       1.06831872       1.15466126
H       -0.16100348      -0.93215132       1.74434367      -0.21169485      -0.37705565       0.71048014
H        1.43692606      -1.45287442       1.13258264      -1.28593754       0.62715868      -0.96497704
H       -0.93179501       1.29551940       1.78237129      -0.40668047       0.25011296       0.36584047
H        0.76503586       1.76905696       2.33087493      -1.35178989      -0.49271895      -1.90321497
H        0.01458322       2.51025705       0.83679799      -0.43268046      -0.05183564       0.40746766
