50
Properties=species:S:1:pos:R:3:forces:R:3 id=39010 bond=C-C smiles="[H:21][C:1]1=[C:2]([N:5]([C:3]2=[C:4]1[C:19]([C:16]([C:13]([C:9]2([H:30])[H:31])([H:38])[H:39])([H:44])[H:45])([H:50])[C:17]([H:46])([H:47])[C:14]([H:40])([H:41])[C:10]([H:32])([H:33])[N:6]3[C:11]([C:15]([C:18]([C:20]([C:12]3([H:36])[H:37])([C:7]([H:24])([H:25])[H:26])[C:8]([H:27])([H:28])[H:29])([H:48])[H:49])([H:42])[H:43])([H:34])[H:35])[H:23])[H:22]" dataset=PubChem energy=-22150.52524812524 pbc="F F F"
C        2.57654182      -1.30066719      -2.50898005      -0.22116233      -0.62572153       1.02448943
C        3.78378360      -1.78036978      -2.03469826      -0.57260573       0.50733670      -0.82190019
C        2.19871525      -2.42811492      -0.55187251      -0.14700564      -0.41577060      -0.16586914
C        1.57036190      -1.71891906      -1.54319622       0.04455401      -0.24241774      -0.58808767
N        3.54452745      -2.47549083      -0.87006952       1.44695224      -0.44750591       0.65863130
N       -0.83474338       2.09367997       0.80166278       0.91733520      -0.08297056      -1.51229580
C        1.52503669       4.75869209       2.19538707       0.11511707       0.10267632      -0.31594709
C        2.21568370       2.41752870       1.76513702      -0.63502257      -0.33609789       0.12169630
C        1.52916710      -3.14843419       0.61045531       0.98299431       0.31566050       0.16416865
C       -1.58133733       1.83592172      -0.49153918       0.15150390       0.09320025       1.63291838
C       -1.46781123       1.63678570       2.06036812       0.10062885       0.75276036      -0.57548959
C        0.00428557       3.33299477       0.82587582      -1.52279152      -1.38157894       1.98141784
C        0.06624131      -2.76353886       0.73068280      -0.56644201       0.04852100      -0.64745100
C       -1.46778357       0.35214839      -0.80202454      -3.94871758       0.80980200       0.63765497
C       -0.49593866       1.68135674       3.24408251       0.29691818      -0.02237595      -0.26804337
C       -0.62340970      -2.56345203      -0.64827837       0.65698181      -0.33093314      -0.22999739
C       -0.13125785      -0.00681492      -1.04377570       3.52569833      -2.04333517      -0.25604244
C        0.28345436       2.98596270       3.32968337      -0.13323257      -0.88180409      -0.46948406
C        0.07403354      -1.48149493      -1.53858616       0.34236562       0.48034252       0.48360740
C        0.99932134       3.31056816       2.00130123       0.28867505       1.64704329       0.69233298
H        2.41884248      -0.77924326      -3.44799639       0.04910115      -0.03669597       0.38177945
H        4.75161306      -1.61136535      -2.51895382      -0.36680164      -0.46767910       0.70507988
H        4.29833643      -2.95316198      -0.33558591      -1.30827616       0.72822272      -0.66928350
H        2.26645100       4.82674105       3.01230055      -0.26501975      -0.21179949      -0.42237435
H        0.69935549       5.42970163       2.47543985       0.26362417      -0.13016336      -0.30178271
H        2.00176120       5.11012632       1.26064587      -0.21129245       0.03273432       0.48243866
H        2.70383394       2.64502461       0.81846536      -0.05753675      -0.00044446       0.00268889
H        1.89241922       1.37438692       1.75645012       0.31252658       0.03227716      -0.08706294
H        2.92858183       2.58241183       2.57318193       0.02510644      -0.18167032      -0.04692393
H        1.61577944      -4.24398496       0.53376899       0.19003415       0.36811786      -0.13104230
H        2.00841908      -2.83121111       1.55754123       0.01559307      -0.41745688      -0.41878052
H       -1.19424403       2.40800173      -1.36405891       0.16780864      -0.15955880       0.95676819
H       -2.63798511       2.11423333      -0.39697742      -0.00435717       0.10447344       0.10271962
H       -1.87060320       0.60108744       1.99527938       0.28424704       0.80968465      -0.37512867
H       -2.29944193       2.32365579       2.25270051      -0.35203136      -0.13688964       0.34868938
H       -0.63858640       4.20234329       0.94753030      -0.19356761       0.41977449       0.12171578
H        0.52517264       3.47423441      -0.08566373       0.45278915      -0.27773761      -0.98501772
H       -0.46464266      -3.53548792       1.30715142       0.11362306       0.27928155      -0.21254937
H        0.01304545      -1.84740832       1.30914209      -0.20108577       0.24765962      -0.00091788
H       -2.08442795       0.16377194      -1.68267172      -0.16072383      -0.13728457      -0.09613251
H       -1.92035806      -0.24991118       0.01571066       0.21314016       0.46107834      -0.43039551
H        0.21147311       0.86471156       3.16007954       0.08364038      -0.27465309      -0.10826377
H       -1.01371395       1.54010923       4.18569761      -0.35042881      -0.16604525       0.03199566
H       -1.68149503      -2.35890153      -0.47034981       0.14438909       0.08550475      -0.25989170
H       -0.55710275      -3.51560714      -1.22078707      -0.12874117       0.48948634       0.43661477
H        0.27731976       0.63851343      -1.81293346       0.35309430       0.14330935      -0.15416958
H        0.47667482       0.15754641      -0.13123407      -0.23430872      -0.13903969      -0.59789084
H       -0.43298495       3.75087625       3.60519129       0.00689920       0.48772787      -0.17029632
H        1.00386191       2.91375477       4.14944989       0.04549052       0.10890640      -0.15923114
H       -0.29871829      -1.55732777      -2.57709839      -0.01103482      -0.00785438       0.50985973
