50
Properties=species:S:1:pos:R:3:forces:R:3 id=39010 bond=C-C smiles="[H:21][C:1]1=[C:2]([N:5]([C:3]2=[C:4]1[C:19]([C:16]([C:13]([C:9]2([H:30])[H:31])([H:38])[H:39])([H:44])[H:45])([H:50])[C:17]([H:46])([H:47])[C:14]([H:40])([H:41])[C:10]([H:32])([H:33])[N:6]3[C:11]([C:15]([C:18]([C:20]([C:12]3([H:36])[H:37])([C:7]([H:24])([H:25])[H:26])[C:8]([H:27])([H:28])[H:29])([H:48])[H:49])([H:42])[H:43])([H:34])[H:35])[H:23])[H:22]" dataset=PubChem energy=-22133.375487495076 pbc="F F F"
C        2.34648411      -1.23887842      -2.46736715      -0.24458410      -0.62391247       1.03344099
C        3.55372589      -1.71858101      -1.99308536      -0.56265438       0.50079562      -0.80850063
C        1.96865754      -2.36632615      -0.51025961      -0.13825341      -0.40322174      -0.18510705
C        1.34030419      -1.65713029      -1.50158332       0.02755266      -0.42823057      -0.60835765
N        3.31446974      -2.41370206      -0.82845662       1.48495791      -0.44845800       0.66753359
N       -0.60468567       2.03189120       0.76004988       0.78577238      -0.06480674      -1.70368495
C        1.75509440       4.69690332       2.15377417       0.10936798       0.10453160      -0.31990675
C        2.44574141       2.35573993       1.72352412      -0.63417260      -0.34455717       0.12393606
C        1.29910939      -3.08664542       0.65206821       0.99000828       0.33237988       0.14665776
C       -1.35127962       1.77413295      -0.53315208      -1.57844349       1.58751469       2.52583300
C       -1.23775352       1.57499693       2.01875522       0.05664420       0.73106549      -0.49379820
C        0.23434328       3.27120600       0.78426292      -1.44768591      -1.36863849       1.96419435
C       -0.16381640      -2.70175009       0.77229570      -0.54431753       0.03699914      -0.65476675
C       -1.23772586       0.29035962      -0.84363744     -90.78888311      24.47343710      16.25676744
C       -0.26588095       1.61956797       3.20246961       0.30919762      -0.02014539      -0.27466230
C       -0.85346741      -2.50166326      -0.60666547       0.65997359      -0.25234171      -0.24853017
C       -0.36131556       0.05497385      -1.00216280      90.75762182     -26.11639862     -16.16729424
C        0.51351207       2.92417393       3.28807047      -0.13397886      -0.87819938      -0.46805304
C       -0.15602417      -1.41970616      -1.49697326       1.87249945      -0.62624032       0.30053862
C        1.22937905       3.24877939       1.95968833       0.30199795       1.64464988       0.69790994
H        2.18878477      -0.71745449      -3.40638349       0.04710987      -0.03839576       0.38372391
H        4.52155535      -1.54957658      -2.47734092      -0.36530540      -0.46688167       0.70654084
H        4.06827872      -2.89137321      -0.29397301      -1.30491970       0.73446243      -0.66983787
H        2.49650871       4.76495228       2.97068765      -0.26706298      -0.21354350      -0.42389713
H        0.92941320       5.36791286       2.43382695       0.26302356      -0.12823726      -0.30113048
H        2.23181891       5.04833755       1.21903297      -0.21107522       0.03215744       0.48318666
H        2.93389165       2.58323584       0.77685246      -0.05987315      -0.00234523       0.00316804
H        2.12247693       1.31259815       1.71483722       0.31325780       0.03101911      -0.09695499
H        3.15863954       2.52062306       2.53156903       0.02391214      -0.17781487      -0.04593048
H        1.38572173      -4.18219619       0.57538189       0.18087854       0.36570102      -0.12615358
H        1.77836137      -2.76942234       1.59915413       0.01121728      -0.41836733      -0.41592844
H       -0.96418632       2.34621296      -1.40567181       0.19551564      -0.33505401       0.87795040
H       -2.40792740       2.05244456      -0.43859032      -0.01388587       0.19560750       0.21589319
H       -1.64054549       0.53929867       1.95366648       0.28126257       0.81457825      -0.38494596
H       -2.06938422       2.26186702       2.21108761      -0.33989730      -0.14786047       0.32727896
H       -0.40852869       4.14055452       0.90591740      -0.19965283       0.39048591       0.12487685
H        0.75523035       3.41244564      -0.12727663       0.44790032      -0.27946969      -0.97769795
H       -0.69470037      -3.47369915       1.34876432       0.10756377       0.28891343      -0.21264947
H       -0.21701226      -1.78561955       1.35075499      -0.18987262       0.26729267       0.01828168
H       -1.85437024       0.10198317      -1.72428462      -1.81529499       0.32892083      -0.27720286
H       -1.69030035      -0.31169995      -0.02590224      -1.26083068       0.55499470       0.12465602
H        0.44153082       0.80292279       3.11846664       0.08589170      -0.27480250      -0.10784325
H       -0.78365624       1.47832046       4.14408471      -0.35354376      -0.16719820       0.02556323
H       -1.91155274      -2.29711276      -0.42873691       0.08699202       0.05940826      -0.25716066
H       -0.78716046      -3.45381837      -1.17917417      -0.14052846       0.54362084       0.41533107
H        0.04726205       0.70030220      -1.77132056       1.96322364      -0.23457217      -0.80886209
H        0.24661711       0.21933518      -0.08962117       1.28325627      -0.34779132      -0.54294089
H       -0.20292724       3.68908748       3.56357839       0.00641021       0.48735106      -0.16903468
H        1.23391962       2.85196600       4.10783699       0.04404165       0.10859980      -0.16171125
H       -0.52877600      -1.49553900      -2.53548549      -0.10487708       0.19373795       0.48841224
