50
Properties=species:S:1:pos:R:3:forces:R:3 id=39010 bond=C-C smiles="[H:21][C:1]1=[C:2]([N:5]([C:3]2=[C:4]1[C:19]([C:16]([C:13]([C:9]2([H:30])[H:31])([H:38])[H:39])([H:44])[H:45])([H:50])[C:17]([H:46])([H:47])[C:14]([H:40])([H:41])[C:10]([H:32])([H:33])[N:6]3[C:11]([C:15]([C:18]([C:20]([C:12]3([H:36])[H:37])([C:7]([H:24])([H:25])[H:26])[C:8]([H:27])([H:28])[H:29])([H:48])[H:49])([H:42])[H:43])([H:34])[H:35])[H:23])[H:22]" dataset=PubChem energy=-22150.60030348109 pbc="F F F"
C        2.68609311      -1.33009041      -2.52879572      -0.20789211      -0.62238302       1.01810097
C        3.89333489      -1.80979300      -2.05451393      -0.57840759       0.51216026      -0.83117362
C        2.30826654      -2.45753814      -0.57168818      -0.13340792      -0.42371065      -0.14437337
C        1.67991319      -1.74834228      -1.56301189       0.04385378      -0.16419329      -0.57493115
N        3.65407874      -2.50491405      -0.88988519       1.42364319      -0.44731754       0.65922686
N       -0.94429467       2.12310319       0.82147845       0.93767965      -0.10304387      -1.50480411
C        1.41548540       4.78811531       2.21520274       0.11670728       0.10222135      -0.31588490
C        2.10613241       2.44695192       1.78495269      -0.63454957      -0.33478509       0.12195866
C        1.63871839      -3.17785741       0.59063964       0.97983810       0.31025620       0.16875079
C       -1.69088862       1.86534494      -0.47172351       0.61719241      -0.14407414       1.49372530
C       -1.57736252       1.66620892       2.08018379       0.10863319       0.75144435      -0.58663848
C       -0.10526572       3.36241799       0.84569149      -1.53494826      -1.38155361       1.98082710
C        0.17579260      -2.79296208       0.71086713      -0.56780495       0.05347699      -0.64494974
C       -1.57733486       0.38157161      -0.78220887       1.46227441      -0.62729535      -0.33087539
C       -0.60548995       1.71077996       3.26389818       0.29501138      -0.02413102      -0.26768083
C       -0.51385841      -2.59287525      -0.66809404       0.65564469      -0.32845237      -0.22111684
C       -0.02170656      -0.03623814      -1.06359137      -1.93295763      -0.51768286       0.72596555
C        0.17390307       3.01538592       3.34949904      -0.13315817      -0.88225774      -0.46954412
C        0.18358483      -1.51091815      -1.55840183      -0.00902634       0.59355827       0.50768440
C        0.88977005       3.33999138       2.02111690       0.28521533       1.64591655       0.69106519
H        2.52839377      -0.80866648      -3.46781206       0.04917505      -0.03695466       0.38195182
H        4.86116435      -1.64078857      -2.53876949      -0.36755734      -0.46799505       0.70463909
H        4.40788772      -2.98258520      -0.35540158      -1.30903537       0.72539369      -0.66856742
H        2.15689971       4.85616427       3.03211622      -0.26459607      -0.21163243      -0.42204572
H        0.58980420       5.45912485       2.49525552       0.26369810      -0.13070987      -0.30186658
H        1.89220991       5.13954954       1.28046154      -0.21129973       0.03303719       0.48232079
H        2.59428265       2.67444783       0.83828103      -0.05680679       0.00070785       0.00213207
H        1.78286793       1.40381014       1.77626579       0.31032158       0.03434960      -0.08307577
H        2.81903054       2.61183505       2.59299760       0.02555940      -0.18203170      -0.04741287
H        1.72533073      -4.27340818       0.51395332       0.19329538       0.36900518      -0.13376256
H        2.11797037      -2.86063433       1.53772556       0.01699896      -0.41731640      -0.42093280
H       -1.30379532       2.43742495      -1.34424324       0.15476922      -0.13469458       0.97259487
H       -2.74753640       2.14365655      -0.37716175      -0.02746461       0.06214848       0.08408415
H       -1.98015449       0.63051066       2.01509505       0.28631236       0.81050220      -0.37326877
H       -2.40899322       2.35307901       2.27251618      -0.35366235      -0.13314391       0.35319077
H       -0.74813769       4.23176651       0.96734597      -0.19145374       0.42518716       0.12236754
H        0.41562135       3.50365763      -0.06584806       0.45410277      -0.27728933      -0.98594284
H       -0.35509137      -3.56491114       1.28733575       0.11525084       0.27760817      -0.21284007
H        0.12259674      -1.87683154       1.28932642      -0.20625972       0.24049516      -0.00798742
H       -2.19397924       0.19319516      -1.66285605       0.16919549      -0.24963775      -0.14628292
H       -2.02990935      -0.22048796       0.03552633       0.53259857       0.36330711      -0.48618242
H        0.10192182       0.89413478       3.17989521       0.08233204      -0.27453478      -0.10967892
H       -1.12326524       1.56953245       4.20551328      -0.35020740      -0.16531716       0.03322930
H       -1.57194374      -2.38832475      -0.49016548       0.15438211       0.12005411      -0.26043784
H       -0.44755146      -3.54503036      -1.24060274      -0.12378401       0.47754176       0.43812399
H        0.38687105       0.60909021      -1.83274913      -0.02595611       0.26346495      -0.07363400
H        0.58622611       0.12812319      -0.15104974      -0.57484092      -0.06287684      -0.51200423
H       -0.54253624       3.78029947       3.62500696       0.00717708       0.48811295      -0.17062002
H        0.89431062       2.94317799       4.16926556       0.04586300       0.10909425      -0.15878063
H       -0.18916700      -1.58675099      -2.59691406       0.00726556      -0.02433006       0.52471143
