50
Properties=species:S:1:pos:R:3:forces:R:3 id=39010 bond=C-C smiles="[H:21][C:1]1=[C:2]([N:5]([C:3]2=[C:4]1[C:19]([C:16]([C:13]([C:9]2([H:30])[H:31])([H:38])[H:39])([H:44])[H:45])([H:50])[C:17]([H:46])([H:47])[C:14]([H:40])([H:41])[C:10]([H:32])([H:33])[N:6]3[C:11]([C:15]([C:18]([C:20]([C:12]3([H:36])[H:37])([C:7]([H:24])([H:25])[H:26])[C:8]([H:27])([H:28])[H:29])([H:48])[H:49])([H:42])[H:43])([H:34])[H:35])[H:23])[H:22]" dataset=PubChem energy=-22146.875824805476 pbc="F F F"
C        2.45603540      -1.26830164      -2.48718282      -0.23402178      -0.62694461       1.03032062
C        3.66327718      -1.74800423      -2.01290103      -0.56733152       0.50331055      -0.81407039
C        2.07820883      -2.39574937      -0.53007528      -0.15048664      -0.40858673      -0.18153537
C        1.44985548      -1.68655351      -1.52139899       0.04303785      -0.32828854      -0.59853738
N        3.42402103      -2.44312528      -0.84827229       1.46857196      -0.44771042       0.66089112
N       -0.71423696       2.06131442       0.77986555       0.86745847      -0.04694195      -1.55438834
C        1.64554311       4.72632654       2.17358984       0.11283611       0.10323896      -0.31701028
C        2.33619012       2.38516315       1.74333979      -0.63465917      -0.33936585       0.12270937
C        1.40866068      -3.11606864       0.63225254       0.98645186       0.32345854       0.15720947
C       -1.46083091       1.80355617      -0.51333641      -0.57251957       0.61519038       1.94809381
C       -1.34730481       1.60442015       2.03857089       0.08567779       0.74853917      -0.54984846
C        0.12479199       3.30062922       0.80407859      -1.49828175      -1.37946342       1.97740727
C       -0.05426511      -2.73117331       0.75248003      -0.56010999       0.04362670      -0.65127057
C       -1.34727715       0.31978284      -0.82382177     -25.56147864       6.68541505       4.50317583
C       -0.37543224       1.64899119       3.22228528       0.30093402      -0.02086931      -0.27015950
C       -0.74391612      -2.53108648      -0.62648114       0.66063548      -0.31863624      -0.24295458
C       -0.25176427       0.02555063      -1.02197847      25.28084364      -8.09780254      -4.23435763
C        0.40396078       2.95359715       3.30788614      -0.13342379      -0.88085921      -0.46938688
C       -0.04647288      -1.44912938      -1.51678893       0.93640525       0.13201978       0.42871401
C        1.11982776       3.27820261       1.97950400       0.29381449       1.64718512       0.69425927
H        2.29833606      -0.74687771      -3.42619916       0.04850949      -0.03694104       0.38239782
H        4.63110664      -1.57899980      -2.49715659      -0.36609675      -0.46732559       0.70570821
H        4.17783001      -2.92079643      -0.31378868      -1.30707805       0.73123111      -0.66984304
H        2.38695742       4.79437550       2.99050332      -0.26571161      -0.21234439      -0.42291894
H        0.81986191       5.39733608       2.45364262       0.26329228      -0.12940304      -0.30160980
H        2.12226762       5.07776077       1.23884864      -0.21127873       0.03239548       0.48266891
H        2.82434036       2.61265906       0.79666813      -0.05856823      -0.00144987       0.00308172
H        2.01292564       1.34202137       1.73465289       0.31351061       0.03108230      -0.09197825
H        3.04908825       2.55004628       2.55138470       0.02461665      -0.18019205      -0.04634793
H        1.49527302      -4.21161941       0.55556622       0.18594526       0.36718050      -0.12831602
H        1.88791266      -2.79884556       1.57933846       0.01356860      -0.41772997      -0.41701946
H       -1.07373761       2.37563618      -1.38585614       0.17868228      -0.21824842       0.92922863
H       -2.51747869       2.08186778      -0.41877465       0.00294434       0.14873134       0.14535597
H       -1.75009678       0.56872189       1.97348215       0.28245847       0.80981432      -0.37854897
H       -2.17893551       2.29129024       2.23090328      -0.34849927      -0.14219124       0.34117931
H       -0.51807998       4.16997774       0.92573307      -0.19606547       0.41021315       0.12232806
H        0.64567906       3.44186886      -0.10746096       0.45083704      -0.27823731      -0.98240396
H       -0.58514908      -3.50312237       1.32894865       0.11111135       0.28313242      -0.21259759
H       -0.10746097      -1.81504277       1.33093932      -0.19511716       0.25676205       0.00799332
H       -1.96392153       0.13140639      -1.70446895      -0.79473867       0.05764180      -0.10559910
H       -1.79985164      -0.28227673      -0.00608657      -0.36414519       0.54711758      -0.25239942
H        0.33197953       0.83234601       3.13828231       0.08509893      -0.27524549      -0.10768720
H       -0.89320753       1.50774368       4.16390038      -0.35137796      -0.16678663       0.02966369
H       -1.80200145      -2.32653598      -0.44855258       0.12219674       0.05981259      -0.25918544
H       -0.67760917      -3.48324159      -1.19898984      -0.13458353       0.51071409       0.43085841
H        0.15681334       0.67087898      -1.79113623       1.00857393      -0.03109908      -0.37422632
H        0.35616840       0.18991196      -0.10943684       0.37173995      -0.24386006      -0.63509471
H       -0.31247853       3.71851070       3.58339406       0.00653529       0.48744234      -0.16982818
H        1.12436833       2.88138922       4.12765266       0.04485308       0.10873589      -0.16006889
H       -0.41922471      -1.52496222      -2.55530116      -0.04767691       0.05339710       0.49495404
