50
Properties=species:S:1:pos:R:3:forces:R:3 id=39010 bond=C-C smiles="[H:21][C:1]1=[C:2]([N:5]([C:3]2=[C:4]1[C:19]([C:16]([C:13]([C:9]2([H:30])[H:31])([H:38])[H:39])([H:44])[H:45])([H:50])[C:17]([H:46])([H:47])[C:14]([H:40])([H:41])[C:10]([H:32])([H:33])[N:6]3[C:11]([C:15]([C:18]([C:20]([C:12]3([H:36])[H:37])([C:7]([H:24])([H:25])[H:26])[C:8]([H:27])([H:28])[H:29])([H:48])[H:49])([H:42])[H:43])([H:34])[H:35])[H:23])[H:22]" dataset=PubChem energy=-22149.863355122718 pbc="F F F"
C        2.78468926      -1.35657131      -2.54662983      -0.19462534      -0.61807016       1.01145898
C        3.99193104      -1.83627390      -2.07234804      -0.58487448       0.51742517      -0.84111109
C        2.40686269      -2.48401904      -0.58952229      -0.11604346      -0.43204888      -0.11975130
C        1.77850934      -1.77482318      -1.58084600       0.04561196      -0.09161479      -0.56033930
N        3.75267489      -2.53139495      -0.90771930       1.39997156      -0.44751039       0.66057626
N       -1.04289082       2.14958409       0.83931256       0.93877120      -0.10041683      -1.49908823
C        1.31688925       4.81459621       2.23303685       0.11763921       0.10152359      -0.31621516
C        2.00753626       2.47343282       1.80278680      -0.63338939      -0.33456191       0.12313792
C        1.73731454      -3.20433831       0.57280553       0.97675090       0.30686888       0.17231082
C       -1.78948477       1.89182584      -0.45388940       0.94294221      -0.26860150       1.42791302
C       -1.67595867       1.69268982       2.09801790       0.11403601       0.74927337      -0.59305817
C       -0.20386187       3.38889889       0.86352560      -1.54250465      -1.38279366       1.97809175
C        0.27438875      -2.81944298       0.69303302      -0.56710549       0.05723060      -0.64439998
C       -1.67593101       0.40805251      -0.76437476       2.47620415      -0.86407767      -0.52276570
C       -0.70408610       1.73726086       3.28173229       0.29461137      -0.02587298      -0.26773025
C       -0.41526226      -2.61935615      -0.68592815       0.65506996      -0.33051256      -0.21509234
C        0.07688959      -0.06271904      -1.08142548      -2.94753227      -0.24162109       0.88213073
C        0.07530692       3.04186682       3.36733315      -0.13354709      -0.88285529      -0.46980476
C        0.28218098      -1.53739905      -1.57623594      -0.25201683       0.62183789       0.51982474
C        0.79117390       3.36647228       2.03895101       0.28276626       1.64465959       0.69019785
H        2.62698992      -0.83514738      -3.48564617       0.04895110      -0.03720072       0.38260112
H        4.95976050      -1.66726947      -2.55660360      -0.36839929      -0.46831149       0.70421674
H        4.50648387      -3.00906610      -0.37323569      -1.30965984       0.72254248      -0.66781325
H        2.05830356       4.88264517       3.04995033      -0.26423887      -0.21160972      -0.42174010
H        0.49120805       5.48560575       2.51308963       0.26348238      -0.13112836      -0.30195146
H        1.79361376       5.16603044       1.29829565      -0.21130390       0.03327434       0.48211965
H        2.49568650       2.70092873       0.85611514      -0.05620138       0.00197676       0.00148644
H        1.68427178       1.43029104       1.79409990       0.30728749       0.03645027      -0.08033295
H        2.72043439       2.63831595       2.61083171       0.02605718      -0.18171402      -0.04765289
H        1.82392688      -4.29988908       0.49611921       0.19612654       0.36997544      -0.13637446
H        2.21656652      -2.88711523       1.51989145       0.01808616      -0.41716436      -0.42314292
H       -1.40239147       2.46390585      -1.32640913       0.14014988      -0.12275253       0.98341583
H       -2.84613255       2.17013745      -0.35932764      -0.05562963       0.02383231       0.07637823
H       -2.07875064       0.65699156       2.03292916       0.28823286       0.81088251      -0.37205188
H       -2.50758937       2.37955991       2.29035029      -0.35487129      -0.13052314       0.35661646
H       -0.84673384       4.25824741       0.98518008      -0.18979159       0.42929636       0.12354826
H        0.31702520       3.53013853      -0.04801395       0.45506925      -0.27707612      -0.98644794
H       -0.25649522      -3.59139204       1.26950164       0.11639415       0.27708004      -0.21342434
H        0.22119289      -1.90331244       1.27149231      -0.21053983       0.23608091      -0.01240852
H       -2.29257539       0.21967606      -1.64502194       0.35489931      -0.31609417      -0.20200379
H       -2.12850550      -0.19400706       0.05336044       0.72375521       0.28127609      -0.49641717
H        0.00332567       0.92061568       3.19772932       0.08099076      -0.27378468      -0.11092625
H       -1.22186139       1.59601335       4.22334739      -0.35032363      -0.16461639       0.03401586
H       -1.47334759      -2.41480565      -0.50799959       0.15969160       0.15199096      -0.26218229
H       -0.34895531      -3.57151126      -1.25843685      -0.11863932       0.47013603       0.43792060
H        0.48546720       0.58260931      -1.85058324      -0.25624315       0.34641697      -0.04798288
H        0.68482226       0.10164229      -0.16888385      -0.77705111      -0.01059047      -0.42426391
H       -0.64113239       3.80678037       3.64284107       0.00731472       0.48865264      -0.17089072
H        0.79571447       2.96965889       4.18709967       0.04615597       0.10926346      -0.15840144
H       -0.09057085      -1.61323189      -2.61474817       0.01715607      -0.02536443       0.53736253
