17
Properties=species:S:1:pos:R:3:forces:R:3 id=7346 bond=C-N smiles="[H:9][C:3]([H:10])([H:11])[C:6]([C:4]([H:12])([H:13])[H:14])([C:5]([H:15])([H:16])[H:17])[N:2]([H:8])[O:1][H:7]" dataset=PubChem energy=-7866.103622007306 pbc="F F F"
O       -0.11110342       0.00929954       3.03375044       0.85759413      -1.05160885      -0.53858354
N        0.79693570       0.74392284       2.20982078      -2.54846805       2.31074553      -3.35717546
C        1.60599648       1.51300867      -0.55161916      -0.54083208       0.46641740       1.03152807
C       -0.79404021       0.99907451      -0.18864183      -0.04206414      -0.28339676       1.65407163
C        0.90605592      -0.88542072      -0.15007339       1.44730962       0.49935176       0.64250023
C        0.61516457       0.57449906       0.15341562       0.61739176      -0.49583893       1.20357991
H       -1.02744741       0.30622712       2.90647999       0.98114490       0.57908182      -0.34660815
H        1.74308579       0.60216040       2.49839297       0.27823386      -1.15037835       0.29664302
H        1.28652214       2.55738719      -0.40897243       0.31937875      -0.33457516       0.17885040
H        2.62661599       1.38308759      -0.20435457       0.06417420       0.01341628      -0.05847081
H        1.56024049       1.36205347      -1.63593708       0.00918813      -0.35507472       0.22266904
H       -1.49203278       0.25976645       0.19525280      -0.20551725       0.01893315       0.08822167
H       -1.01102878       1.96174271       0.27756230      -0.03351342      -0.04581388      -0.16555327
H       -0.96524645       1.05929060      -1.24886928       0.23724553       0.07348154      -0.51363619
H        0.17958622      -1.53341667       0.31766432      -0.02264217      -0.20584650       0.17580016
H        0.87044244      -1.02639286      -1.23442779       0.02621948      -0.09869785       0.05712644
H        1.95818709      -1.12150482       0.22001357      -1.44557837       0.06030974      -0.57110239
