44
Properties=species:S:1:pos:R:3:forces:R:3 id=42858 bond=O-P smiles="[H:35][c:20]1[c:18]([c:22]([c:19]([c:21]([c:23]1[P:32]([O:14][C:28]([H:37])([H:38])[C:24]([F:1])([F:2])[F:3])([O:15][C:29]([H:39])([H:40])[C:25]([F:4])([F:5])[F:6])([O:16][C:30]([H:41])([H:42])[C:26]([F:7])([F:8])[F:9])[O:17][C:31]([H:43])([H:44])[C:27]([F:10])([F:11])[F:12])[H:36])[H:34])[Cl:13])[H:33]" dataset=PubChem energy=-77351.30908720895 pbc="F F F"
F       -2.31928332      -0.61019415       4.26532494      -0.85223828       2.14846187      -0.95878554
F       -3.30831010       0.29015750       2.44129573       0.18501516       0.02723803       1.29643939
F       -2.67773253       1.63558781       4.05434452       0.08801836      -1.13669026      -0.00724589
F        1.77619946      -4.76677455       1.32630723       0.75421136       0.09717430      -0.47018552
F        2.82334792      -3.84451855      -0.38549799       1.18162387      -0.28992085       1.10798040
F        3.18420493      -3.18507828       1.80838018       0.84316462      -0.63640022      -1.20659847
F       -0.27260447      -1.92506939      -2.56021894      -0.82476616       1.32540163       1.15538871
F       -2.05953009      -1.08310026      -3.42064918       0.43876576       0.44661987       1.58335888
F       -2.14176423      -1.91325051      -1.38004530       1.24125210       1.32601522      -0.55473498
F        3.17394798       3.07618302       1.92777120       0.34126864       1.24770616       0.13448481
F        5.04765050       1.96206659       1.59300601      -2.82517603      -0.83775339       1.62421167
F        3.68854563       1.69490814       3.48533903       1.06968641      -0.08132366      -1.18003839
Cl       0.05543452       6.72775024      -0.90769637      -0.30947281      -1.07659484      -0.34779437
O       -1.08778042       0.32896751       1.30291306       1.83599636      -0.72562436      -0.02970070
O        1.63354378      -1.27353431       0.16680946      -1.34388193       0.63033193       2.01434596
O        0.23942427       0.45571369      -1.07421232      -1.94719632      -2.20633870      -0.39366956
O        1.43918579       0.81892550       1.72539162       2.47815721       0.16767492       1.19772591
C       -1.08921022       4.40455287       0.01550399      -0.58692278       0.27148540      -1.82969755
C        1.16703259       4.23092049      -0.96179689      -2.29244550      -0.44063518       0.43504222
C       -1.01882060       3.03097218       0.31930395       0.55230380       0.80272918       0.39421720
C        1.22657852       2.88502854      -0.50610889       0.76896095       2.79948125      -1.59756820
C       -0.03171230       4.93914359      -0.74412883       0.79970666       0.56996474       2.10536031
C        0.17117952       2.30172473       0.16235231      -0.59219319       2.07868581       0.58277753
C       -2.37654884       0.50250444       3.40401589       1.15449055      -1.50227163      -1.09726931
C        2.34542143      -3.62586416       0.84401851      -3.82940798       2.06594354       0.45524959
C       -1.34571368      -1.14963013      -2.21292318      -0.48316917      -1.62236265      -2.17597822
C        3.72351949       1.88755506       2.13546561      -0.36105512       1.76189803       0.12341023
C       -0.97162218       0.55679901       2.70581995      -0.05101770       1.51978500       1.79832687
C        1.18438890      -2.56006635       0.70657413       1.10912589       1.65178908      -1.67664461
C       -1.07527895       0.32053957      -1.72610200       0.55812179      -2.40126947       2.37611115
C        2.86488574       0.89399455       1.43757140       1.04327746      -1.86252697      -2.15129806
P        0.35647127       0.59563626       0.60952638      -0.07909857      -0.78016184      -4.05993963
H       -2.00614293       5.06713574       0.10744785       1.21690074      -1.28738388       0.28125092
H        1.87065499       4.81657594      -1.52243961       0.80126522      -0.60944890      -0.00549260
H       -1.86375220       2.52124947       0.72800047      -0.39616114       0.02994142       0.36907381
H        2.10218339       2.38484782      -0.87276245       0.18971714      -0.55656256       0.49123219
H       -0.47457845       1.54595863       2.96488725      -0.94547214      -0.94086880      -0.65104125
H       -0.30653436      -0.17122561       3.14067089      -0.23039892      -0.43148999       0.20667223
H        0.59298334      -2.49677385       1.58587020       0.07244353       0.10546130       1.35016982
H        0.48904341      -2.82671179      -0.04364449      -0.58052926      -1.48351244      -0.75868332
H       -1.18823988       0.97472904      -2.53486598       0.45713029       0.85023813      -1.19537596
H       -1.91149409       0.50726151      -1.03657616       0.42026618       0.12245312      -0.06550762
H        3.39444368       0.00813526       1.63628303      -0.33332573      -1.92093820       0.84352419
H        3.11126750       0.88620259       0.35822009      -0.71934068       0.76663961       0.48595519
