44
Properties=species:S:1:pos:R:3:forces:R:3 id=42858 bond=O-P smiles="[H:35][c:20]1[c:18]([c:22]([c:19]([c:21]([c:23]1[P:32]([O:14][C:28]([H:37])([H:38])[C:24]([F:1])([F:2])[F:3])([O:15][C:29]([H:39])([H:40])[C:25]([F:4])([F:5])[F:6])([O:16][C:30]([H:41])([H:42])[C:26]([F:7])([F:8])[F:9])[O:17][C:31]([H:43])([H:44])[C:27]([F:10])([F:11])[F:12])[H:36])[H:34])[Cl:13])[H:33]" dataset=PubChem energy=-77348.68834183607 pbc="F F F"
F       -2.63855144      -0.14290150       4.37600417      -0.83782904       2.20031450      -1.01764612
F       -3.62757822       0.75745015       2.55197496       0.21881228       0.04908639       1.27602235
F       -2.99700065       2.10288046       4.16502375       0.13053196      -1.14553588      -0.04395758
F        2.09546758      -5.23406720       1.21562800       0.76926952      -0.16285922      -0.40975710
F        3.14261604      -4.31181120      -0.49617722       1.23468657      -0.37493073       1.05263258
F        3.50347305      -3.65237093       1.69770095       0.89009316      -0.71604569      -1.19533596
F       -0.59187259      -1.45777674      -2.44953971      -0.93310182       1.48413037       1.20291798
F       -2.37879821      -0.61580761      -3.30996995       0.44497602       0.52649725       1.61908394
F       -2.46103235      -1.44595786      -1.26936607       1.25874762       1.44003117      -0.57276201
F        2.85467986       3.54347567       2.03845043       0.29354983       1.22582287       0.11345823
F        4.72838238       2.42935924       1.70368524      -2.94982841      -0.85318660       1.63040031
F        3.36927751       2.16220079       3.59601826       1.02756210      -0.10295594      -1.25242047
Cl      -0.26383360       7.19504289      -0.79701714      -0.31529670      -1.13414650      -0.34842718
O       -1.40704854       0.79626016       1.41359229       1.91877510      -0.72910369      -0.13918664
O        1.95281190      -1.74082696       0.05613023      -0.59160635      -0.50997425       1.85963979
O       -0.07984385       0.92300634      -0.96353309      -0.95754314      -2.88108401       0.17155681
O        1.11991767       1.28621815       1.83607085       2.37971125      -0.96968406       0.63938152
C       -1.40847834       4.87184552       0.12618322      -0.59614398       0.24778149      -1.82531807
C        0.84776447       4.69821314      -0.85111766      -2.29537871      -0.43553718       0.42447038
C       -1.33808872       3.49826483       0.42998318       0.52402888       0.78082543       0.41006582
C        0.90731040       3.35232119      -0.39542966       0.77697106       2.77386323      -1.59986905
C       -0.35098042       5.40643624      -0.63344960       0.82574181       0.62691894       2.11587571
C       -0.14808860       2.76901738       0.27303154      -0.53264823       2.08951968       0.58450276
C       -2.69581696       0.96979709       3.51469512       1.05374074      -1.56650781      -0.99499592
C        2.66468955      -4.09315681       0.73333928      -3.96642952       2.31640359       0.52626078
C       -1.66498180      -0.68233748      -2.10224395      -0.38784480      -1.99666914      -2.25741002
C        3.40425137       2.35484771       2.24614484      -0.15436786       1.80713002       0.21652922
C       -1.29089030       1.02409166       2.81649918      -0.05169863       1.51047839       1.92068589
C        1.50365702      -3.02735900       0.59589490       1.54868235       2.18490377      -2.02495116
C       -1.39454707       0.78783222      -1.61542277       0.08825322      -2.78653081       2.23809757
C        2.54561762       1.36128720       1.54825063       1.44734114      -1.85190605      -2.22020114
P        0.03720315       1.06292891       0.72020561      -2.25682511       2.35547101      -3.42476457
H       -2.32541105       5.53442839       0.21812708       1.21790405      -1.29350859       0.28354226
H        1.55138687       5.28386859      -1.41176038       0.80335296      -0.61551846      -0.00436075
H       -2.18302032       2.98854212       0.83867970      -0.40210686       0.03475722       0.37309080
H        1.78291527       2.85214047      -0.76208322       0.20427358      -0.54835495       0.48253346
H       -0.79384657       2.01325128       3.07556648      -0.95139250      -0.91951695      -0.66143831
H       -0.62580248       0.29606704       3.25135012      -0.24407692      -0.45372113       0.19827174
H        0.91225146      -2.96406650       1.47519097       0.05515584       0.10011935       1.38799233
H        0.80831153      -3.29400444      -0.15432372      -0.64426143      -1.49332242      -0.81425667
H       -1.50750800       1.44202169      -2.42418675       0.57216944       0.90847187      -1.16340664
H       -2.23076221       0.97455416      -0.92589693       0.46679873       0.13957223      -0.04434945
H        3.07517556       0.47542791       1.74696226      -0.35007558      -2.02744097       0.82064036
H        2.79199938       1.35349524       0.46889932      -0.72731262       0.74654137       0.43828287
