44
Properties=species:S:1:pos:R:3:forces:R:3 id=42858 bond=O-P smiles="[H:35][c:20]1[c:18]([c:22]([c:19]([c:21]([c:23]1[P:32]([O:14][C:28]([H:37])([H:38])[C:24]([F:1])([F:2])[F:3])([O:15][C:29]([H:39])([H:40])[C:25]([F:4])([F:5])[F:6])([O:16][C:30]([H:41])([H:42])[C:26]([F:7])([F:8])[F:9])[O:17][C:31]([H:43])([H:44])[C:27]([F:10])([F:11])[F:12])[H:36])[H:34])[Cl:13])[H:33]" dataset=PubChem energy=-77339.1068367742 pbc="F F F"
F       -1.99275910      -1.08810708       4.15213027      -0.88819388       2.00965208      -0.86870302
F       -2.98178588      -0.18775543       2.32810106       0.14672550       0.00127298       1.34743852
F       -2.35120831       1.15767488       3.94114985       0.05792989      -1.14846842       0.01591595
F        1.44967524      -4.28886162       1.43950190       0.64434329       0.64774695      -0.62356500
F        2.49682370      -3.36660562      -0.27230332       0.99335970      -0.09036787       1.27375872
F        2.85768071      -2.70716535       1.92157485       0.54206853      -0.62016158      -1.38247774
F        0.05391975      -2.40298232      -2.67341361      -0.63386906       1.04388707       1.14540037
F       -1.73300587      -1.56101319      -3.53384385       0.44998199       0.25898341       1.57421142
F       -1.81524001      -2.39116344      -1.49323997       1.17979310       1.05466929      -0.44586857
F        3.50047220       2.59827009       1.81457653       0.40198902       1.11247775       0.13698131
F        5.37417472       1.48415366       1.47981134      -2.62967122      -0.78031974       1.60713742
F        4.01506985       1.21699521       3.37214436       1.10360991      -0.10466331      -1.18300586
Cl       0.38195874       6.24983731      -1.02089104      -0.29928976      -0.99380451      -0.34635462
O       -0.76125620      -0.14894542       1.18971839       0.85001428       0.15181764       0.60436971
O        1.30701956      -0.79562138       0.28000413      37.27691176     -67.12122056     -10.97063792
O        0.56594849      -0.02219924      -1.18740699      -6.76314608       0.75719302      -7.33708910
O        1.76571001       0.34101257       1.61219695       5.59111372       6.94842794       8.71806288
C       -0.76268600       3.92663994      -0.09769068      -0.57835505       0.29839278      -1.83429446
C        1.49355681       3.75300756      -1.07499156      -2.26885119      -0.44701368       0.43910230
C       -0.69229638       2.55305925       0.20610928       0.60008688       0.84667361       0.35757187
C        1.55310274       2.40711561      -0.61930356       0.71885551       2.85517506      -1.58550064
C        0.29481192       4.46123066      -0.85732350       0.75977231       0.48827092       2.08651578
C        0.49770374       1.82381180       0.04915764      -0.65718789       1.96371578       0.59581130
C       -2.05002462       0.02459151       3.29082122       1.25419962      -1.33093897      -1.21774166
C        2.01889721      -3.14795123       0.95721318      -3.09745112       1.34140635       0.41297661
C       -1.01918946      -1.62754306      -2.32611785      -0.70454797      -0.82020249      -2.36790942
C        4.05004371       1.40964213       2.02227094      -0.40637263       1.76905961       0.01362498
C       -0.64509796       0.07888608       2.59262528      -0.32070581       1.74303668       1.32787981
C        0.85786468      -2.08215342       0.81976880       2.12793695      -1.91366786      -1.50241823
C       -0.74875473      -0.15737336      -1.83929667       1.34598597      -1.41801477       1.97528360
C        3.19140996       0.41608162       1.32437673      -0.45380818      -1.54781204      -1.69373683
P        0.68299549       0.11772333       0.49633171     -36.69117182      57.72317368       8.74201290
H       -1.67961871       4.58922281      -0.00574682       1.21527844      -1.27508736       0.27736719
H        2.19717921       4.33866301      -1.63563428       0.79803696      -0.59727241      -0.00876832
H       -1.53722798       2.04333654       0.61480580      -0.38462192       0.02114063       0.36151287
H        2.42870761       1.90693489      -0.98595712       0.18210047      -0.55301243       0.49095221
H       -0.14805423       1.06804570       2.85169258      -0.87186889      -1.00710586      -0.63062670
H        0.01998986      -0.64913854       3.02747622      -0.17345977      -0.34538632       0.36096177
H        0.26645912      -2.01886092       1.69906487       0.37425384       0.42425028       0.97001401
H        0.16251919      -2.34879886       0.06955018      -0.46098719      -1.17594312      -0.76735941
H       -0.86171566       0.49681611      -2.64806065       0.07238643       0.71612950      -1.36506953
H       -1.58496987       0.02934858      -1.14977083       0.35383301       0.11315716      -0.05396216
H        3.72096790      -0.46977767       1.52308836      -0.11086180      -1.91364570       0.98568372
H        3.43779172       0.40828966       0.24502542      -0.63873211       0.92954652       0.34178980
