44
Properties=species:S:1:pos:R:3:forces:R:3 id=42858 bond=O-P smiles="[H:35][c:20]1[c:18]([c:22]([c:19]([c:21]([c:23]1[P:32]([O:14][C:28]([H:37])([H:38])[C:24]([F:1])([F:2])[F:3])([O:15][C:29]([H:39])([H:40])[C:25]([F:4])([F:5])[F:6])([O:16][C:30]([H:41])([H:42])[C:26]([F:7])([F:8])[F:9])[O:17][C:31]([H:43])([H:44])[C:27]([F:10])([F:11])[F:12])[H:36])[H:34])[Cl:13])[H:33]" dataset=PubChem energy=-77350.49759206385 pbc="F F F"
F       -2.39910035      -0.49337098       4.29299475      -0.85044065       2.16269101      -0.97473427
F       -3.38812713       0.40698067       2.46896554       0.19224253       0.03299924       1.28872795
F       -2.75754956       1.75241098       4.08201433       0.10248835      -1.13530218      -0.01682414
F        1.85601649      -4.88359772       1.29863742       0.75426764       0.01076592      -0.45121945
F        2.90316495      -3.96134172      -0.41316780       1.20567675      -0.32151286       1.08679729
F        3.26402196      -3.30190145       1.78071037       0.86488632      -0.66520875      -1.19539719
F       -0.35242150      -1.80824622      -2.53254913      -0.86833991       1.37309075       1.16751929
F       -2.13934712      -0.96627709      -3.39297937       0.43861370       0.47753149       1.59030898
F       -2.22158126      -1.79642734      -1.35237549       1.24249852       1.37125155      -0.56996519
F        3.09413095       3.19300619       1.95544101       0.32888562       1.25040443       0.13277660
F        4.96783347       2.07888976       1.62067582      -2.87097844      -0.84642944       1.62815316
F        3.60872860       1.81173131       3.51300884       1.05675414      -0.08665634      -1.19756310
Cl      -0.02438251       6.84457341      -0.88002656      -0.31136811      -1.09500711      -0.34816092
O       -1.16759745       0.44579068       1.33058287       1.87635196      -0.73196194      -0.07061618
O        1.71336081      -1.39035748       0.13913965      -1.11406772       0.49380634       1.96434007
O        0.15960724       0.57253686      -1.04654251      -1.50347510      -2.50479402      -0.09082281
O        1.35936876       0.93574867       1.75306143       2.39518520      -0.34731237       0.88241917
C       -1.16902725       4.52137604       0.04317380      -0.58902534       0.26405058      -1.82813663
C        1.08721556       4.34774366      -0.93412708      -2.29582792      -0.43855805       0.43287071
C       -1.09863763       3.14779535       0.34697376       0.54418489       0.79501691       0.39914928
C        1.14676149       3.00185171      -0.47843908       0.77335673       2.79063720      -1.60045506
C       -0.11152933       5.05596676      -0.71645902       0.80806539       0.58653511       2.10860311
C        0.09136249       2.41854790       0.19002212      -0.57050991       2.07926966       0.58415304
C       -2.45636587       0.61932761       3.43168570       1.12438323      -1.52506132      -1.06670936
C        2.42523846      -3.74268733       0.81634870      -3.88851230       2.15567963       0.46892074
C       -1.42553071      -1.03280696      -2.18525337      -0.43461669      -1.75969616      -2.18523564
C        3.64370246       2.00437823       2.16313542      -0.31393575       1.76700540       0.14458428
C       -1.05143921       0.67362218       2.73348976      -0.04619159       1.51303461       1.84246101
C        1.26420593      -2.67688952       0.67890432       1.21908754       1.85299531      -1.77889425
C       -1.15509598       0.43736274      -1.69843219       0.39229134      -2.55936274       2.34826326
C        2.78506871       1.01081772       1.46524121       1.22290161      -1.87950320      -2.18709828
P        0.27665424       0.71245943       0.63719619      -0.84229198       0.29176134      -3.83518097
H       -2.08595996       5.18395891       0.13511766       1.21737201      -1.28960227       0.28199930
H        1.79083796       4.93339911      -1.49476980       0.80181565      -0.61164077      -0.00496033
H       -1.94356923       2.63807264       0.75567028      -0.39785521       0.03152453       0.37032745
H        2.02236636       2.50167099      -0.84509264       0.19349478      -0.55438372       0.48919966
H       -0.55439548       1.66278180       2.99255706      -0.94876202      -0.93278613      -0.65417089
H       -0.38635139      -0.05440244       3.16834070      -0.23543253      -0.43955445       0.20028478
H        0.67280037      -2.61359702       1.55820039       0.07288716       0.08814044       1.36183180
H        0.56886044      -2.94353496      -0.07131430      -0.59929973      -1.48944958      -0.77912137
H       -1.26805691       1.09155221      -2.50719617       0.50458182       0.87310866      -1.17986958
H       -1.99131112       0.62408468      -1.00890635       0.43611125       0.12792438      -0.06005733
H        3.31462665       0.12495843       1.66395284      -0.36194035      -1.95090012       0.82091658
H        3.03145047       1.00302576       0.38588990      -0.72928486       0.74029307       0.47401693
