44
Properties=species:S:1:pos:R:3:forces:R:3 id=42858 bond=O-P smiles="[H:35][c:20]1[c:18]([c:22]([c:19]([c:21]([c:23]1[P:32]([O:14][C:28]([H:37])([H:38])[C:24]([F:1])([F:2])[F:3])([O:15][C:29]([H:39])([H:40])[C:25]([F:4])([F:5])[F:6])([O:16][C:30]([H:41])([H:42])[C:26]([F:7])([F:8])[F:9])[O:17][C:31]([H:43])([H:44])[C:27]([F:10])([F:11])[F:12])[H:36])[H:34])[Cl:13])[H:33]" dataset=PubChem energy=-77348.85785234653 pbc="F F F"
F       -2.60952707      -0.18538265       4.36594243      -0.84107307       2.19772766      -1.01427819
F       -3.59855385       0.71496900       2.54191322       0.21585284       0.04822360       1.27662983
F       -2.96797628       2.06039931       4.15496201       0.12868823      -1.14384914      -0.04159557
F        2.06644321      -5.19158605       1.22568974       0.76841933      -0.14598130      -0.41478553
F        3.11359167      -4.26933005      -0.48611548       1.23342347      -0.37108605       1.05555673
F        3.47444868      -3.60988978       1.70776269       0.88867430      -0.71210736      -1.19462704
F       -0.56284822      -1.50025789      -2.45960145      -0.93187171       1.47523919       1.19962982
F       -2.34977384      -0.65828876      -3.32003169       0.44396585       0.52312734       1.61519809
F       -2.43200798      -1.48843901      -1.27942781       1.25838515       1.43451247      -0.57452371
F        2.88370423       3.50099452       2.02838869       0.29573821       1.23096574       0.11645948
F        4.75740675       2.38687809       1.69362350      -2.94398233      -0.85128264       1.62902450
F        3.39830188       2.11971964       3.58595652       1.03035863      -0.10118557      -1.24646321
Cl      -0.23480923       7.15256174      -0.80707888      -0.31498240      -1.13050767      -0.34843688
O       -1.37802417       0.75377901       1.40353055       1.91821257      -0.72964840      -0.13596614
O        1.92378753      -1.69834581       0.06619197      -0.62595423      -0.39669177       1.86854523
O       -0.05081948       0.88052519      -0.97359483      -0.98932613      -2.85751957       0.16574285
O        1.14894204       1.24373700       1.82600911       2.36918117      -0.93493123       0.64070206
C       -1.37945397       4.82936437       0.11612148      -0.59538421       0.24923403      -1.82550014
C        0.87678884       4.65573199      -0.86117940      -2.29574622      -0.43555693       0.42534797
C       -1.30906435       3.45578368       0.41992144       0.52589618       0.78139965       0.40930181
C        0.93633477       3.30984004      -0.40549140       0.77704391       2.77500276      -1.60026940
C       -0.32195605       5.36395509      -0.64351134       0.82416575       0.62308765       2.11520876
C       -0.11906423       2.72653623       0.26296980      -0.53553308       2.08815142       0.58444330
C       -2.66679259       0.92731594       3.50463338       1.06082133      -1.56369172      -1.00174806
C        2.63566518      -4.05067566       0.74340102      -3.96139203       2.30300810       0.51847133
C       -1.63595743      -0.72481863      -2.11230569      -0.38636008      -1.98036225      -2.24798294
C        3.43327574       2.31236656       2.23608310      -0.17267013       1.80032936       0.20803886
C       -1.26186593       0.98161051       2.80643744      -0.05035618       1.51006493       1.91499716
C        1.47463265      -2.98487785       0.60595664       1.50969970       2.15690074      -1.99788391
C       -1.36552270       0.74535107      -1.62548451       0.11243400      -2.77211766       2.25056968
C        2.57464199       1.31880605       1.53818889       1.43737730      -1.85749295      -2.21966368
P        0.06622752       1.02044776       0.71014387      -2.14764375       2.19946247      -3.45518534
H       -2.29638668       5.49194724       0.20806534       1.21781856      -1.29318283       0.28338132
H        1.58041124       5.24138744      -1.42182212       0.80320244      -0.61525457      -0.00436254
H       -2.15399595       2.94606097       0.82861796      -0.40176779       0.03446820       0.37282425
H        1.81193964       2.80965932      -0.77214496       0.20319628      -0.54918973       0.48339675
H       -0.76482220       1.97077013       3.06550474      -0.95131441      -0.92053155      -0.66084538
H       -0.59677811       0.25358589       3.24128838      -0.24330637      -0.45268290       0.19779120
H        0.88322709      -2.92158535       1.48525271       0.05938195       0.09564355       1.38502278
H        0.77928716      -3.25152329      -0.14426198      -0.63980032      -1.49361358      -0.81197288
H       -1.47848363       1.39954054      -2.43424849       0.56802390       0.90607769      -1.16400508
H       -2.20173784       0.93207301      -0.93595867       0.46420542       0.13861880      -0.04592743
H        3.10419993       0.43294676       1.73690052      -0.35627715      -2.02317523       0.81603620
H        2.82102375       1.31101409       0.45883758      -0.72878629       0.74135687       0.44164752
