21
Properties=species:S:1:pos:R:3:forces:R:3 id=29855 bond=C-S smiles="[H:18][c:9]1[c:8]([c:12]([c:10]([c:11]([c:13]1[N:14]([H:19])[H:20])[Cl:6])[Cl:5])[S:7][C:16]([C:15]([H:21])([F:1])[F:2])([F:3])[F:4])[H:17]" dataset=PubChem energy=-56630.49378628494 pbc="F F F"
F        1.86202802       4.98639799       1.26109232       0.56790208      -1.20459832      -0.09322286
F        3.43090941       4.44918538      -0.17771955      -0.28045119      -0.74647063       0.64274366
F        1.78549882       2.46015192       2.34831219       1.46866558       0.06621708      -1.68287512
F        3.86724045       2.03815080       1.54869153      -1.95220400       0.52936156      -0.28461959
Cl       2.40745642      -1.56685230      -1.14031780      -1.42395968      -0.18436193       0.56537695
Cl       0.27793588      -3.81584093      -0.16049913      -0.19585128       0.43849048       0.16473687
S        1.40623608       1.39380434      -1.39598227       0.04914121       0.46131953       1.70672956
C       -0.96909664       0.50580212      -0.39961475      -0.46619476       0.68237299       0.27340637
C       -1.85123799      -0.40818795       0.10953907      -0.30541069       1.06760806       0.01225980
C        0.74734806      -1.16421517      -0.64597387       0.37564845      -0.90264395      -0.05051063
C       -0.16246156      -2.12766716      -0.17561126       1.04859324       0.62531429      -0.75767072
C        0.33586506       0.17256085      -0.78037286       0.83885309       0.76669258      -0.32785749
C       -1.46963117      -1.73102804       0.18701039      -0.07058037      -1.60516483       0.30613708
N       -2.36785600      -2.68699499       0.57118702       0.27943086      -0.20302051       0.09685023
C        2.95609428       4.16321922       1.07130944      -0.75858834       0.79983731      -0.54920826
C        2.65058138       2.63896776       1.28665079      -0.03708722      -0.14056471       0.14736045
H       -1.28422925       1.54317144      -0.47080237       0.22685743      -0.18863801      -0.05665849
H       -2.83791969      -0.08167904       0.46854257       0.52189789      -0.32550279      -0.33116528
H       -3.22924874      -2.40169069       0.99786460       0.04125100       0.03964505       0.00950806
H       -1.99762676      -3.58484837       0.84300768      -0.18406239       0.13430639      -0.06203116
H        3.70701768       4.48128105       1.78277300       0.25923879      -0.10536609       0.28094650
