21
Properties=species:S:1:pos:R:3:forces:R:3 id=29855 bond=C-S smiles="[H:18][c:9]1[c:8]([c:12]([c:10]([c:11]([c:13]1[N:14]([H:19])[H:20])[Cl:6])[Cl:5])[S:7][C:16]([C:15]([H:21])([F:1])[F:2])([F:3])[F:4])[H:17]" dataset=PubChem energy=-56634.00252578119 pbc="F F F"
F        1.58018913       4.70437379       0.65348740       0.50126072      -1.19312775      -0.14021299
F        3.14907052       4.16716118      -0.78532447      -0.28476884      -0.75725840       0.47375473
F        1.50365993       2.17812772       1.74070727       1.38996455       0.43304045      -0.49202044
F        3.58540156       1.75612660       0.94108661      -0.73308317       0.51797148       0.60888000
Cl       2.68929531      -1.28482810      -0.53271288      -1.27088643      -0.18708778       0.50032897
Cl       0.55977477      -3.53381673       0.44710579      -0.17056004       0.41863440       0.15692465
S        1.68807497       1.67582854      -0.78837735      -0.46195242       0.27414783      -1.57185584
C       -0.68725775       0.78782632       0.20799017       0.26091763       0.76102963      -0.05526573
C       -1.56939910      -0.12616375       0.71714399      -0.31340396       0.69042287       0.09401476
C        1.02918695      -0.88219097      -0.03836895       0.22607854      -0.12270402      -0.21408595
C        0.11937733      -1.84564296       0.43199366       0.64701472       0.61825068      -0.61970197
C        0.61770395       0.45458505      -0.17276794      -0.41628224      -0.80710754       0.52473916
C       -1.18779228      -1.44900384       0.79461531       0.19688698      -1.33760934       0.21108710
N       -2.08601711      -2.40497079       1.17879194       0.04116105      -0.45947338       0.12170775
C        2.67425539       3.88119502       0.46370452      -0.20859394       1.12343915       0.43643288
C        2.36874249       2.35694356       0.67904587      -0.19250393       0.38841876       0.16002166
H       -1.00239036       1.82519564       0.13680255       0.19585856      -0.17601990      -0.05327019
H       -2.55608080       0.20034516       1.07614749       0.52490748      -0.31977368      -0.33409961
H       -2.94740985      -2.11966649       1.60546952       0.07677447       0.02814232       0.02479980
H       -1.71578787      -3.30282417       1.45061260      -0.20003912       0.17364726      -0.03318134
H        3.42517879       4.19925685       1.17516808       0.18760836      -0.06903101       0.20522521
