21
Properties=species:S:1:pos:R:3:forces:R:3 id=29855 bond=C-S smiles="[H:18][c:9]1[c:8]([c:12]([c:10]([c:11]([c:13]1[N:14]([H:19])[H:20])[Cl:6])[Cl:5])[S:7][C:16]([C:15]([H:21])([F:1])[F:2])([F:3])[F:4])[H:17]" dataset=PubChem energy=-56633.86282404037 pbc="F F F"
F        1.62273085       4.74694348       0.74520135       0.51904551      -1.19492823      -0.12951968
F        3.19161224       4.20973087      -0.69361052      -0.29182417      -0.78722124       0.51073316
F        1.54620165       2.22069741       1.83242122       1.42442855       0.23331480      -1.13895457
F        3.62794328       1.79869629       1.03280056      -1.36371754       0.56019296       0.14845551
Cl       2.64675359      -1.32739779      -0.62442683      -1.27852364      -0.19242961       0.51596679
Cl       0.51723305      -3.57638642       0.35539184      -0.17371487       0.41584605       0.15817515
S        1.64553325       1.63325885      -0.88009130       0.88762309       1.44818644       1.27738962
C       -0.72979947       0.74525663       0.11627622       0.20582171       0.75516773       0.00646800
C       -1.61194082      -0.16873344       0.62543004      -0.32730696       0.70151119       0.09326187
C        0.98664523      -0.92476066      -0.13008290       0.23971643      -0.21368184      -0.18027104
C        0.07683561      -1.88821265       0.34027971       0.69224786       0.62366455      -0.64340429
C        0.57516223       0.41201536      -0.26448189      -0.24552592      -0.49287238       0.53468963
C       -1.23033400      -1.49157353       0.70290136       0.16602005      -1.33951590       0.21711694
N       -2.12855883      -2.44754048       1.08707799       0.05700861      -0.44584840       0.12096665
C        2.71679711       3.92376471       0.55541847      -0.43465673       0.94671160       0.12726752
C        2.41128421       2.39951325       0.77075982      -0.87006277      -0.62618385      -1.43885366
H       -1.04493208       1.78262595       0.04508860       0.20089191      -0.17674252      -0.05580197
H       -2.59862252       0.15777547       0.98443354       0.52237974      -0.32240810      -0.33310868
H       -2.98995157      -2.16223618       1.51375557       0.07473973       0.02933998       0.02341335
H       -1.75832959      -3.34539386       1.35889865      -0.19885104       0.17121283      -0.03505337
H        3.46772051       4.24182654       1.26688203       0.19665577      -0.09533785       0.22295018
