35
Properties=species:S:1:pos:R:3:forces:R:3 id=882 bond=C-O smiles="[H:33][C@:14]1([C@@:11]([C:9]([C@:12]([O:6][C@@:16]1([H:35])[C@@:15]([H:34])([C@@:13]([H:32])([C:10]([H:29])([H:30])[O:1][H:17])[O:4][H:20])[O:5][H:21])([C:8]([H:24])([H:25])[H:26])[O:3][H:19])([H:27])[H:28])([H:31])[O:2][H:18])[N:7]([H:22])[H:23]" dataset=PubChem energy=-23427.624487257064 pbc="F F F"
O       -2.02395562      -2.91808155      -0.86410707      -0.60239218       0.03120695      -0.07623980
O        2.61769636       1.90646836       3.32327456       0.23943709       0.59336132       0.40754131
O       -1.02268246       2.83378680       0.53330162       3.59234247      -0.19723044       0.26276088
O       -0.61228994      -0.80177322      -1.67557078       0.72566337       0.49421352      -0.21021561
O        2.35823234      -1.14730480      -0.99980229      -0.14661515      -0.99359568       0.17343106
O        1.30533426       1.09470847      -0.46429419      -2.05651717       1.50709183       0.68722146
N        1.57693489      -0.69678739       2.84749574      -0.01201815       0.31800333      -0.32294543
C        1.53813870       3.33495375      -1.22480612      -1.81120779      -0.35947489       0.16037985
C        1.98615392       2.69725915       1.16764051      -2.58790810       1.50551514       0.78372039
C       -0.99954895      -2.49450377      -0.00381985      -0.26814526       1.22309152      -0.28014702
C        1.71693250       1.68656644       2.24208599      -0.44250568       0.42807581       1.08181597
C        1.11828496       2.43368098      -0.06641960       1.25991183      -1.29047140      -0.75956548
C        0.01405628      -1.81537893      -0.90398198       1.87911271      -1.35288854       0.10702793
C        1.86563428       0.27071144       1.75649947      -0.76735398      -0.27146826       0.59961766
C        1.22444652      -1.29216864      -0.11700016       0.34078178       0.79991314      -1.20974140
C        0.95766727       0.07974646       0.50950007       0.51126223      -0.73750606       1.42838428
H       -2.12044195      -2.16425398      -1.46759623      -0.32586010      -0.49865542       0.06440865
H        2.44605966       2.79743334       3.68742675       0.14991400      -0.88407095      -0.32624135
H       -1.61043743       2.57911272      -0.16770335       0.01156134      -0.38086370      -0.83719441
H        0.10468211      -0.26905897      -2.09342318      -0.96041221      -0.70925732       0.46121632
H        2.55262275      -0.22510800      -1.14548438      -0.11016761       0.23785366       0.03327572
H        0.66471763      -0.48599669       3.28815502       0.95954658      -0.06759792      -0.29364739
H        2.32639893      -0.61082569       3.55169005      -0.88126420      -0.00500258      -0.51434178
H        0.76739544       3.35200521      -2.00218588       0.24778399      -0.08700497       0.10618294
H        1.61438920       4.32954451      -0.82529133       0.23643057       0.41892133      -0.03957010
H        2.47847887       2.98429820      -1.65677529      -0.12794326       0.00156824       0.29320821
H        3.03666468       2.72649142       0.92011392       0.22374973      -0.29612637      -0.54717046
H        1.74997981       3.71671363       1.57290918       0.09259804      -0.81123754      -0.44295973
H       -1.36042289      -1.77103737       0.73000116      -0.28732137       0.17385986       0.09716956
H       -0.61195592      -3.31237939       0.58747380       0.31587086      -0.34671092      -0.35372800
H        0.69555093       1.79928991       2.66049904       0.25958691       0.01565125      -0.64616712
H        0.38646581      -2.64476064      -1.57154327      -0.16965338       0.89758880       0.40264066
H        2.88133224       0.11443230       1.43023390       0.45287868      -0.14127813      -0.04992041
H        1.48889252      -2.00854042       0.66166839      -0.04067518       0.16123867      -0.01821037
H       -0.09484581       0.10681483       0.80087665       0.09992198       0.62443361      -0.22622947
