35
Properties=species:S:1:pos:R:3:forces:R:3 id=882 bond=C-O smiles="[H:33][C@:14]1([C@@:11]([C:9]([C@:12]([O:6][C@@:16]1([H:35])[C@@:15]([H:34])([C@@:13]([H:32])([C:10]([H:29])([H:30])[O:1][H:17])[O:4][H:20])[O:5][H:21])([C:8]([H:24])([H:25])[H:26])[O:3][H:19])([H:27])[H:28])([H:31])[O:2][H:18])[N:7]([H:22])[H:23]" dataset=PubChem energy=-23426.30821246442 pbc="F F F"
O       -2.59488026      -2.81138666      -0.70418141      -0.66760909       0.02431647      -0.08225690
O        2.04677172       2.01316325       3.48320022       0.12901070       0.57437997       0.58332884
O       -0.45175782       2.72709191       0.37337596     -33.98784561       5.71056985       9.57089945
O       -1.18321458      -0.69507833      -1.51564512       0.60500435       0.54765196      -0.25237388
O        1.78730770      -1.04060991      -0.83987663      -0.21114575      -1.22181981       0.19960131
O        0.73440962       1.20140336      -0.30436853       0.72199976      -2.95935551      -0.84969322
N        1.00601025      -0.59009250       3.00742140      -0.00194461       0.26237456      -0.24855877
C        0.96721406       3.44164864      -1.06488046       1.44716309      -0.73411674      -1.11324613
C        1.41522928       2.80395404       1.32756617       0.81182306       1.30517008       0.33857047
C       -1.57047359      -2.38780888       0.15610581      -0.23335530       1.22202208      -0.30699071
C        1.14600786       1.79326133       2.40201165      -0.28914117       0.49392769       0.75575961
C        0.54736032       2.54037587       0.09350606      30.99251931      -3.36448505      -7.09024623
C       -0.55686836      -1.70868404      -0.74405632       1.93630865      -1.38594830       0.17895706
C        1.29470964       0.37740633       1.91642513      -0.83840785      -0.29564421       0.59917266
C        0.65352188      -1.18547375       0.04292550       0.41936581       0.82691600      -1.21893738
C        0.38674263       0.18644135       0.66942573       0.74858592      -0.08784797       0.82682309
H       -2.69136659      -2.05755909      -1.30767057      -0.30086377      -0.51203655       0.05832818
H        1.87513502       2.90412823       3.84735241       0.18674553      -0.87486840      -0.36924302
H       -1.03951279       2.47241783      -0.32762901      -1.46223696       0.11184207      -0.44845295
H       -0.46624253      -0.16236408      -1.93349752      -0.86605776      -0.71175481       0.50283799
H        1.98169811      -0.11841311      -0.98555872      -0.24716933       0.41757876       0.13767011
H        0.09379299      -0.37930180       3.44808068       0.97294510      -0.06830041      -0.28012855
H        1.75547429      -0.50413080       3.71161571      -0.89138956      -0.00254519      -0.50047897
H        0.19647080       3.45870010      -1.84226022       0.02022424      -0.21966672       0.07651031
H        1.04346456       4.43623940      -0.66536567       0.23554406       0.43725538       0.04113455
H        1.90755423       3.09099309      -1.49684963      -0.06188699       0.46372871      -0.10909944
H        2.46574004       2.83318631       1.08003958       0.34290106      -0.28683351      -0.01438800
H        1.17905517       3.82340852       1.73283484       0.04788733      -0.75592332      -0.48311622
H       -1.93134753      -1.66434248       0.88992682      -0.28615393       0.17277774       0.10760257
H       -1.18288056      -3.20568450       0.74739946       0.31382561      -0.33837565      -0.35410250
H        0.12462629       1.90598480       2.82042470       0.21789135      -0.05964331      -0.49375084
H       -0.18445883      -2.53806575      -1.41161761      -0.18689240       0.90808507       0.39273577
H        2.31040760       0.22112719       1.59015956       0.41410158      -0.11380782      -0.07246580
H        0.91796788      -1.90184553       0.82159405      -0.04810229       0.13068894      -0.03231459
H       -0.66577045       0.21350972       0.96080231       0.01343215       0.38337635      -0.05161151
