19
Properties=species:S:1:pos:R:3:forces:R:3 id=47640 bond=C-O smiles="[H:14][C:11]([H:15])([H:16])[O:5][C:13]1([C:9](=[C:7]([C:8](=[C:10]1[Cl:4])[Cl:2])[Cl:1])[Cl:3])[O:6][C:12]([H:17])([H:18])[H:19]" dataset=PubChem energy=-61548.127661273735 pbc="F F F"
Cl      -3.62778605       0.07172899      -1.37736620       0.80012281       0.34269443       0.13192967
Cl      -2.61548151      -2.34450115       0.56906598       0.91865891       1.70724652      -0.07549576
Cl      -0.78430702       1.75780402      -2.60725880      -0.65631840      -0.45934274       1.90699198
Cl       0.74212973      -1.93302024       1.23110937      -0.45544773       0.93219492       0.04660610
O        1.40207266       0.46400067      -0.63075913      -0.31989605      -0.74987118      -0.29947989
O        0.18145392       1.70757102       0.82606869      -0.07045931      -1.27599070       0.97318557
C       -2.04975928       0.16586377      -0.66196365       0.15040922       0.94524563      -1.66465752
C       -1.64688386      -0.85210241       0.29105236       1.88470716      -2.29611340       1.34985274
C       -0.96613146       0.91573693      -1.04472543      -2.74576499      -0.49803016      -1.27736655
C       -0.30792965      -0.73420967       0.59422081      -2.42310275       0.24157025      -1.26775849
C        1.98192905       1.54991148      -1.34902884       0.30499089      -2.26529499      -2.61971655
C        1.66804570       1.22725599       3.12008052       1.19709396      -2.64157257       0.15277891
C        0.10948086       0.61715280      -0.08418891       3.93420919       1.38730984       2.01360490
H        1.63149499       2.49587964      -1.14135290      -1.09488947       1.86319901       0.98440236
H        1.80114029       1.40179937      -2.48543978       0.61705685       0.09716417       1.87785622
H        3.03810130       1.52907865      -1.13872136       0.33110050      -0.12918753      -0.00531077
H        2.62557262       0.86928814       2.68041175      -0.92563701       0.97407514      -0.54568603
H        1.76960069       2.10503321       3.75997667      -0.80444941       0.19632280      -0.80876478
H        1.27532362       0.27636598       3.59868818      -0.64209604       1.63306565      -0.87307253
