19
Properties=species:S:1:pos:R:3:forces:R:3 id=47640 bond=C-O smiles="[H:14][C:11]([H:15])([H:16])[O:5][C:13]1([C:9](=[C:7]([C:8](=[C:10]1[Cl:4])[Cl:2])[Cl:1])[Cl:3])[O:6][C:12]([H:17])([H:18])[H:19]" dataset=PubChem energy=-61551.44370887386 pbc="F F F"
Cl      -3.38002075      -0.00832351      -0.99503090       0.80381004       0.34443805       0.13866316
Cl      -2.36771621      -2.42455365       0.95140128       0.94673098       1.74205260      -0.08469553
Cl      -0.53654172       1.67775152      -2.22492350      -0.64307013      -0.45568599       1.90129465
Cl       0.98989503      -2.01307274       1.61344467      -0.42847219       0.78426728      -0.01575036
O        1.64983796       0.38394817      -0.24842383      -0.40800796      -0.70949992      -0.15587921
O        0.42921922       1.62751852       1.20840399       0.94686132      -0.46847210       3.31348707
C       -1.80199398       0.08581127      -0.27962835       0.25570244       1.12665213      -1.85650724
C       -1.39911856      -0.93215491       0.67338766       1.98656901      -2.38799644       1.45193599
C       -0.71836616       0.83568443      -0.66239013      -2.93906353      -0.66071369      -1.30942788
C       -0.06016435      -0.81426217       0.97655611      -2.50511025       0.21744265      -1.26957266
C        2.22969435       1.46985898      -0.96669354       0.34742608      -2.19987558      -2.69690867
C        1.42028040       1.30730849       2.73774522      -0.47091022      -2.38922368      -2.90660082
C        0.35724616       0.53710030       0.29814639       3.85112080       0.71689814       1.75325745
H        1.87926029       2.41582714      -0.75901760      -1.09530608       1.85790962       0.96999044
H        2.04890559       1.32174687      -2.10310448       0.61317187       0.09814359       1.90143964
H        3.28586660       1.44902615      -0.75638606       0.33061693      -0.14031297      -0.00176119
H        2.37780732       0.94934064       2.29807645      -0.65836904       0.85264299       0.14049964
H        1.52183539       2.18508571       3.37764137      -0.65436623      -0.01387693      -0.72584486
H        1.02755832       0.35641848       3.21635288      -0.27442897       1.69115296      -0.54198944
