19
Properties=species:S:1:pos:R:3:forces:R:3 id=47640 bond=C-O smiles="[H:14][C:11]([H:15])([H:16])[O:5][C:13]1([C:9](=[C:7]([C:8](=[C:10]1[Cl:4])[Cl:2])[Cl:1])[Cl:3])[O:6][C:12]([H:17])([H:18])[H:19]" dataset=PubChem energy=-61548.95578127071 pbc="F F F"
Cl      -3.54711828       0.04566539      -1.25288494       0.79783166       0.34228646       0.13158789
Cl      -2.53481374      -2.37056475       0.69354724       0.91994957       1.71193433      -0.07428310
Cl      -0.70363925       1.73174042      -2.48277754      -0.64990254      -0.45582402       1.89931178
Cl       0.82279750      -1.95908384       1.35559063      -0.43286517       0.88375144       0.03733757
O        1.48274043       0.43793707      -0.50627787      -0.34016780      -0.74474203      -0.26451218
O        0.26212169       1.68150742       0.95054995       0.32345288      -1.04183702       1.76755759
C       -1.96909151       0.13980017      -0.53748239       0.20757128       1.02819131      -1.74644132
C       -1.56621609      -0.87816601       0.41553362       1.95281052      -2.34082855       1.40464084
C       -0.88546369       0.88967333      -0.92024417      -2.84236901      -0.55827687      -1.28666635
C       -0.22726188      -0.76027327       0.71870207      -2.50052440       0.25069089      -1.30362342
C        2.06259682       1.52384788      -1.22454758       0.31285848      -2.24768748      -2.63792928
C        1.58737793       1.25331959       2.99559926       0.74021930      -2.56633224      -0.67355726
C        0.19014863       0.59108920       0.04029235       3.94502794       1.13838256       1.99071588
H        1.71216276       2.46981604      -1.01687164      -1.09364414       1.86121566       0.98007423
H        1.88180806       1.37573577      -2.36095852       0.61648705       0.09726140       1.88387662
H        3.11876907       1.50301505      -1.01424010       0.33207827      -0.13163379      -0.00556203
H        2.54490485       0.89535174       2.55593049      -0.90682535       0.95664148      -0.43261899
H        1.68893292       2.13109681       3.63549541      -0.79502873       0.16868537      -0.82004882
H        1.19465585       0.30242958       3.47420692      -0.58413789       1.65028276      -0.84397717
