46
Properties=species:S:1:pos:R:3:forces:R:3 id=49025 bond=N-O smiles="[H:36][C:12]1([C:17]2([C:13]([C:20]3([C:16]([C:19]1([C:14]([C:18]([C:9]2([H:30])[H:31])([C:15]3([H:42])[H:43])[N:4]([H:21])[H:22])([H:40])[H:41])[C:10]([H:32])([H:33])[C:6]([H:23])([H:24])[H:25])([H:44])[H:45])[C:11]([H:34])([H:35])[C:8]([H:28])([H:29])[C:7]([H:26])([H:27])[O:3][N+:5](=[O:1])[O-:2])([H:38])[H:39])[H:46])[H:37]" dataset=PubChem energy=-25114.2064661435 pbc="F F F"
O        0.09545705      -6.27727250       2.90103715       1.76362490       4.00247710       0.45660399
O        1.31910229      -5.16861705       4.37658089      -1.74389543       0.38763659      -3.23721218
O        0.98217235      -4.16976467       2.34647463      -0.62659618      -0.99601738       0.50256719
N       -1.74885787       3.90067848       0.60372463       0.06420684      -0.66033979       0.02302107
N        0.73377910      -5.25749282       3.27730506       0.48810457      -2.79579503       1.87501781
C        4.08029686       1.49297949      -0.38369800       0.90403241       0.42315911       0.30659400
C       -0.00935103      -3.11528221       2.50219117      -0.85443691       0.41802090       0.64512628
C        0.24063693      -2.01589194       1.46587490       0.75843666      -0.14928177       0.34729554
C       -1.10370602       2.37374242      -1.29566623      -0.99339176      -0.12623239       0.95147425
C        3.04426847       2.53906855       0.00507460      -0.26109494      -0.56988615       0.68650366
C       -0.54053284      -0.68551460       1.70273613       1.72880959      -0.62001546       0.14896956
C        1.25054191       1.60340627      -1.60145415      -0.23247755      -0.35869023       0.39813352
C       -0.46671941       0.03125372      -0.75500895       0.36398993       0.23487386       0.04380615
C        0.63915263       3.24003037       0.25775020       0.64758582      -0.67498451       0.67750324
C       -1.07441248       1.65423104       1.14310054       0.82981385      -0.02276057      -0.80310919
C        1.30270921       0.91263067       0.83463208      -0.49466590      -0.82335228      -1.17983543
C       -0.22266402       1.21504041      -1.69106115       0.58706561      -0.08291025      -0.27494012
C       -0.83299686       2.80646547       0.16038202      -0.01311290       1.17967791       0.96826260
C        1.58036552       2.06786271      -0.15462341       0.30262861       0.19800788       0.40804234
C       -0.18549515       0.45648598       0.71576174      -0.09156892      -0.32595555       0.80997799
H       -1.53828396       4.16122373       1.57133113      -0.02946752      -0.11123429      -0.59842753
H       -1.70039452       4.72959312       0.03296964       0.22053640       0.05764909      -0.12632633
H        4.09922705       0.62644667       0.28652505       0.04476187       0.36143483       0.04023192
H        3.91937528       1.09251567      -1.36522187      -0.06832047      -0.03207704      -0.60666832
H        5.07779060       1.98569520      -0.37746634      -0.52464456      -0.58196444       0.04092892
H       -1.00903286      -3.52469316       2.35971926       0.03806333      -0.24674093      -0.09806657
H        0.02299653      -2.75092450       3.54001079       0.28456020       0.05298471      -0.34732290
H        1.32357614      -1.83308998       1.48465573      -0.26605447       0.16226434      -0.03262151
H        0.03269885      -2.45499650       0.49469978      -0.14275540       0.16190668      -0.14089727
H       -2.14022769       2.02025458      -1.39104189       0.07377800       0.45492558       0.09589773
H       -0.96256341       3.24026044      -1.92663588       0.02669851       0.15523049      -0.34041881
H        3.23372136       2.77683719       1.07906811      -0.33626855       0.08635283      -0.70231185
H        3.19562278       3.45169505      -0.56614960       0.01050868       0.07414639      -0.08510627
H       -0.32001175      -0.34365771       2.73502480      -0.20895068      -0.12906035      -0.51407620
H       -1.58417835      -0.88662950       1.62349747      -0.87813903      -0.07727597       0.03708514
H        1.43233131       2.38355800      -2.33000554       0.32815505       0.30205554      -0.03792156
H        1.79632424       0.69934140      -1.91457237       0.25348003       0.50096788       0.31537714
H       -1.48034443      -0.31575552      -0.93573703      -0.23838314      -0.13078612       0.46852684
H        0.20644877      -0.79647509      -1.03519071      -0.21762080       0.31937675       0.15586821
H        0.91147657       3.53773816       1.31886230      -0.45080217      -0.30440309      -1.11903083
H        0.84228368       4.09824832      -0.37414242      -0.09747009       0.20809417      -0.17242703
H       -2.11066927       1.40643766       1.05884044      -0.73812013      -0.35128267       0.02117169
H       -0.90175785       1.95186147       2.20481597       0.16192680      -0.15162909      -0.81631290
H        1.54121075       1.19914015       1.84022830      -0.09585971       0.42406420       0.63256997
H        1.97531770       0.06661179       0.63506472      -0.26866692       0.18681009      -0.21849034
H       -0.43959190       0.93916126      -2.73621381      -0.01136243      -0.03415431       0.39421495
