46
Properties=species:S:1:pos:R:3:forces:R:3 id=49025 bond=N-O smiles="[H:36][C:12]1([C:17]2([C:13]([C:20]3([C:16]([C:19]1([C:14]([C:18]([C:9]2([H:30])[H:31])([C:15]3([H:42])[H:43])[N:4]([H:21])[H:22])([H:40])[H:41])[C:10]([H:32])([H:33])[C:6]([H:23])([H:24])[H:25])([H:44])[H:45])[C:11]([H:34])([H:35])[C:8]([H:28])([H:29])[C:7]([H:26])([H:27])[O:3][N+:5](=[O:1])[O-:2])([H:38])[H:39])[H:46])[H:37]" dataset=PubChem energy=-25109.706010993777 pbc="F F F"
O        0.13271604      -6.11411328       2.76141259       0.02375780       0.54736453       0.98705321
O        1.35636128      -5.00545783       4.23695633      -0.79642424      -1.23372179       1.25700869
O        0.94491336      -4.33292389       2.48609919       4.50031102      28.70577708     -24.86632009
N       -1.78611686       3.73751926       0.74334919       0.07102248      -0.67396420       0.02642954
N        0.77103809      -5.09433360       3.13768050      -3.54134555     -29.46881459      23.30671294
C        4.04303787       1.32982027      -0.24407344       0.90273590       0.42474995       0.30403156
C       -0.04661002      -3.27844143       2.64181573      -1.56037737       3.10909462      -0.47793198
C        0.20337794      -2.17905116       1.60549946       0.68350228      -0.08650873       0.35303850
C       -1.14096501       2.21058320      -1.15604167      -0.99756340      -0.12945241       0.95262576
C        3.00700948       2.37590933       0.14469916      -0.25725483      -0.57190933       0.69025697
C       -0.57779183      -0.84867382       1.84236069       1.69231842      -0.62218179       0.17998319
C        1.21328292       1.44024705      -1.46182959      -0.23299429      -0.36157876       0.39863904
C       -0.50397840      -0.13190550      -0.61538439       0.35355100       0.22593665       0.04930099
C        0.60189364       3.07687115       0.39737476       0.64738063      -0.67694987       0.68257206
C       -1.11167147       1.49107182       1.28272510       0.81949249      -0.03162415      -0.78468877
C        1.26545022       0.74947145       0.97425664      -0.49804011      -0.82639412      -1.16490311
C       -0.25992301       1.05188119      -1.55143659       0.59135740      -0.07740496      -0.28017376
C       -0.87025585       2.64330625       0.30000658      -0.01070842       1.19156783       0.96060849
C        1.54310653       1.90470349      -0.01499885       0.30363743       0.20278165       0.39778811
C       -0.22275414       0.29332676       0.85538630      -0.07366123      -0.30832331       0.78013359
H       -1.57554295       3.99806451       1.71095569      -0.03084548      -0.10860752      -0.59826124
H       -1.73765351       4.56643390       0.17259420       0.21866885       0.05520110      -0.12650451
H        4.06196806       0.46328745       0.42614961       0.04783893       0.36088910       0.04224720
H        3.88211629       0.92935645      -1.22559731      -0.06698532      -0.03127104      -0.60729448
H        5.04053161       1.82253598      -0.23784178      -0.52785781      -0.58448196       0.04179410
H       -1.04629185      -3.68785238       2.49934382       0.28143226      -0.60653427      -0.12265414
H       -0.01426246      -2.91408372       3.67963535       0.57018012      -0.27911338      -0.34480182
H        1.28631715      -1.99624920       1.62428029      -0.29274315       0.16081555      -0.00850529
H       -0.00456014      -2.61815572       0.63432434      -0.15010762       0.16143806      -0.13559424
H       -2.17748668       1.85709536      -1.25141733       0.07392004       0.45677765       0.09497890
H       -0.99982240       3.07710122      -1.78701132       0.02680113       0.15083243      -0.33843325
H        3.19646237       2.61367797       1.21869267      -0.33602508       0.08725611      -0.70348791
H        3.15836379       3.28853583      -0.42652504       0.00795312       0.07126472      -0.08340440
H       -0.35727074      -0.50681693       2.87464936      -0.20731172      -0.12610488      -0.51291346
H       -1.62143734      -1.04978872       1.76312203      -0.87874811      -0.07214303       0.03426020
H        1.39507232       2.22039878      -2.19038098       0.32722489       0.29846219      -0.03471639
H        1.75906525       0.53618218      -1.77494781       0.25528707       0.50203979       0.31356137
H       -1.51760342      -0.47891474      -0.79611247      -0.23880276      -0.13006467       0.46708501
H        0.16918978      -0.95963431      -0.89556615      -0.21243613       0.31745603       0.14788920
H        0.87421758       3.37457894       1.45848686      -0.45080092      -0.30344726      -1.12042674
H        0.80502469       3.93508910      -0.23451786      -0.09766811       0.20354668      -0.17021164
H       -2.14792826       1.24327844       1.19846500      -0.73944100      -0.34947308       0.02070615
H       -0.93901684       1.78870225       2.34444053       0.16148733      -0.15077751      -0.81686211
H        1.50395176       1.03598093       1.97985286      -0.09486839       0.42477866       0.63168728
H        1.93805871      -0.09654743       0.77468928      -0.25864541       0.18555379      -0.22304337
H       -0.47685089       0.77600204      -2.59658925      -0.01162474      -0.03659182       0.39959337
