31
Properties=species:S:1:pos:R:3:forces:R:3 id=48591 bond=C-C smiles="[H:13][C:1](=[C:2]1[C:10]2([C:7]([C:8]([C:12]([C:9]2([H:29])[H:30])([C:11]1([C:4]([H:17])([H:18])[H:19])[C:5]([H:20])([H:21])[H:22])[C:6]([H:23])([H:24])[N:3]([H:15])[H:16])([H:27])[H:28])([H:25])[H:26])[H:31])[H:14]" dataset=PubChem energy=-13213.467664059692 pbc="F F F"
C       -1.45791752       0.97384330       2.63783756       4.47141120      -0.87613822      -3.96046703
C       -0.31011183       0.76446091       1.74036983      -5.08780419       0.24026594       6.02264266
N        2.94210475      -0.25123624      -1.29476997       3.97480908       0.16078413       0.31567377
C       -1.35059232       0.71628351      -0.47586294      -0.23091518       0.16436570      -0.95349583
C       -0.64454879      -1.56474439       0.50030281      -0.32806828       1.78053416      -0.03164094
C        1.54857402      -0.21845941      -1.18438490       0.84709547      -0.79621845       1.96523875
C        1.15693300       2.57978030       1.52737907       0.45966932       1.97831250      -2.19449569
C        1.35059827       2.11143728       0.04488532      -1.85254044       0.35215931      -1.33663569
C        1.95350092       0.37589567       1.35846350       0.60079328      -3.53113755      -0.28789557
C        1.10312002       1.28811767       2.16653613      -2.67531392      -1.99359107       2.15798240
C       -0.30559487       0.08077892       0.43835546      -0.26050014      -0.85699960      -0.58051813
C        1.15244942       0.54803593       0.06326372      -0.42708148      -0.49799558      -0.62208424
H       -2.46183187       0.57600119       2.43320529       0.63990564       0.42623158       0.12703728
H       -1.21796257       1.63678415       3.45114771      -0.49081329      -0.16567696       0.45643895
H        3.37590092      -0.70609800      -0.43568995      -0.68602509       1.11179659      -1.71460691
H        3.27087610       0.72140264      -1.37240251       0.35448454      -0.87612845       0.24833277
H       -1.35988767       1.77491804      -0.26681443      -0.55239693       0.24648502       0.14828679
H       -1.14975626       0.67048264      -1.55323203       0.51184686      -0.38291885       0.18175507
H       -2.35268098       0.27694555      -0.41943463       0.20448220       0.22360349       0.60251420
H        0.21586325      -2.10991613       0.87893228      -0.27857587      -0.06365382       0.41600303
H       -1.60188545      -1.70536557       1.08288277       1.41917750       0.30109201      -0.07824318
H       -0.90968407      -2.02411738      -0.46569216       0.44332558       0.70288037      -0.02286780
H        1.19488132       0.19006588      -2.07958802      -1.12786638       0.55075960      -1.17741932
H        1.35693919      -1.28986100      -1.12521025      -1.22870047       0.21098336       0.10581926
H        0.23672196       3.13329550       1.67338303      -0.09580662       0.05473489      -0.08690915
H        1.94898217       3.24744483       1.83224431       0.50712700      -0.03811216       0.14972785
H        2.34950619       2.38872178      -0.31745806      -0.38779446      -0.28503118      -0.03294822
H        0.57295572       2.53338988      -0.62183567       0.74775337       0.20389576       0.22397310
H        2.97915976       0.66119961       1.23913268       0.48719679       0.54811169      -0.01370101
H        2.01993471      -0.73324255       1.62893156      -0.45232224       1.45201579       0.25030534
H        1.12209701       1.33191128       3.26037375       0.49404072      -0.34540815      -0.27663630
