31
Properties=species:S:1:pos:R:3:forces:R:3 id=48591 bond=C-C smiles="[H:13][C:1](=[C:2]1[C:10]2([C:7]([C:8]([C:12]([C:9]2([H:29])[H:30])([C:11]1([C:4]([H:17])([H:18])[H:19])[C:5]([H:20])([H:21])[H:22])[C:6]([H:23])([H:24])[N:3]([H:15])[H:16])([H:27])[H:28])([H:25])[H:26])[H:31])[H:14]" dataset=PubChem energy=-13213.702834723119 pbc="F F F"
C       -1.46952553       0.91748976       2.63995904       4.48569064      -0.89084956      -3.97094189
C       -0.32171984       0.70810737       1.74249131      -5.04569332       0.44256817       6.09067400
N        2.93049674      -0.30758978      -1.29264849       3.97503602       0.15509829       0.31745835
C       -1.36220033       0.65992997      -0.47374146      -0.22741445       0.43689151      -0.97291853
C       -0.63294078      -1.50839085       0.49818133      -0.53184512       0.30713591       0.04794409
C        1.53696601      -0.27481295      -1.18226342       0.84479714      -0.78609606       1.97085943
C        1.14532499       2.52342676       1.52950055       0.46042668       1.97829816      -2.19503224
C        1.33899026       2.05508374       0.04700680      -1.83552291       0.33530244      -1.34573881
C        1.94189291       0.31954213       1.36058498       0.59499194      -3.53208131      -0.28980166
C        1.09151201       1.23176413       2.16865761      -2.68619771      -1.98075356       2.16502819
C       -0.31720288       0.02442538       0.44047694      -0.07682721       0.46399150      -0.70498917
C        1.14084141       0.49168239       0.06538520      -0.39067720      -0.36458432      -0.64705553
H       -2.47343988       0.51964765       2.43532677       0.63417954       0.43248786       0.12626050
H       -1.22957058       1.58043061       3.45326919      -0.48822378      -0.17359218       0.45819433
H        3.36429291      -0.76245154      -0.43356847      -0.68518248       1.11185070      -1.71530985
H        3.25926809       0.66504910      -1.37028103       0.35221083      -0.87640756       0.25003798
H       -1.37149568       1.71856450      -0.26469295      -0.57595984       0.25358095       0.12356594
H       -1.16136427       0.61412910      -1.55111055       0.51926528      -0.38611239       0.18018678
H       -2.36428899       0.22059201      -0.41731315       0.20706401       0.21083629       0.61242126
H        0.22747126      -2.05356259       0.87681080      -0.32445607      -0.22659167       0.43692402
H       -1.59027744      -1.64901203       1.08076129       1.39589622       0.14447957      -0.09145048
H       -0.89807606      -1.96776384      -0.46781364       0.42910425       0.59053428       0.01484557
H        1.18327331       0.13371234      -2.07746654      -1.12817746       0.55062886      -1.17673401
H        1.34533118      -1.34621454      -1.12308877      -1.21519528       0.21057347       0.09407412
H        0.22511395       3.07694196       1.67550451      -0.09504924       0.05428030      -0.08700049
H        1.93737416       3.19109129       1.83436579       0.50797597      -0.03744144       0.14996777
H        2.33789818       2.33236824      -0.31533658      -0.38781889      -0.27813177      -0.03163298
H        0.56134771       2.47703634      -0.61971419       0.74714933       0.20197626       0.22420930
H        2.96755175       0.60484607       1.24125416       0.48534928       0.54223683      -0.01503413
H        2.00832670      -0.78959609       1.63105304      -0.43902978       1.45595438       0.25855101
H        1.11048900       1.27555774       3.26249523       0.49466664      -0.34513925      -0.27678958
