31
Properties=species:S:1:pos:R:3:forces:R:3 id=48591 bond=C-C smiles="[H:13][C:1](=[C:2]1[C:10]2([C:7]([C:8]([C:12]([C:9]2([H:29])[H:30])([C:11]1([C:4]([H:17])([H:18])[H:19])[C:5]([H:20])([H:21])[H:22])[C:6]([H:23])([H:24])[N:3]([H:15])[H:16])([H:27])[H:28])([H:25])[H:26])[H:31])[H:14]" dataset=PubChem energy=-13213.63581562846 pbc="F F F"
C       -1.46488233       0.94003118       2.63911045       4.48037361      -0.88475946      -3.96659805
C       -0.31707664       0.73064879       1.74164272      -5.06516655       0.35716968       6.06292841
N        2.93513994      -0.28504836      -1.29349708       3.97508713       0.15725258       0.31654142
C       -1.35755713       0.68247139      -0.47459005      -0.22750982       0.32258712      -0.96375763
C       -0.63758398      -1.53093227       0.49902992      -0.42429539       1.03169305       0.01168494
C        1.54160921      -0.25227153      -1.18311201       0.84553543      -0.79010438       1.96877909
C        1.14996819       2.54596818       1.52865196       0.46021305       1.97849488      -2.19464864
C        1.34363346       2.07762516       0.04615821      -1.84255344       0.34191365      -1.34227501
C        1.94653611       0.34208355       1.35973639       0.59743138      -3.53180098      -0.28904650
C        1.09615521       1.25430555       2.16780902      -2.68199996      -1.98598960       2.16194309
C       -0.31255968       0.04696680       0.43962835      -0.17442172      -0.19932977      -0.65120292
C        1.14548461       0.51422381       0.06453661      -0.40710695      -0.42054279      -0.63611247
H       -2.46879668       0.54218907       2.43447818       0.63654595       0.43013517       0.12644418
H       -1.22492738       1.60297203       3.45242060      -0.48934998      -0.17041412       0.45762291
H        3.36893611      -0.73991012      -0.43441706      -0.68554709       1.11189887      -1.71501304
H        3.26391129       0.68759052      -1.37112962       0.35306706      -0.87634311       0.24935389
H       -1.36685248       1.74110592      -0.26554154      -0.56639139       0.25030634       0.13362795
H       -1.15672107       0.63667052      -1.55195914       0.51590462      -0.38457796       0.18065642
H       -2.35964579       0.24313343      -0.41816174       0.20575851       0.21608233       0.60819621
H        0.22282806      -2.07610401       0.87765939      -0.30648418      -0.15781861       0.42739343
H       -1.59492064      -1.67155345       1.08160988       1.40706826       0.21121209      -0.08596702
H       -0.90271926      -1.99030526      -0.46696505       0.43512403       0.63972337      -0.00032064
H        1.18791651       0.15625376      -2.07831513      -1.12805298       0.55060056      -1.17696506
H        1.34997438      -1.32367312      -1.12393736      -1.22058383       0.21075050       0.09873847
H        0.22975715       3.09948338       1.67465592      -0.09528185       0.05441035      -0.08696076
H        1.94201736       3.21363271       1.83351720       0.50762932      -0.03770613       0.14987152
H        2.34254138       2.35490966      -0.31618517      -0.38791055      -0.28092959      -0.03214745
H        0.56599091       2.49957776      -0.62056278       0.74742291       0.20278634       0.22413793
H        2.97219495       0.62738749       1.24040557       0.48611472       0.54461019      -0.01437819
H        2.01296990      -0.76705467       1.63020445      -0.44456895       1.45427116       0.25514665
H        1.11513220       1.29809916       3.26164664       0.49437177      -0.34523717      -0.27676487
