10
Properties=species:S:1:pos:R:3:forces:R:3 id=9715 bond=N-N smiles="[H:5][N:1]([H:6])[N:3]([H:9])[N:4]([H:10])[N:2]([H:7])[H:8]" dataset=PubChem energy=-6055.757708590556 pbc="F F F"
N        1.52280534       1.44075243      -0.29544835      17.61388699      -5.05003575     -14.50553228
N        0.16206620      -0.75000959       1.11550543       1.99833492       0.90377710      -0.45448862
N        0.73169962       1.58597261       0.48220784     -16.23672905       3.29031315      14.45226662
N       -0.26813223       0.54254240       0.54700018      -2.03525938       0.43105791       2.22304598
H        1.17180241       1.34055613      -1.24935864       0.67204523       0.21026942       0.04100497
H        2.12477982       0.57251182      -0.01140516      -0.19588786       1.03577833      -1.97968977
H        0.54368522      -0.50602656       2.04665569      -0.82083715      -0.41169875      -0.70888508
H       -0.65630110      -1.31122893       1.21430710      -0.52953173      -0.12053461       0.37675041
H        1.13334582       1.87669784       1.38526836      -1.50779261      -0.38851411      -0.07185971
H       -0.75827547       0.42369483      -0.35159632       1.04142791       0.09997031       0.62741759
