10
Properties=species:S:1:pos:R:3:forces:R:3 id=9715 bond=N-N smiles="[H:5][N:1]([H:6])[N:3]([H:9])[N:4]([H:10])[N:2]([H:7])[H:8]" dataset=PubChem energy=-6054.450974973634 pbc="F F F"
N        2.09331427       1.33602634      -0.85625811       1.36336638      -0.75178655       2.14474107
N       -0.40844273      -0.64528350       1.67631519       0.63028326       1.96828783      -0.22740687
N        0.16119069       1.69069870       1.04301760      -3.59129376      -2.40482914      -2.19521285
N       -0.83864116       0.64726849       1.10780994       3.91673339       2.12323953       0.92832337
H        1.74231134       1.23583004      -1.81016840      -0.36945613      -0.68627129       0.35050195
H        2.69528875       0.46778573      -0.57221492      -1.85005340       1.72703114      -0.95977662
H       -0.02682371      -0.40130047       2.60746545      -0.49861199      -0.39296149      -0.77492471
H       -1.22681003      -1.20650284       1.77511686      -0.67558201      -0.31982481       0.31496409
H        0.56283689       1.98142393       1.94607812       0.16774519      -1.38024128      -0.17142559
H       -1.32878440       0.52842092       0.20921344       0.90656878       0.11715248       0.59055636
