10
Properties=species:S:1:pos:R:3:forces:R:3 id=9715 bond=N-N smiles="[H:5][N:1]([H:6])[N:3]([H:9])[N:4]([H:10])[N:2]([H:7])[H:8]" dataset=PubChem energy=-6058.407759645448 pbc="F F F"
N        1.62930034       1.42120356      -0.40013284       2.40364164      -1.99595602       1.72053905
N        0.05557120      -0.73046072       1.22018992       1.92279971       1.01328198      -0.49675805
N        0.62520462       1.60552148       0.58689233      -1.39103150      -1.15953106      -1.71849129
N       -0.37462723       0.56209127       0.65168467      -0.30395777       1.31879019       1.45239094
H        1.27829741       1.32100726      -1.35404313      -0.25515746       0.03725483       0.82771033
H        2.23127482       0.55296295      -0.11608965      -1.52532315       1.90976779      -1.25356110
H        0.43719022      -0.48647769       2.15134018      -0.78345007      -0.38695780      -0.74220933
H       -0.76279610      -1.29168006       1.31899159      -0.59051050      -0.13109887       0.36587101
H        1.02685082       1.89624671       1.48995285      -0.53988070      -0.70268301      -0.83965175
H       -0.86477047       0.44324370      -0.24691183       1.06260066       0.09754051       0.68415479
