26
Properties=species:S:1:pos:R:3:forces:R:3 id=49766 bond=C-S smiles="[H:17][c:6]1[c:7]([c:10]([c:11]([c:8]([c:9]1[S:3][C:12]([H:18])([H:19])[H:20])[O:2][H:16])[S:5][C:14]([H:24])([H:25])[H:26])[S:4][C:13]([H:21])([H:22])[H:23])[O:1][H:15]" dataset=PubChem energy=-46140.44701311747 pbc="F F F"
O        2.92398662      -0.09081356       2.78249011      -0.29469947       0.20103877       0.06207639
O       -0.37303847       2.44202377      -0.91757598       0.49747386      -0.93757492      -0.09480865
S       -0.44629990       3.72940995       1.77209351      -0.06280548      -0.51089979       0.36398090
S        2.83792705      -1.59012864       0.07236944      10.34221186      11.35717890      -9.59440696
S        0.87389637      -0.00448547      -1.96702709      -0.33162235      -0.27398501      -1.02465991
C        1.36992378       1.63254084       2.20026264       0.47182697      -0.78868799       0.08670911
C        2.10094685       0.45236047       1.85223994      -1.07143584       1.16981113      -1.24126173
C        0.40905720       1.78615870       0.00983713      -0.08840709      -0.40008215      -0.64574378
C        0.49707106       2.28319146       1.30847529       0.63028131      -0.34060050       0.22362424
C        1.96155769      -0.09906999       0.53219247      -0.02254620       1.86813478       1.05386308
C        1.09948141       0.59749531      -0.34222641       0.11200575       0.15497150       0.40184408
C       -2.07242232       2.91351392       1.86163936       0.00582807      -0.71690173      -0.41304235
C        1.99682114      -2.47557471       0.86049653      -8.90759359     -10.68333952       7.64964493
C       -0.79089396      -0.72620580      -1.76320162      -0.24130443       0.39271167      -0.12601262
H        3.43113226      -0.75736497       2.32137630       0.58508557      -0.30234796      -0.12587171
H       -0.24520253       1.96827544      -1.78009643       0.02492670       0.48901149       0.88356373
H        1.53073890       2.03858389       3.21177087      -0.22831575      -0.26518039      -0.65005024
H       -2.37317281       2.58376576       0.86757676      -0.01848127       0.26509762      -0.00122252
H       -2.82415538       3.55623295       2.27980730      -0.09517917       0.65630582      -0.01497507
H       -2.08636909       2.02534392       2.48678312       0.47707574      -0.00110217       0.18448393
H        2.26294455      -3.54698846       0.70595611      -0.24128973       0.64319594       0.52249618
H        2.06826530      -2.15433667       1.85893232      -0.60235804      -0.93346915       1.98065382
H        0.98422489      -2.33101079       0.55660393      -1.27422804      -0.75744497       0.16631794
H       -1.20972412      -1.06681512      -2.72263422       0.39904928       0.26166832       0.32521543
H       -0.73394518      -1.55856548      -1.08301487      -0.02298269      -0.28543499       0.16493068
H       -1.43284183       0.04700860      -1.33371355      -0.04889315      -0.26527610      -0.13455545
