26
Properties=species:S:1:pos:R:3:forces:R:3 id=49766 bond=C-S smiles="[H:17][c:6]1[c:7]([c:10]([c:11]([c:8]([c:9]1[S:3][C:12]([H:18])([H:19])[H:20])[O:2][H:16])[S:5][C:14]([H:24])([H:25])[H:26])[S:4][C:13]([H:21])([H:22])[H:23])[O:1][H:15]" dataset=PubChem energy=-46142.56187159173 pbc="F F F"
O        3.11442569       0.10966480       2.60404624      -0.38146576       0.33892152       0.01901778
O       -0.18259940       2.64250213      -1.09601985       0.48884164      -0.92741211      -0.09938897
S       -0.25586083       3.92988831       1.59364964      -0.06258946      -0.51502377       0.36673337
S        3.02836612      -1.38965028      -0.10607443      -2.02603788      -1.35596840       2.02066840
S        1.06433544       0.19599289      -2.14547096      -0.35289302      -0.24038495      -1.00699994
C        1.56036285       1.83301920       2.02181877       0.48488486      -0.73390360       0.06930244
C        2.29138592       0.65283883       1.67379607      -0.91243905       1.08433251      -1.10821909
C        0.59949627       1.98663706      -0.16860674      -0.02369314      -0.42749430      -0.68296631
C        0.68751013       2.48366982       1.13003142       0.63214493      -0.34296536       0.24971629
C        2.15199676       0.10140837       0.35374860      -0.34470962       0.99974584       1.36552788
C        1.28992048       0.79797367      -0.52067028       0.02750752       0.18129682       0.32950387
C       -1.88198325       3.11399228       1.68319549       0.00335400      -0.71618180      -0.41630056
C        1.80638207      -2.67605307       1.03894040       1.46295461       0.18616324      -2.15375103
C       -0.60045489      -0.52572744      -1.94164549      -0.22048343       0.38086557      -0.12442485
H        3.62157133      -0.55688661       2.14293243       0.40130151      -0.49040691      -0.16240280
H       -0.05476346       2.16875380      -1.95854030       0.02709003       0.48445690       0.88316045
H        1.72117797       2.23906225       3.03332700      -0.23445913      -0.27144491      -0.65105013
H       -2.18273374       2.78424412       0.68913289      -0.01820476       0.26482941      -0.00149574
H       -2.63371631       3.75671131       2.10136343      -0.09540831       0.65655184      -0.01464359
H       -1.89593002       2.22582228       2.30833925       0.47756336      -0.00123650       0.18490285
H        2.07250548      -3.74746682       0.88439998       0.22753444       1.11655974       0.05650523
H        1.87782623      -2.35481503       2.03737619       0.52075530       0.29372241       1.14010668
H        0.79378582      -2.53148915       0.73504780      -0.45555897       0.31952317      -0.62435084
H       -1.01928505      -0.86633676      -2.90107809       0.40095977       0.26373399       0.32400745
H       -0.54350611      -1.35808712      -1.26145874       0.00823370      -0.29155104       0.17458589
H       -1.24240276       0.24748696      -1.51215742      -0.04139592      -0.26007989      -0.13711698
