26
Properties=species:S:1:pos:R:3:forces:R:3 id=49766 bond=C-S smiles="[H:17][c:6]1[c:7]([c:10]([c:11]([c:8]([c:9]1[S:3][C:12]([H:18])([H:19])[H:20])[O:2][H:16])[S:5][C:14]([H:24])([H:25])[H:26])[S:4][C:13]([H:21])([H:22])[H:23])[O:1][H:15]" dataset=PubChem energy=-46141.090049777085 pbc="F F F"
O        3.24138507       0.24331704       2.48508366      -0.45483288       0.41250002      -0.03890893
O       -0.05564002       2.77615437      -1.21498243       0.48714377      -0.91678471      -0.08832961
S       -0.12890145       4.06354055       1.47468706      -0.05724264      -0.51645323       0.36943428
S        3.15532550      -1.25599804      -0.22503701      -2.28526952      -1.16114733       2.22626105
S        1.19129482       0.32964513      -2.26443354      -0.34723531      -0.23871089      -0.99320501
C        1.68732223       1.96667144       1.90285619       0.48475818      -0.71807355       0.08263831
C        2.41834530       0.78649107       1.55483349      -0.81729002       1.08919817      -0.96013255
C        0.72645565       2.12028930      -0.28756932      -0.00281828      -0.49470573      -0.75205811
C        0.81446951       2.61732206       1.01106884       0.63554441      -0.33522471       0.29256938
C        2.27895614       0.23506061       0.23478602      -0.15664714       0.62562592       1.26777010
C        1.41687986       0.93162591      -0.63963286      -0.08972097       0.26492577       0.28372853
C       -1.75502387       3.24764452       1.56423291       0.00091099      -0.71930422      -0.42069356
C        1.67942269      -2.80970531       1.15790298       1.03831560      -0.36311618      -1.76042472
C       -0.47349551      -0.39207520      -2.06060807      -0.22260736       0.38018651      -0.11986837
H        3.74853071      -0.42323437       2.02396985       0.35651492      -0.55354264      -0.17247071
H        0.07219592       2.30240604      -2.07750288       0.02960338       0.47849298       0.88124458
H        1.84813735       2.37271449       2.91436442      -0.23614008      -0.27163147      -0.65165914
H       -2.05577436       2.91789636       0.57017031      -0.01808241       0.26468257      -0.00150387
H       -2.50675693       3.89036355       1.98240085      -0.09441078       0.65747789      -0.01437322
H       -1.76897064       2.35947452       2.18937667       0.47796702      -0.00104077       0.18513175
H        1.94554610      -3.88111906       1.00336256       0.40831373       1.20351482      -0.11130006
H        1.75086685      -2.48846727       2.15633877       0.82512263       0.62104842       1.01306844
H        0.66682644      -2.66514139       0.85401038      -0.35165940       0.57208101      -0.87653702
H       -0.89232567      -0.73268452      -3.02004067       0.40189568       0.26554556       0.32243774
H       -0.41654673      -1.22443488      -1.38042132       0.02344479      -0.29349486       0.17921290
H       -1.11544338       0.38113920      -1.63112000      -0.04189368      -0.25685470      -0.13934863
