8
Properties=species:S:1:pos:R:3:forces:R:3 id=20476 bond=C-C smiles="[H:7][C:5]([H:8])([C:6]([F:2])([F:3])[F:4])[F:1]" dataset="DES370K Monomers" energy=-12982.251677771237 pbc="F F F"
F       -1.24871899      -0.72418022       0.81589331      -0.02368093       0.38659146      -0.20606734
F        1.82097448       0.21669456      -0.79614612      -1.24186639       0.30112085       0.69193541
F       -0.14990531       1.23998582      -0.74770637       0.49687575      -0.04320125      -0.07567953
F        0.98927010       1.01158654       1.09299157       0.36083734       0.54087624      -0.31039646
C       -0.01088960      -0.89025485       0.25545942       0.83645509      -1.25774059       0.00307908
C        0.67008991       0.42858964      -0.07213201       0.05734333      -0.42005004       0.58792256
H        0.59728997      -1.47365510       0.99287154      -0.25234929       0.64053339      -0.81003830
H       -0.08142350      -1.43657219      -0.68565456      -0.23890360      -0.14667226       0.12131475
