8
Properties=species:S:1:pos:R:3:forces:R:3 id=20476 bond=C-C smiles="[H:7][C:5]([H:8])([C:6]([F:2])([F:3])[F:4])[F:1]" dataset="DES370K Monomers" energy=-12981.762273914575 pbc="F F F"
F       -1.21260644      -0.65424149       0.79852103      -0.25684611       0.23432948      -0.04653378
F        1.78486193       0.14675583      -0.77877384      -0.95756617       0.41412514       0.57474131
F       -0.18601786       1.17004709      -0.73033409       0.46276910       0.36479868      -0.30422564
F        0.95315755       0.94164781       1.11036385       0.59197024       1.06346090      -0.04515078
C        0.02522295      -0.82031612       0.23808714      -1.86548263      -6.89227524       1.12708223
C        0.63397736       0.35865091      -0.05475973       2.66977936       4.72448769      -0.59686815
H        0.63340252      -1.40371637       0.97549926      -0.32696360       0.44995330      -0.85570917
H       -0.04531095      -1.36663346      -0.70302684      -0.32956989      -0.36311173       0.15742562
