8
Properties=species:S:1:pos:R:3:forces:R:3 id=20476 bond=C-C smiles="[H:7][C:5]([H:8])([C:6]([F:2])([F:3])[F:4])[F:1]" dataset="DES370K Monomers" energy=-12981.651243027023 pbc="F F F"
F       -1.30546728      -0.83408392       0.84319259       0.30405101       0.48503812      -0.36995154
F        1.87772277       0.32659826      -0.82344540      -1.48682939       0.22345417       0.82540544
F       -0.09315702       1.34988952      -0.77500565       0.54005116      -0.41141761       0.11073290
F        1.04601839       1.12149024       1.06569229       0.12351842       0.04214950      -0.56697972
C       -0.06763789      -1.00015855       0.28275870       1.91717611       1.54389571      -0.32582892
C        0.72683820       0.53849334      -0.09943129      -1.10160872      -2.92079680       1.03528247
H        0.54054168      -1.58355880       1.02017082      -0.16021667       0.87507286      -0.75246255
H       -0.13817179      -1.54647589      -0.65835528      -0.13992383       0.16343697       0.05359206
