23
Properties=species:S:1:pos:R:3:forces:R:3 id=18241 bond=C-S smiles="[H:13][c:3]1[c:4]([c:6]([c:8]([c:7]([c:5]1[H:15])[H:17])[C:11]([H:23])([C:10]([H:21])([H:22])[O:1][H:12])[S:2][C:9]([H:18])([H:19])[H:20])[H:16])[H:14]" dataset=PubChem energy=-22420.319021205312 pbc="F F F"
O        1.30818023      -2.73818605      -1.05041017      -0.65182287       0.05926389      -0.41864935
S       -0.38300827      -0.21256455      -1.55223685      -2.56226415       0.38075120      -1.65921976
C        0.59954946       2.28582032       2.90667330       0.15891009      -1.17125166      -1.55623399
C        1.54064156       2.52554090       1.88842295      -1.17466661      -1.35474367      -0.57975626
C       -0.22420274       1.14887608       2.80748926       0.06394073      -0.03514885       0.18345853
C        1.59623612       1.63363463       0.76574121      -0.07774143       1.12050979       1.68851110
C       -0.14173632       0.24246077       1.75660763       0.33262875       0.92569683       0.03652645
C        0.76481040       0.51261245       0.72319095       0.81199752      -0.14495543       0.23072444
C       -0.70615932       1.59358165      -1.45851761       1.05256231       0.60424598       0.78812665
C        1.06816061      -1.85529702       0.04462089      -0.92707277      -0.69707801      -0.41382904
C        0.91713066      -0.43303834      -0.43596109       1.96339549       0.96687364       1.15563582
H        0.52661111      -2.68989103      -1.65049948       1.00917884      -0.09217344       0.77263806
H        0.45213490       2.92819101       3.73671947       0.17698845       0.57464586       0.52168245
H        2.16952051       3.39089687       1.91596220       0.24986987       0.25764947       0.02100315
H       -0.94679640       0.93275283       3.58645950       0.08502241       0.19694499       0.02538488
H        2.30428148       1.88675041      -0.03267630      -0.39862264      -0.44575599       0.29024666
H       -0.80709933      -0.61736863       1.73872576       0.24920036       0.22590951      -0.11515222
H        0.23619195       2.12929544      -1.69398052      -0.59768830      -0.30956745      -0.09010394
H       -0.96263596       1.92878005      -0.42976868      -0.07127936      -0.50558417      -0.73787328
H       -1.47791573       1.92937991      -2.15062266       0.08424049      -0.52548223      -0.02656867
H        1.88335098      -1.92938774       0.77009760      -0.03248636      -0.03875746      -0.38969149
H        0.13806818      -2.16136687       0.54161528       0.22557201       0.03497753       0.08914999
H        1.84237160      -0.18012129      -0.96302130       0.03175373      -0.02271596       0.18514332
