23
Properties=species:S:1:pos:R:3:forces:R:3 id=18241 bond=C-S smiles="[H:13][c:3]1[c:4]([c:6]([c:8]([c:7]([c:5]1[H:15])[H:17])[C:11]([H:23])([C:10]([H:21])([H:22])[O:1][H:12])[S:2][C:9]([H:18])([H:19])[H:20])[H:16])[H:14]" dataset=PubChem energy=-22416.49290556397 pbc="F F F"
O        1.18435748      -2.71718855      -1.15672215      -0.66334182       0.14732739      -0.35535816
S       -0.25918552      -0.23356205      -1.44592487     -19.39036281       3.25525365     -15.50447699
C        0.47572671       2.30681782       2.80036132       0.11296900      -1.16723277      -1.53261350
C        1.41681881       2.54653840       1.78211097      -1.19218137      -1.39554629      -0.65160294
C       -0.34802549       1.16987358       2.70117728       0.06468802       0.02112937       0.15287587
C        1.47241337       1.65463213       0.65942923       0.14624057       0.99177979       1.91007284
C       -0.26555907       0.26345827       1.65029565       0.42913281       0.83440392      -0.02530237
C        0.64098765       0.53360995       0.61687897       1.73686375      -0.29183125       1.73170442
C       -0.58233657       1.57258415      -1.35220563       0.36490253       0.79551895      -0.03348416
C        0.94433786      -1.83429952      -0.06169109      -0.16828822      -1.19027251       0.11114859
C        0.79330791      -0.41204084      -0.54227307      16.65039729      -1.41937796      13.45579573
H        0.40278836      -2.66889353      -1.75681146       0.96525237      -0.11066776       0.74140609
H        0.32831215       2.94918851       3.63040749       0.17817711       0.57203282       0.52230877
H        2.04569776       3.41189437       1.80965022       0.24710831       0.25660477       0.01237700
H       -1.07061915       0.95375033       3.48014752       0.09068336       0.18932512       0.02427468
H        2.18045873       1.90774791      -0.13898828      -0.38833634      -0.45837079       0.32655149
H       -0.93092208      -0.59637113       1.63241378       0.24979415       0.22190917      -0.11990361
H        0.36001470       2.10829794      -1.58766854      -0.60338288      -0.29927265      -0.13491981
H       -0.83881321       1.90778255      -0.32345670      -0.16715443      -0.46554048      -0.95728662
H       -1.35409298       1.90838241      -2.04431068       0.08400721      -0.45691953      -0.08144137
H        1.75952823      -1.90839024       0.66378562      -0.02296803      -0.08465349      -0.42135847
H        0.01424543      -2.14036937       0.43530330       0.16654412       0.13762954       0.03042000
H        1.71854885      -0.15912379      -1.06933328       1.11864915      -0.08138383       0.80537438
