23
Properties=species:S:1:pos:R:3:forces:R:3 id=18241 bond=C-S smiles="[H:13][c:3]1[c:4]([c:6]([c:8]([c:7]([c:5]1[H:15])[H:17])[C:11]([H:23])([C:10]([H:21])([H:22])[O:1][H:12])[S:2][C:9]([H:18])([H:19])[H:20])[H:16])[H:14]" dataset=PubChem energy=-22420.122065525382 pbc="F F F"
O        1.28754311      -2.73468647      -1.06812883      -0.65410376       0.06810470      -0.41563199
S       -0.36237115      -0.21606413      -1.53451819      -3.96759161       0.61460216      -2.80279468
C        0.57891234       2.28931990       2.88895464       0.15341543      -1.17051912      -1.55310897
C        1.52000444       2.52904048       1.87070429      -1.17724178      -1.35600746      -0.58729314
C       -0.24483986       1.15237566       2.78977060       0.06257101      -0.02608722       0.18281471
C        1.57559900       1.63713421       0.74802255      -0.05943490       1.10475301       1.71516817
C       -0.16237344       0.24596035       1.73888897       0.34479503       0.91723398       0.02644580
C        0.74417328       0.51611203       0.70547229       0.93922149      -0.15614117       0.42098711
C       -0.68552220       1.59008207      -1.44079895       0.97471158       0.61981392       0.69820283
C        1.04752349      -1.85179744       0.02690223      -0.82160737      -0.74761627      -0.33337769
C        0.89649354      -0.42953876      -0.45367975       3.08192993       0.80091894       2.05548094
H        0.50597399      -2.68639145      -1.66821814       1.00406147      -0.09753768       0.76809324
H        0.43149778       2.93169059       3.71900081       0.17728378       0.57422046       0.52193231
H        2.14888339       3.39439645       1.89824354       0.24967279       0.25778459       0.02047620
H       -0.96743352       0.93625241       3.56874084       0.08568268       0.19613212       0.02554284
H        2.28364436       1.89024999      -0.05039496      -0.39699117      -0.44731276       0.29365338
H       -0.82773645      -0.61386905       1.72100710       0.24958760       0.22495802      -0.11496285
H        0.25682907       2.12579586      -1.67626186      -0.59698373      -0.30960594      -0.09299199
H       -0.94199884       1.92528047      -0.41205002      -0.07843684      -0.50458208      -0.75998267
H       -1.45727861       1.92588033      -2.13290400       0.08653898      -0.52008257      -0.03213389
H        1.86271386      -1.92588816       0.75237894      -0.03391679      -0.04879932      -0.39402155
H        0.11743106      -2.15786729       0.52389662       0.21681705       0.04590749       0.08146055
H        1.82173448      -0.17662171      -0.98073996       0.16139562      -0.03570994       0.27785915
