23
Properties=species:S:1:pos:R:3:forces:R:3 id=18241 bond=C-S smiles="[H:13][c:3]1[c:4]([c:6]([c:8]([c:7]([c:5]1[H:15])[H:17])[C:11]([H:23])([C:10]([H:21])([H:22])[O:1][H:12])[S:2][C:9]([H:18])([H:19])[H:20])[H:16])[H:14]" dataset=PubChem energy=-22414.84902864902 pbc="F F F"
O        1.16372035      -2.71368896      -1.17444081      -0.66537911       0.17476101      -0.33087026
S       -0.23854839      -0.23706164      -1.42820621     -25.41712833       4.29724342     -20.50351486
C        0.45508958       2.31031741       2.78264266       0.10198543      -1.16684042      -1.52713806
C        1.39618168       2.55003799       1.76439231      -1.19679330      -1.41203858      -0.67079614
C       -0.36866262       1.17337317       2.68345862       0.06745006       0.03200758       0.14005197
C        1.45177624       1.65813172       0.64171057       0.22149665       0.96019922       1.96701691
C       -0.28619620       0.26695786       1.63257699       0.45230642       0.80624827      -0.03737070
C        0.62035052       0.53710954       0.59916031       1.92964097      -0.34236173       2.07217543
C       -0.56169944       1.56908456      -1.33448697       0.18750674       0.86508685      -0.25087621
C        0.92370073      -1.83079993      -0.07940975      -0.00481700      -1.33051051       0.20863296
C        0.77267078      -0.40854125      -0.55999173      22.18957018      -2.36137258      18.18465152
H        0.38215123      -2.66539394      -1.77453012       0.95425648      -0.11010820       0.73506791
H        0.30767502       2.95268810       3.61268883       0.17825679       0.57150147       0.52221584
H        2.02506063       3.41539396       1.79193156       0.24607517       0.25602915       0.00911288
H       -1.09125628       0.95724992       3.46242886       0.09213639       0.18716265       0.02345239
H        2.15982160       1.91124750      -0.15670694      -0.38556578      -0.46204462       0.33849188
H       -0.95155921      -0.59287154       1.61469512       0.24955844       0.22146289      -0.12245212
H        0.38065183       2.10479835      -1.56994988      -0.60826051      -0.29439854      -0.15136583
H       -0.81817608       1.90428296      -0.30573804      -0.20056105      -0.44678485      -1.02064476
H       -1.33345585       1.90488282      -2.02659202       0.07940412      -0.43615902      -0.09646396
H        1.73889110      -1.90489065       0.64606696      -0.01613115      -0.08765726      -0.42867643
H       -0.00639170      -2.13686978       0.41758464       0.15527398       0.16655141       0.01635476
H        1.69791172      -0.15562420      -1.08705194       1.39182110      -0.08275083       0.92239011
