13
Properties=species:S:1:pos:R:3:forces:R:3 id=39238 bond=C-N smiles="[H:10][c:5]1[c:6]([n:4][c:8]([c:7]([n:3]1)[H:12])[N:9]([H:13])[N:2]=[O:1])[H:11]" dataset=PubChem energy=-12219.831011702763 pbc="F F F"
O       -1.12097822       1.58206023      -2.12282862       4.25281423      -1.91653814       0.01614004
N       -0.02897196       0.97503289      -2.00539627      -4.39650075       2.77362883      -1.33117787
N        0.00025884      -1.11126146       1.27178712       2.53219115       4.19028962      -1.21599996
N        1.31045560       1.51194706       0.97497428       0.35311631      -1.23063623       3.54322542
C        0.74317056      -0.43745038       2.20676584      -0.21227353      -2.45650261       3.29238881
C        1.39298085       0.79991127       2.11350412      -0.01632383       1.00661153      -1.32467877
C        0.03587238      -0.36727808       0.10504160      -1.05601975      -2.99694892       1.64096434
C        0.65320623       0.90086748      -0.02156767       0.12963924     -17.53600596      25.90002081
N        0.70543824       1.49648668      -0.90783229      -0.33771271      18.57299538     -27.56317912
H        0.82091213      -1.00022123       3.20987505      -0.14432873       1.07180264      -1.64551566
H        2.02478973       1.34843584       2.85514254      -0.91949605      -1.26006559      -0.15128917
H       -0.41135278      -0.92022011      -0.72290557      -0.03932206       0.76584850       0.11108560
H        0.79102654       2.52866962      -0.71362724      -0.14668525      -0.98386281      -1.27196474
