13
Properties=species:S:1:pos:R:3:forces:R:3 id=39238 bond=C-N smiles="[H:10][c:5]1[c:6]([n:4][c:8]([c:7]([n:3]1)[H:12])[N:9]([H:13])[N:2]=[O:1])[H:11]" dataset=PubChem energy=-12220.620795280607 pbc="F F F"
O       -1.09377405       1.89227856      -2.58442477       3.29795554      -1.51433940      -0.71286122
N       -0.00176779       1.28525122      -2.46699242      -3.60681512       2.64935623       2.35845251
N       -0.02694533      -1.42147979       1.73338327       2.51016838       4.26627527      -0.62176808
N        1.28325143       1.20172873       1.43657043      -1.53158276      -1.58032220      -2.66124098
C        0.71596639      -0.74766871       2.66836199      -0.40612896      -2.27941800       2.76711308
C        1.36577668       0.48969294       2.57510027       0.09359541       0.81936369      -0.79351788
C        0.00866821      -0.67749641       0.56663775      -0.51612227      -0.92023737      -0.79710708
C        0.62600206       0.59064915       0.44002848       1.11910901       1.71917156       0.55038213
N        0.73264241       1.80670501      -1.36942844       1.46947371      -2.34420236       1.80398527
H        0.79370796      -1.31043956       3.67147120      -0.09819337       1.04389521      -1.67394629
H        1.99758556       1.03821751       3.31673869      -0.90733339      -1.26963240      -0.19294679
H       -0.43855695      -1.23043844      -0.26130942       0.04503614       0.78236460      -0.01200582
H        0.81823071       2.83888795      -1.17522339      -1.46868945      -1.37270338      -0.01222548
