41
Properties=species:S:1:pos:R:3:forces:R:3 id=32263 bond=C-O smiles="[H:20][C:3](=[C:4]1[C@:14]([C:12]([C@:17]2([C@@:13]13[C@:15]([C:9]([C:10]([C@:16]2([C:11]([C:7]3([H:28])[H:29])([C:5]([H:22])([H:23])[H:24])[C:6]([H:25])([H:26])[H:27])[H:40])([H:34])[H:35])([H:32])[H:33])([H:39])[C:8]([H:30])([H:31])[O:1][H:18])[H:41])([H:36])[H:37])([H:38])[O:2][H:19])[H:21]" dataset=PubChem energy=-20049.74339164774 pbc="F F F"
O        4.08406930       3.43174097       0.24495815       0.16275805       0.24786040      -0.78007678
O       -3.21706081       1.26307507      -0.70772210       1.98139252       0.26600538       0.01593480
C       -0.28180940       3.47797534       0.35940505      -0.15108861      -2.09224827      -1.75585520
C       -0.06615718       2.25216088      -0.21760551      -1.07212105       2.47266556       0.63841001
C       -0.68781717      -1.87773349       1.08079465       0.83331347       0.62417785      -0.25583676
C        1.32790090      -1.52552607       2.52746602      -0.65784332      -0.26541037      -0.68074049
C        0.26802366       0.53248123       1.47395022       0.96549534      -1.02540485      -0.57357499
C        2.98183565       2.79088065      -0.41932748      -0.42967632      -0.40497857       1.81506764
C        3.37325792       0.68282871       0.96367188      -0.18927012      -0.25465474      -0.61417172
C        3.05232053      -0.69260743       0.25734517      -0.40782581       0.60850396       1.29798050
C        0.59979917      -0.96417215       1.25466509       0.30576503      -0.55817607       1.09190380
C       -0.18230934       0.30832514      -1.64561300      -1.06901622      -0.19216677      -0.61380796
C        0.93510346       1.29071108       0.29789673       1.13046471       0.07634510       0.34101359
C       -0.80222530       1.67371413      -1.37509672       1.11043141      -0.12939918       0.82622325
C        2.38610773       1.84517309       0.66773750      -0.93804970      -0.61006316      -1.21943517
C        1.54088615      -0.94876149      -0.00653131      -0.33271452      -1.03875365      -0.00473859
C        1.09219060       0.23621616      -0.82204131      -0.16433429       0.59817641       0.57043556
H        3.74949579       3.91485354       1.01075210      -0.00960227      -0.21171205      -0.38896581
H       -3.27246785       1.20027400       0.27434029       0.53447316       0.18517287      -1.01993133
H       -1.03102178       4.13635513      -0.03315182      -0.27117976       0.18474974       0.04970689
H        0.27639179       3.76426074       1.21756812       0.39120046       0.28590949       0.42230404
H       -1.26215596      -1.69287732       0.14986979       0.43616475      -0.10916298       0.64038117
H       -1.35477967      -1.73331764       1.93681760       0.10585370       0.13389756      -0.19570312
H       -0.35836263      -2.92188098       1.12498315      -0.15882260       0.15980076      -0.26095660
H        1.72766761      -2.50872495       2.27540227       0.00128459      -0.05005536       0.25154962
H        0.63947718      -1.62831619       3.38293858       0.13200909       0.01196049      -0.47549597
H        2.14273481      -0.90211287       2.85740586       0.23552764       0.22402216      -0.04200194
H        0.60276871       0.87638491       2.43848034       0.30247184       0.24453870       0.26116095
H       -0.78092105       0.65014705       1.46503349      -1.16923306       0.33112463      -0.18038436
H        3.33276658       2.21265623      -1.27755026       0.24568602       0.35166380       0.19543684
H        2.22328238       3.51292369      -0.72494058       0.20983698       0.00181248      -0.19366090
H        4.39302258       1.01792198       0.70114501      -0.53344653      -0.19370937      -0.02136448
H        3.41699819       0.54263432       2.02916952      -0.13996556      -0.19895568       0.41302624
H        3.60963587      -0.71092298      -0.66072325      -0.02313969      -0.22572566      -0.57136433
H        3.44402747      -1.48190048       0.89630403       0.10550545      -0.02493910      -0.10474322
H       -0.89620252      -0.47618523      -1.42466322      -0.13457796      -0.05879331      -0.00084890
H        0.06803792       0.22848466      -2.71980265      -0.37502068      -0.03174114       0.48770779
H       -0.77160664       2.32411096      -2.25621752      -1.56294892      -0.06286786       0.42063218
H        2.33130841       2.44286439       1.56926961      -0.29579085       0.19955879       0.20817887
H        1.40112894      -1.90694931      -0.52834908       0.31389090       0.21292377       0.03404498
H        1.86336582       0.49449402      -1.52500562       0.58215862       0.31709517      -0.02596905
