41
Properties=species:S:1:pos:R:3:forces:R:3 id=32263 bond=C-O smiles="[H:20][C:3](=[C:4]1[C@:14]([C:12]([C@:17]2([C@@:13]13[C@:15]([C:9]([C:10]([C@:16]2([C:11]([C:7]3([H:28])[H:29])([C:5]([H:22])([H:23])[H:24])[C:6]([H:25])([H:26])[H:27])[H:40])([H:34])[H:35])([H:32])[H:33])([H:39])[C:8]([H:30])([H:31])[O:1][H:18])[H:41])([H:36])[H:37])([H:38])[O:2][H:19])[H:21]" dataset=PubChem energy=-20049.070984912276 pbc="F F F"
O        4.21708990       3.45436092       0.20819599       0.14922675       0.24444733      -0.78730491
O       -3.35008141       1.24045512      -0.67095994       1.53119568       0.17821530       0.28766863
C       -0.14878880       3.50059529       0.32264289      -0.19422019      -1.95282493      -1.71966583
C        0.06686342       2.27478083      -0.25436767      -1.19643017       2.21756304       0.41682250
C       -0.55479657      -1.85511354       1.04403249       0.83507218       0.62572243      -0.25379532
C        1.46092150      -1.50290612       2.49070386      -0.65584505      -0.26380199      -0.68106960
C        0.40104426       0.55510118       1.43718806       0.95570131      -1.01766044      -0.56674009
C        3.11485625       2.81350060      -0.45608964      -0.41643087      -0.40527212       1.82366431
C        3.50627852       0.70544866       0.92690972      -0.19090885      -0.25853336      -0.61131354
C        3.18534113      -0.66998748       0.22058301      -0.40725616       0.61247879       1.29080389
C        0.73281977      -0.94155220       1.21790293       0.30318537      -0.56376604       1.09401287
C       -0.04928874       0.33094509      -1.68237516      -1.12074030      -0.12536502      -0.58754459
C        1.06812406       1.31333103       0.26113457       1.11509993       0.03803859       0.37569120
C       -0.66920470       1.69633408      -1.41185888       2.06831740       0.06238725       0.68970498
C        2.51912833       1.86779304       0.63097534      -0.93689450      -0.59687539      -1.22370246
C        1.67390675      -0.92614154      -0.04329347      -0.33684853      -1.04604640       0.00218973
C        1.22521120       0.25883611      -0.85880347      -0.16745450       0.59369137       0.60505992
H        3.88251639       3.93747349       0.97398994      -0.00572537      -0.20993249      -0.38637042
H       -3.40548845       1.17765405       0.31110245       0.42148738       0.15244323      -1.02555723
H       -0.89800118       4.15897508      -0.06991398      -0.27725619       0.18280131       0.05611895
H        0.40941239       3.78688069       1.18080596       0.39426374       0.28804814       0.41814847
H       -1.12913536      -1.67025737       0.11310763       0.42884216      -0.11097177       0.64388503
H       -1.22175907      -1.71069769       1.90005544       0.10559491       0.13539913      -0.20367260
H       -0.22534203      -2.89926103       1.08822099      -0.15662157       0.16107339      -0.26245214
H        1.86068821      -2.48610500       2.23864011       0.00015587      -0.04918199       0.25137723
H        0.77249778      -1.60569624       3.34617642       0.13259956       0.01232780      -0.47827789
H        2.27575541      -0.87949292       2.82064370       0.23643398       0.22367835      -0.04048466
H        0.73578931       0.89900486       2.40171818       0.30533285       0.24343807       0.26120043
H       -0.64790045       0.67276700       1.42827133      -1.17513255       0.33039064      -0.18060195
H        3.46578718       2.23527618      -1.31431242       0.24284663       0.35380769       0.19374684
H        2.35630298       3.53554364      -0.76170274       0.20881365       0.00951847      -0.19995453
H        4.52604318       1.04054193       0.66438285      -0.53593959      -0.19194739      -0.02212367
H        3.55001879       0.56525427       1.99240736      -0.14096355      -0.19772062       0.41070671
H        3.74265647      -0.68830303      -0.69748541      -0.02115607      -0.22616209      -0.57102120
H        3.57704807      -1.45928053       0.85954187       0.10209941      -0.02301249      -0.10642732
H       -0.76318192      -0.45356528      -1.46142538      -0.14545744      -0.10079509       0.00043514
H        0.20105852       0.25110461      -2.75656481      -0.40319473      -0.02356979       0.47647035
H       -0.63858604       2.34673091      -2.29297968      -1.63897275      -0.03475236       0.40466266
H        2.46432901       2.46548434       1.53250745      -0.29569313       0.19776716       0.20925026
H        1.53414954      -1.88432936      -0.56511124       0.31403125       0.21614323       0.03440335
H        1.99638642       0.51711397      -1.56176778       0.57035401       0.31876486      -0.03862984
