28
Properties=species:S:1:pos:R:3:forces:R:3 id=45866 bond=N-O smiles="[H:15][C:4]1([C:6]([C:10]2([C:8]([C:5]([C:9]([C:11]([C:7]1([H:21])[H:22])([N:2]2[O:1][C:3]([H:12])([H:13])[H:14])[H:28])([H:25])[H:26])([H:17])[H:18])([H:23])[H:24])[H:27])([H:19])[H:20])[H:16]" dataset=PubChem energy=-13146.802801664018 pbc="F F F"
O        2.76401201      -0.87467817       0.82929889      -0.48976486      -0.10474965      -0.86341161
N        0.56840111       0.42345362       0.25072382       0.24022616       1.03375705      -2.57426115
C        3.94286302      -0.37005559       0.19592330      -2.13070721      -0.81467045       2.54036435
C       -0.21566849       1.16644712       2.75261379       0.54313947      -1.94567549      -4.04499078
C       -1.31729911       0.77934710      -1.67593097       0.66846811       0.38592758       0.75449124
C        0.12345673       2.28932877       1.62541509      -0.57159294      -0.82172096       1.90655524
C       -0.73829840      -0.29625122       2.04723299       1.99541202      -0.39722451       2.64015126
C       -0.57341986       2.04197748      -1.02670132      -0.88577595       0.31070419       1.35378783
C       -1.33814095      -0.52467541      -0.78975951       3.02528562      -1.55800456      -1.22901356
C        0.47579409       1.87917478       0.18288868       1.09432935      -2.14742048       1.41028902
C       -0.76866822      -0.04163561       0.57154825      -0.58430767       0.77699801      -0.20049764
H        4.68697932      -1.14937750       0.47347734       0.18230261       0.77390740       0.01722155
H        3.93037823      -0.30407873      -0.87846979      -0.27245040       0.31536048      -0.52513192
H        3.98169211       0.55398020       0.78193525       1.53426344       0.37450077      -0.81316810
H        0.56264729       1.02030336       3.47715783       0.77201366      -0.37098148      -0.31603254
H       -0.99394916       1.50732406       3.31376052      -2.36339290       1.06537992       1.29327089
H       -2.37240361       1.05954343      -1.78577923       0.46470797       0.15562050      -0.42007821
H       -0.84542708       0.54492359      -2.65129827      -0.55076447       0.27688254       0.60155244
H       -0.70898949       2.93456705       1.63012767      -1.04383942       0.92595573      -0.13530057
H        0.92659928       2.84936579       2.06360865       0.52772357       0.32577880      -0.12799035
H       -0.05779326      -1.07335893       2.47606660      -0.51508587       0.44114597      -0.82393285
H       -1.74124693      -0.51566426       2.35589838      -0.46043440      -0.08293275       0.47975597
H       -1.36475276       2.75649484      -0.63359165       1.11918171      -0.66139834      -0.70334783
H        0.11091931       2.51616450      -1.69357895      -0.37170796       0.43176462      -1.09856350
H       -2.35217594      -0.90089873      -0.78469645       0.02530463      -0.40723219       0.36963476
H       -0.58134185      -1.25004474      -1.31492948      -1.70150003       0.89595336       1.15810366
H        1.46070935       2.39666792      -0.01160287      -1.05110650      -0.94402994      -0.47432470
H       -1.61996232       0.64412208       0.69771094       0.79817985       1.76552424      -0.17224292
