50
Properties=species:S:1:pos:R:3:forces:R:3 id=14516 bond=C-O smiles="[H:32][c:8]1[c:13]([c:19]2[c:18]([c:16]([c:10]1[H:34])[O:3][C:22]([H:39])([H:40])[C:24]([H:43])([H:44])[N:21]3[C:25]4([C:7](=[C:6]([C:23]([C:28]3([C:27]([C:26]4([H:46])[H:47])([H:48])[H:49])[H:50])([H:41])[H:42])[c:17]5[c:11]([c:9]([c:14]([c:15]([c:12]5[H:36])[Cl:2])[Cl:1])[H:33])[H:35])[H:31])[H:45])[C:4](=[C:5]([N:20]2[H:38])[H:30])[H:29])[H:37]" dataset=PubChem energy=-54299.53807015913 pbc="F F F"
Cl       2.12932445       4.43904623       5.60744337      -0.36325209      -0.45610349       0.05488099
Cl       0.16590048       1.82491645       4.99464897       0.36687362       0.13290702      -0.51324706
O       -2.85639855       0.08501433      -1.35389828       1.36648351      -1.72372077       0.45027790
C       -3.31919763       1.06204637       1.40201056       0.23534760      -0.28232008       1.64607314
C       -3.34139272       1.05151416       2.80410433       0.46751183      -0.21172297      -1.79244249
C        2.65932621       1.40069940       0.38946810      -0.73536654      -3.34145993      -1.42149878
C        2.15763928       0.10685256       0.21097431       0.75529911       2.21673453       1.44525760
C       -2.13146922      -2.89677934       0.66161241      -0.10890134       0.68556641       0.89466844
C        3.23473813       3.73902234       3.30965833       0.95304655       0.62315702      -1.01477064
C       -2.35030458      -2.10645108      -0.45093870      -0.07384917      -0.81679566      -1.00505749
C        3.39865114       3.11657938       2.06614057      -0.01855559       0.36038945       0.91718438
C        1.53975428       1.72834632       2.60949926       0.20509383       0.65764432       1.41609663
C       -2.30085775      -2.36673621       1.94655788       0.20195380      -0.33173870       1.20492792
C        2.22057761       3.43756565       4.19425158       0.35740588      -0.09875995      -0.32742677
C        1.39286061       2.36469969       3.85971359      -0.03594816       0.01029702      -0.33131218
C       -2.72583410      -0.77103667      -0.31159698       0.10370980       2.03285875      -2.75338202
C        2.52977242       2.09748873       1.68877176       0.00490034      -0.10963510      -0.19832059
C       -2.93452808      -0.24936549       0.96386470      -0.26105310       0.96411342       1.07923175
C       -2.73213932      -1.04607753       2.09548473      -0.06721410       0.71741860       0.53832931
N       -2.96704695      -0.21485869       3.22634030       0.15371559      -0.99505938      -0.43309717
N        1.95849354       0.39476658      -2.11340423      -1.33876467      -0.26277663      -1.87266495
C       -0.49686371       0.30048513      -2.88034006       3.00498335       0.23926996      -0.39861804
C        3.39738203       1.97448739      -0.83508535      -0.29931635      -0.25302124       0.65437785
C        0.63036950       1.13483623      -2.23008032       0.37258319      -0.70711848       1.06600950
C        2.18438412      -0.63804010      -1.09925385      -0.90110349       0.57783332       1.13236603
C        3.60609151      -1.18912807      -1.34739347      -0.98048380      -0.55514042      -0.81385890
C        4.18673683      -0.07883194      -2.21833940       0.52041149      -0.09446035       0.05539310
C        3.23264982       1.08898642      -2.10140391      -0.07968797       1.02144324      -0.25797241
H       -3.46867272       1.91278334       0.77566073      -0.22392621       0.18702190      -0.14649590
H       -3.53823969       1.90244289       3.46748281       0.14180066      -0.82251679      -0.19610265
H        1.73040612      -0.40639624       1.06354688      -0.03700923       0.04830395       0.01837311
H       -1.78386924      -3.90321139       0.55784899       0.03517739      -0.36090663      -0.05894471
H        3.95331956       4.53530940       3.53559116      -0.50861410      -0.33153470       0.17099623
H       -2.23333403      -2.55106859      -1.45621180       0.02293439       0.57325427       0.66581048
H        4.25316812       3.45760950       1.48320727      -0.43009318      -0.31991833      -0.15588909
H        0.88815707       0.90128860       2.46390466      -0.41851724      -0.33990652      -0.47910906
H       -2.06557366      -2.94759492       2.85585380      -0.18112051       0.16714068      -0.73043782
H       -2.79862305      -0.52579932       4.17587876      -0.23096561       0.34962461      -0.43200032
H       -0.05097555      -0.67889026      -3.13882537      -1.23397108      -0.08353853       0.69608005
H       -0.74277173       0.82323874      -3.78927656      -1.56695083      -0.05036950       0.02670703
H        4.46255852       2.07472261      -0.60980131      -0.07944592       0.12327802      -0.00803912
H        3.01361741       2.95451578      -1.09944506       0.00189456       0.31615944       0.27300458
H        0.76493551       2.05673680      -2.83205362       0.20023506      -0.62134863       0.37126229
H        0.26271535       1.45074328      -1.25030633       0.16923251       0.24140742       0.20079157
H        1.43151872      -1.45068183      -1.11167188       0.22851428       0.66866404      -0.02762550
H        3.48420884      -2.10376587      -1.94706484       0.36967820       0.16288042       0.37047290
H        4.12851240      -1.42153779      -0.41155948      -0.14476612       0.23208466      -0.40068786
H        5.18778564       0.17614019      -1.95493408       0.74357832       0.31693409       0.35180010
H        4.23313619      -0.39469829      -3.25278898      -0.17806535      -0.05545621      -0.15611702
H        3.39643456       1.76743659      -2.95945330      -0.48515476      -0.40043376       0.21827973
