27
Properties=species:S:1:pos:R:3:forces:R:3 id=12446 bond=N-O smiles="[H:19][c:8]1[c:9]([c:11]([c:13]([c:12]([c:10]1[H:21])[H:23])[C:4]2=[C:5]([N:14](/[C:7](=[N:1][O:2][H:16])/[C:6](=[C:3]2[H:17])[C:15]([H:25])([H:26])[H:27])[H:24])[H:18])[H:22])[H:20]" dataset=PubChem energy=-17672.785278516727 pbc="F F F"
N       -2.18373282      -0.24865325       3.09768884       0.70359760       0.16566972      -0.26312598
O       -4.43877971      -0.24232572       1.85676681       1.44361522       0.25726636       0.01837843
C        1.29536511       0.27832838       2.01347058      -1.97037939      -0.06474358      -0.36962762
C        1.02668870       0.76983813       0.63915267      -1.02094275      -0.42531430       0.60921713
C       -0.28902884       0.92358014       0.24410992       0.49179828      -0.67698913       1.59965363
C        0.24507605      -0.06479695       2.88014214       2.28600727       0.66866641      -0.37426873
C       -1.11324675       0.15078796       2.40925400      -2.62510579      -0.71300346      -0.29963303
C        4.10087697       1.43877903      -2.32452733       0.72060601      -0.69670602       1.23991403
C        4.32669107       0.53818378      -1.25169713      -1.28489020       0.37120305      -0.05519035
C        2.91260223       2.13000164      -2.36022646      -0.81814833      -0.51677861       0.55085990
C        3.29393093       0.26719782      -0.30679400       1.22926239       0.59470630      -1.46961203
C        1.93173568       1.91501269      -1.39439995       0.43778453       0.19469930      -0.23610015
C        2.10675995       0.98633224      -0.35690183      -0.43695869       0.38007696      -0.05951538
N       -1.33531673       0.67344160       1.14513551       1.30255021      -0.39017064      -0.24631225
C        0.57674883      -0.64310314       4.26158493      -0.22251324      -0.01947494      -0.31241979
H       -5.19397437      -0.50192766       2.41837560       0.99309444       0.12045461       0.22559660
H        2.34437101       0.12998316       2.32212739      -0.80892966       0.12505937      -0.09847865
H       -0.53940160       1.20112774      -0.76879937      -0.27498131      -0.04878468       0.20571217
H        4.85867207       1.63332448      -3.07282145       0.03821040      -0.13913720       0.14506401
H        5.27607958       0.04012165      -1.13095279      -0.00663141      -0.13602319      -0.20581318
H        2.67140381       2.82011233      -3.13719160       0.16021328       0.35177892      -0.43395418
H        3.43662708      -0.54454817       0.38091155       0.05285916       0.02499609       0.38712452
H        1.04859878       2.53317079      -1.51147730      -0.05753707      -0.23041992       0.44553965
H       -2.29333861       0.48715232       0.86160685       0.03106632       0.48334507      -0.34324822
H        1.62049149      -0.39951374       4.51834671      -0.48718186      -0.16795609      -0.17619646
H       -0.06600459      -0.28116527       5.06974904       0.02788195       0.18481117      -0.34522130
H        0.45165406      -1.73572149       4.26959865       0.09645616       0.30335496      -0.13910989
