18
Properties=species:S:1:pos:R:3:forces:R:3 id=23405 bond=C-O smiles="[H:13][C:6]1=[C:7](/[C:11](=[N:4][Cl:2])/[C:9](=[C:8](/[C:10]1=[N:3]/[Cl:1])[H:15])[O:5][C:12]([H:16])([H:17])[H:18])[H:14]" dataset=PubChem energy=-37430.05260259306 pbc="F F F"
Cl       2.10822897       3.31724722      -3.42293527      -0.99126863      -1.04608378       1.16484593
Cl       4.07932740      -1.52138846       1.28698156      -2.01329799       0.74530043      -0.10290384
N        0.88504996       2.77258332      -2.21576097       0.76114902      -1.49261506       0.81221484
N        2.35597377      -0.91140478       1.47910378      -0.94116312       1.01193793      -0.76770241
O       -1.26338792      -0.38221296       2.44685037       0.83864915       0.80902680      -0.26776805
C        2.15040427       0.65554883      -1.74242809       2.10326432      -0.81097135      -0.71142630
C        2.51316660      -0.29704611      -0.81063213      -1.18470801       1.97302545      -2.76381994
C        0.10540264       1.39157702      -0.46748450      -0.08778306      -3.23767223       2.97876946
C        0.42514020       0.37090535       0.49376938      -0.58755904       3.05339920      -2.34696332
C        1.08895165       1.64710749      -1.53859248       0.34625667       1.62945015      -1.20404996
C        1.76784783      -0.29401367       0.45469893       2.02400284      -2.27663223       2.11123554
C       -1.99849225       0.46690241       3.29137594       0.24658887      -2.11446654       1.58916158
H        2.70534342       0.80516778      -2.73797014      -0.82687944      -0.55082605       1.78335885
H        3.30522328      -1.06955461      -0.99560525      -1.02605576       1.12351921       0.32474276
H       -0.84948558       1.94548781      -0.55669644       0.78259008      -0.51033959       0.53942782
H       -3.03821135       0.47083697       3.05107386      -0.77050211       0.32518620      -0.67266181
H       -1.61673022       1.44570252       3.39399893       0.59114400       1.28544770      -0.22243505
H       -2.02540136       0.12703878       4.44512159       0.72812247       0.08331079      -2.24047548
