18
Properties=species:S:1:pos:R:3:forces:R:3 id=23405 bond=C-O smiles="[H:13][C:6]1=[C:7](/[C:11](=[N:4][Cl:2])/[C:9](=[C:8](/[C:10]1=[N:3]/[Cl:1])[H:15])[O:5][C:12]([H:16])([H:17])[H:18])[H:14]" dataset=PubChem energy=-37430.391465835746 pbc="F F F"
Cl       2.06770429       3.29917238      -3.37606133      -0.99164020      -1.04690614       1.16769349
Cl       4.03880272      -1.53946330       1.33385550      -2.00954355       0.74261198      -0.10634263
N        0.84452528       2.75450848      -2.16888703       0.75918501      -1.48642162       0.80628965
N        2.31544909      -0.92947962       1.52597772      -0.95684955       1.01747507      -0.75725335
O       -1.22286324      -0.36413812       2.39997643       1.08311093       0.66744723      -0.58557050
C        2.10987959       0.63747399      -1.69555415       2.10327901      -0.80701348      -0.71809810
C        2.47264192      -0.31512095      -0.76375819      -1.18946117       1.97574382      -2.74418511
C        0.06487796       1.37350218      -0.42061056      -0.07558810      -3.22825346       2.95198540
C        0.38461552       0.35283051       0.54064332      -0.81542682       3.02252613      -2.07369349
C        1.04842697       1.62903265      -1.49171854       0.33505201       1.61553613      -1.18656699
C        1.72732315      -0.31208851       0.50157287       2.03805692      -2.29314982       2.09208519
C       -1.95796757       0.48497725       3.24450200       0.27070413      -1.89787964       1.69412967
H        2.66481874       0.78709294      -2.69109620      -0.82839752      -0.55192753       1.78210563
H        3.26469860      -1.08762945      -0.94873131      -1.02683748       1.12812764       0.32440947
H       -0.89001026       1.92741297      -0.50982250       0.78453169      -0.51215289       0.54651754
H       -2.99768667       0.48891181       3.00419992      -0.76537455       0.31441082      -0.68247040
H       -1.57620554       1.46377736       3.34712499       0.55010496       1.27621384      -0.23328560
H       -1.98487668       0.14511362       4.39824765       0.72687265       0.06559853      -2.27488641
