18
Properties=species:S:1:pos:R:3:forces:R:3 id=23405 bond=C-O smiles="[H:13][C:6]1=[C:7](/[C:11](=[N:4][Cl:2])/[C:9](=[C:8](/[C:10]1=[N:3]/[Cl:1])[H:15])[O:5][C:12]([H:16])([H:17])[H:18])[H:14]" dataset=PubChem energy=-37435.60346360686 pbc="F F F"
Cl       1.70298222       3.13649883      -2.95419583      -0.91246186      -1.01947075       1.07619785
Cl       3.67408065      -1.70213685       1.75572100      -1.95692224       0.70398781      -0.10556202
N        0.47980321       2.59183493      -1.74702153       0.77136728      -1.41739356       0.70994031
N        1.95072702      -1.09215317       1.94784322      -1.21516350       1.10924013      -0.67685528
O       -0.85814117      -0.20146457       1.97811093       1.80355508      -0.54945368      -0.97809001
C        1.74515752       0.47480044      -1.27368865       2.12628092      -0.80096697      -0.75232805
C        2.10791985      -0.47779450      -0.34189269      -1.07369045       1.87322999      -2.47959234
C       -0.29984411       1.21082863       0.00125494       0.83689976      -2.73665798       1.73523571
C        0.01989345       0.19015696       0.96250882      -2.20865455       2.84313592      -0.52263915
C        0.68370490       1.46635910      -1.06985304      -0.09255538       1.68207287      -0.74141208
C        1.36260108      -0.47476206       0.92343837       2.79803022      -2.24338778       0.97568541
C       -1.59324550       0.64765080       2.82263650      -0.31944179      -0.80338758       3.02024044
H        2.30009667       0.62441939      -2.26923070      -0.83136381      -0.56022869       1.76379934
H        2.89997653      -1.25030300      -0.52686581      -1.02582297       1.17989555       0.27622637
H       -1.25473233       1.76473942      -0.08795700       0.78200182      -0.56988149       0.59994641
H       -2.63296460       0.65158536       2.58233442      -0.61915675       0.14812892      -0.66875802
H       -1.21148347       1.62645091       2.92525949       0.53731013       1.17764154      -0.55747843
H       -1.62015461       0.30778717       3.97638215       0.59177111      -0.02109022      -2.67294772
