18
Properties=species:S:1:pos:R:3:forces:R:3 id=23405 bond=C-O smiles="[H:13][C:6]1=[C:7](/[C:11](=[N:4][Cl:2])/[C:9](=[C:8](/[C:10]1=[N:3]/[Cl:1])[H:15])[O:5][C:12]([H:16])([H:17])[H:18])[H:14]" dataset=PubChem energy=-37435.25190032214 pbc="F F F"
Cl       1.64219521       3.10938657      -2.88388492      -0.85186790      -0.99885763       0.99712670
Cl       3.61329364      -1.72924911       1.82603191      -1.94869985       0.69288635      -0.08362223
N        0.41901620       2.56472267      -1.67671062       0.77874140      -1.38166268       0.66722513
N        1.88994001      -1.11926543       2.01815413      -1.31238565       1.15306775      -0.69159417
O       -0.79735416      -0.17435231       1.90780002      -4.47968388      -2.96804545       6.92893842
C        1.68437051       0.44768818      -1.20337774       2.15417326      -0.81373577      -0.74283490
C        2.04713284      -0.50490676      -0.27158178      -0.99814055       1.80727833      -2.44702355
C       -0.36063112       1.18371637       0.07156585       1.31930631      -2.22716084       0.91800840
C       -0.04089356       0.16304470       1.03281973       3.48128549       4.98871382      -7.40207210
C        0.62291789       1.43924684      -0.99954213      -0.33167119       1.75611578      -0.53363165
C        1.30181407      -0.50187432       0.99374928       3.51896504      -2.25716259       0.39274923
C       -1.53245849       0.67476306       2.75232559      -0.92751086      -1.00048108       3.51620379
H        2.23930966       0.59730713      -2.19891979      -0.82520399      -0.56171005       1.75906436
H        2.83918952      -1.27741526      -0.45655490      -1.02264272       1.18372966       0.25408016
H       -1.31551934       1.73762716      -0.01764609       0.77629688      -0.57975042       0.59854730
H       -2.57217759       0.67869762       2.51202351      -0.57028911       0.13147998      -0.67696010
H       -1.15069646       1.65356317       2.85494858       0.65759181       1.10772082      -0.71283619
H       -1.55936760       0.33489943       3.90607124       0.57157361      -0.03364905      -2.73929322
