48
Properties=species:S:1:pos:R:3:forces:R:3 id=34842 bond=C-C smiles="[H:26][c:5]1[c:6]([c:8]([c:14]([c:9]([c:7]1[H:28])[H:30])/[C:3](=[C:4](/[C:19]([H:34])([H:35])[H:36])[N:17]2[c:15]3[c:10]([c:11]([c:16]([c:12]([c:13]3[C:1]4=[C:2]2[C:23]([C:24]([N:18]([C:22]4([H:43])[H:44])[C:21]([H:40])([H:41])[H:42])([H:47])[H:48])([H:45])[H:46])[H:33])[C:20]([H:37])([H:38])[H:39])[H:32])[H:31])/[H:25])[H:29])[H:27]" dataset=PubChem energy=-26201.447543630915 pbc="F F F"
C       -0.93397016      -0.20219401       0.13542097       1.74569838       0.52187118       0.03364508
C        0.43924586      -0.27065180      -0.04310657      -2.06281350      -1.16667132       0.35498001
C        3.36374645       0.98227211      -0.01386530      -2.71629486       0.35211945      -1.46487511
C        2.23903876       1.25853534      -0.75723256       2.67173003       0.79912429      -2.36234685
C        3.60356813      -0.22039352       4.06351672      -0.83808893       0.18297317       0.38710524
C        2.64455967       0.75393744       3.69398914       0.41060487      -0.76098855       0.15490187
C        4.39222555      -0.80603955       3.09664117       0.63264854       0.00968006      -0.14590881
C        2.52231412       1.11879822       2.36310577       0.47321298      -0.09664610      -0.39206022
C        4.30739312      -0.41746006       1.76577281       0.13856357      -0.20148519      -0.00570516
C       -0.18739016       3.32340886      -0.35179759      -1.22821297      -0.10384301       0.03511124
C       -1.47643680       3.93482425      -0.14786965       1.96905170      -1.89724342      -0.33717945
C       -2.50919242       1.79105450       0.29297932      -0.26586953      -0.72344203       0.09215123
C       -1.26819320       1.19575425       0.06951743      -1.09072291      -0.96328023       0.12671810
C        3.36964016       0.52999738       1.38423561      -0.23768410       0.56995923       0.35434201
C       -0.11666490       1.92065348      -0.23857284      -0.28742354       0.94455052      -0.13665978
C       -2.61833424       3.16004183       0.17408591       0.62501748       0.50582802      -0.13872366
N        0.92782294       1.00987121      -0.33638621       0.87209712      -0.28252808       0.13364049
N       -0.99699743      -2.51443908       0.96080654      -1.23842547      -0.59694223      -0.42174608
C        2.48165321       1.87187972      -2.57586200      -0.99123118      -2.23654399       2.74258685
C       -3.93909521       3.81877234       0.36827280      -0.37381737      -0.31812089       0.77383226
C       -0.78627283      -2.52316521       2.39060103      -0.85114904       0.85391689       0.18425635
C       -1.80218381      -1.38927959       0.44610478       0.69293900       0.11288584       0.78756457
C        1.13624429      -1.61239908       0.11920642       1.21858937       0.76433917      -0.18384073
C        0.14730342      -2.76245568       0.10432302      -0.23586903      -0.05933427      -0.00211002
H        4.30910616       1.03021844      -0.51523221       0.29230553       0.11984037      -0.17033062
H        3.67862682      -0.54653464       5.11009346       0.01474680       0.27904706      -0.56662367
H        1.99997930       1.17114409       4.46653616       0.19067013       0.04050080      -0.31870314
H        5.17247133      -1.51692472       3.33853518      -0.22071508      -0.07643718       0.27939342
H        1.83302229       1.90686466       2.05613016       0.14934122      -0.36530797       0.11543868
H        4.99917774      -0.87704430       1.04170328      -0.53378923       0.39724351       0.29805921
H        0.70198445       3.89469315      -0.62619234      -0.43345664      -0.02926477       0.18823629
H       -1.51528425       4.99291493      -0.29014254      -0.31904750       0.43471492       0.11293847
H       -3.37210888       1.11830689       0.56460609       0.90564026       1.07068850      -0.36110759
H        1.58363962       1.52209624      -3.14644081       0.79782103       0.42372371       0.69665569
H        3.39059853       1.39929810      -2.99752719      -0.53802241       0.29513304       0.57797742
H        2.55855107       2.94383385      -2.54630119      -0.02703439       0.23982995       0.05669788
H       -3.81984014       4.87609364       0.49760350       0.03342763       0.57832945       0.17198255
H       -4.55662364       3.68705251      -0.51420928      -0.33386255      -0.20688705       0.09429681
H       -4.41694326       3.40805723       1.29057907       0.04674622       0.33938859      -0.91978078
H       -1.76130504      -2.38146398       2.92518460       0.74282527      -0.24201295      -0.59101667
H       -0.16393770      -1.68742821       2.69373308       0.40105839       0.19780776       0.39234579
H       -0.35563226      -3.44906924       2.74556457       0.17554354      -0.23808004      -0.14762364
H       -2.56094522      -1.07484410       1.17854049       0.22576719      -0.41680905      -0.12365196
H       -2.32002182      -1.72930620      -0.44031525      -0.21056634      -0.04130954      -0.28046532
H        1.69256894      -1.68872807       1.05677705       0.11060222       0.49142155      -0.07377863
H        1.85684435      -1.75094960      -0.68831385       0.15423163      -0.03548046       0.07768749
H        0.63579923      -3.73578189       0.35125517      -0.32238422       0.84853084      -0.02235169
H       -0.20210708      -2.82613966      -0.92349161      -0.33715138      -0.31545080      -0.05786142
