48
Properties=species:S:1:pos:R:3:forces:R:3 id=34842 bond=C-C smiles="[H:26][c:5]1[c:6]([c:8]([c:14]([c:9]([c:7]1[H:28])[H:30])/[C:3](=[C:4](/[C:19]([H:34])([H:35])[H:36])[N:17]2[c:15]3[c:10]([c:11]([c:16]([c:12]([c:13]3[C:1]4=[C:2]2[C:23]([C:24]([N:18]([C:22]4([H:43])[H:44])[C:21]([H:40])([H:41])[H:42])([H:47])[H:48])([H:45])[H:46])[H:33])[C:20]([H:37])([H:38])[H:39])[H:32])[H:31])/[H:25])[H:29])[H:27]" dataset=PubChem energy=-26199.539851954014 pbc="F F F"
C       -0.96285284      -0.27521120       0.35192447       1.83539699       0.45649417       0.01277138
C        0.41036318      -0.34366899       0.17339693      -2.17397988      -1.35226416       0.30554015
C        3.33486377       0.90925492       0.20263820      -2.56446076       0.45272611      -1.92003646
C        2.21015608       1.18551815      -0.54072906       1.86619095       0.41772875      -0.97333391
C        3.57468545      -0.29341071       4.28002022      -0.83826141       0.18370050       0.38813016
C        2.61567699       0.68092025       3.91049264       0.41118499      -0.76308897       0.15481347
C        4.36334287      -0.87905674       3.31314467       0.62175803       0.01737667      -0.14390210
C        2.49343144       1.04578103       2.57960927       0.47239635      -0.10246131      -0.39336807
C        4.27851044      -0.49047725       1.98227631       0.15156856      -0.20220221      -0.04527498
C       -0.21627284       3.25039167      -0.13529409      -1.18524018      -0.14100675       0.02443381
C       -1.50531948       3.86180706       0.06863385       1.92599101      -1.91212292      -0.32506620
C       -2.53807510       1.71803731       0.50948282      -0.23512467      -0.78341678       0.09542000
C       -1.29707588       1.12273706       0.28602093      -1.10352392      -0.83777624       0.10707112
C        3.34075748       0.45698019       1.60073911      -0.30940268       0.61361848       0.44904314
C       -0.14554758       1.84763629      -0.02206934      -0.42487832       1.07829453      -0.10573251
C       -2.64721692       3.08702464       0.39058941       0.64412566       0.55543468      -0.14966680
N        0.89894026       0.93685402      -0.11988271       1.50623325      -0.09387310      -0.19461829
N       -1.02588011      -2.58745627       1.17731004      -1.24476638      -0.58995425      -0.42511328
C        2.51053589       1.94489691      -2.79236550      -0.71999606      -1.84356886       1.33880177
C       -3.96797789       3.74575515       0.58477630      -0.37161521      -0.31847853       0.77558736
C       -0.81515551      -2.59618240       2.60710453      -0.85359637       0.85429777       0.18638087
C       -1.83106649      -1.46229678       0.66260828       0.70290581       0.10237601       0.81420881
C        1.10736161      -1.68541627       0.33570992       1.22800187       0.76345385      -0.19086711
C        0.11842074      -2.83547287       0.32082652      -0.23447478      -0.05876573      -0.00558227
H        4.28022348       0.95720125      -0.29872871       0.28479733       0.10195247      -0.16418365
H        3.64974414      -0.61955183       5.32659696       0.01493155       0.27939157      -0.56704054
H        1.97109662       1.09812690       4.68303966       0.19116217       0.04100971      -0.31910401
H        5.14358865      -1.58994191       3.55503868      -0.22125723      -0.07574845       0.27575433
H        1.80413961       1.83384747       2.27263366       0.15175141      -0.36417567       0.11490030
H        4.97029506      -0.95006149       1.25820678      -0.53530843       0.39916341       0.29868003
H        0.67310177       3.82167596      -0.40968884      -0.43087512      -0.05090464       0.18023397
H       -1.54416693       4.91989774      -0.07363904      -0.31905320       0.43309699       0.11342765
H       -3.40099156       1.04528970       0.78110959       0.90669668       1.07081720      -0.36162823
H        1.61252230       1.59511343      -3.36294431       0.72955956       0.30259002       0.95663223
H        3.41948121       1.47231529      -3.21403069      -0.52148480       0.17912563       0.77888023
H        2.58743375       3.01685104      -2.76280469      -0.04888148       0.20731434       0.39681993
H       -3.84872282       4.80307645       0.71410700       0.03453372       0.57661274       0.17085111
H       -4.58550632       3.61403532      -0.29770578      -0.33185880      -0.20892588       0.09395196
H       -4.44582594       3.33504004       1.50708257       0.04753709       0.33808326      -0.91998866
H       -1.79018772      -2.45448117       3.14168810       0.74286013      -0.24224871      -0.59027002
H       -0.19282038      -1.76044540       2.91023658       0.40264551       0.19793638       0.39208167
H       -0.38451494      -3.52208643       2.96206807       0.17492215      -0.23690838      -0.14873898
H       -2.58982790      -1.14786129       1.39504399       0.22579905      -0.41553713      -0.12476509
H       -2.34890450      -1.80232339      -0.22381175      -0.20591714      -0.03010602      -0.28485023
H        1.66368626      -1.76174526       1.27328055       0.10940843       0.49171191      -0.07240915
H        1.82796167      -1.82396679      -0.47181035       0.14812491      -0.02784286       0.07966184
H        0.60691655      -3.80879908       0.56775867      -0.32318022       0.85054484      -0.02258126
H       -0.23098976      -2.89915685      -0.70698811      -0.33486578      -0.31521228      -0.05682087
