48
Properties=species:S:1:pos:R:3:forces:R:3 id=34842 bond=C-C smiles="[H:26][c:5]1[c:6]([c:8]([c:14]([c:9]([c:7]1[H:28])[H:30])/[C:3](=[C:4](/[C:19]([H:34])([H:35])[H:36])[N:17]2[c:15]3[c:10]([c:11]([c:16]([c:12]([c:13]3[C:1]4=[C:2]2[C:23]([C:24]([N:18]([C:22]4([H:43])[H:44])[C:21]([H:40])([H:41])[H:42])([H:47])[H:48])([H:45])[H:46])[H:33])[C:20]([H:37])([H:38])[H:39])[H:32])[H:31])/[H:25])[H:29])[H:27]" dataset=PubChem energy=-26164.887073107355 pbc="F F F"
C       -0.86176348      -0.01965104      -0.40583779       1.55141229       0.65510541      -0.01870378
C        0.51145254      -0.08810883      -0.58436533      -1.72540230      -0.86086127       0.57886263
C        3.43595313       1.16481508      -0.55512406      -1.29405688      -1.95003787       5.05530256
C        2.31124544       1.44107831      -1.29849132     -20.91711294     -62.98466963     183.06904857
C        3.67577481      -0.03785055       3.52225796      -0.83961101       0.18437137       0.48864109
C        2.71676635       0.93648041       3.15273038       0.33416713      -0.79443155       0.14543626
C        4.46443223      -0.62349658       2.55538241       0.66986075       0.04622957      -0.20936806
C        2.59452080       1.30134119       1.82184701       0.45273820      -0.20794071      -0.19966273
C        4.37959980      -0.23491709       1.22451405       0.20274415      -0.31130557       0.21555954
C       -0.11518348       3.50595183      -0.89305635      -1.31105268      -0.05190580       0.05636588
C       -1.40423012       4.11736722      -0.68912841       2.01437638      -1.85461318      -0.35141091
C       -2.43698574       1.97359747      -0.24827944      -0.28016117      -0.65507479       0.06436363
C       -1.19598652       1.37829722      -0.47174133      -1.11538487      -1.18974940       0.11088920
C        3.44184684       0.71254035       0.84297685       0.01968639       1.11067495      -0.09351246
C       -0.04445822       2.10319645      -0.77983160       0.01997584       0.87660620      -0.00238682
C       -2.54612756       3.34258480      -0.36717285       0.60730737       0.45815444      -0.12372659
N        1.00002962       1.19241418      -0.87764497      -2.80427752      -1.54043440       5.12795040
N       -0.92479075      -2.33189611       0.41954778      -1.23209908      -0.58184850      -0.44154435
C        2.40944653       1.68933675      -2.03460324      24.16252054      60.71731788    -185.86299730
C       -3.86688853       4.00131531      -0.17298596      -0.37360420      -0.31362558       0.77077292
C       -0.71406615      -2.34062224       1.84934227      -0.83750669       0.86321886       0.21083772
C       -1.72997713      -1.20673662      -0.09515398       0.68683269       0.09200937       0.72746442
C        1.20845097      -1.42985611      -0.42205234       1.22530455       0.73119133      -0.12960892
C        0.21951010      -2.57991271      -0.43693574      -0.25022871      -0.06565974      -0.01409343
H        4.38131284       1.21276141      -1.05649097       0.17058885      -0.31563180      -0.38198350
H        3.75083350      -0.36399167       4.56883470       0.00836263       0.27466610      -0.56042199
H        2.07218598       1.35368706       3.92527740       0.18713278       0.03971404      -0.29227572
H        5.24467801      -1.33438175       2.79727642      -0.21194471      -0.09059077       0.29370446
H        1.90522897       2.08940763       1.51487140       0.15512172      -0.33398814       0.13636541
H        5.07138442      -0.69450133       0.50044452      -0.54167750       0.38836039       0.28153667
H        0.77419113       4.07723612      -1.16745110      -0.45958515       0.07025336       0.19343848
H       -1.44307757       5.17545790      -0.83140130      -0.31526538       0.43177529       0.11344707
H       -3.29990220       1.30084986       0.02334733       0.91317638       1.07207877      -0.36176641
H        1.51143294       1.33955327      -2.60518205       0.99185645       1.25820230      -2.53123597
H        3.31839185       1.21675513      -2.45626843      -0.07233765       2.04650412      -2.25040148
H        2.48634439       2.76129088      -2.00504243      -0.49897519       1.84714879      -2.30506125
H       -3.74763346       5.05863661      -0.04365526       0.03164143       0.57813565       0.17347968
H       -4.48441696       3.86959548      -1.05546804      -0.33286623      -0.20561381       0.09535864
H       -4.34473658       3.59060020       0.74932031       0.05037159       0.34060448      -0.92134366
H       -1.68909836      -2.19892101       2.38392584       0.74100477      -0.24385805      -0.59250217
H       -0.09173102      -1.50488524       2.15247432       0.39678329       0.18792375       0.39076629
H       -0.28342558      -3.26652627       2.20430581       0.17463565      -0.23565634      -0.14887791
H       -2.48873854      -0.89230113       0.63728173       0.23576938      -0.40884861      -0.12652106
H       -2.24781514      -1.54676323      -0.98157401      -0.21876659      -0.05698034      -0.27641236
H        1.76477562      -1.50618510       0.51551829       0.12223784       0.51750659      -0.10067910
H        1.92905103      -1.56840663      -1.22957261       0.17225859      -0.06507554       0.08174283
H        0.70800591      -3.55323892      -0.19000359      -0.31936929       0.85564395      -0.02259828
H       -0.12990040      -2.64359669      -1.46475037      -0.34644016      -0.32377311      -0.06344481
