7
Properties=species:S:1:pos:R:3:forces:R:3 id=4431 bond=C-S smiles="[H:7][S:3][C:5](=[S:1])[S:4][S:2][H:6]" dataset=PubChem energy=-44416.44196750268 pbc="F F F"
S       -1.50981670       1.32876229       0.19286736       2.11408266      -1.33814607       0.93709639
S        1.79457802       2.51512640      -0.18012611       1.04293660      -1.42306617       0.08440504
S        0.41029249      -1.39045228       0.63363411       0.01730973       2.78794239       0.17610591
S        1.10794359       1.73827975       1.63462164       0.27526487      -0.41211718      -0.92042372
C       -0.10085767       0.73536729       0.81525662      -2.34602482      -1.48272148      -0.69405642
H        2.51126808       1.34242224      -0.54250786      -0.73747123       1.51362679       0.36255992
H       -0.65782895      -1.94699610       1.20331737      -0.36710692       0.34977223       0.05387078
