7
Properties=species:S:1:pos:R:3:forces:R:3 id=4431 bond=C-S smiles="[H:7][S:3][C:5](=[S:1])[S:4][S:2][H:6]" dataset=PubChem energy=-44413.6325382127 pbc="F F F"
S       -1.64399362       1.88678993       0.24054327       3.01541681      -2.32261371       1.15486247
S        1.66040110       3.07315404      -0.13245020       0.96185543      -1.47629022       0.09400330
S        0.54446941      -1.94847992       0.58595820       0.01061313       1.46460852      -0.01792232
S        0.97376667       2.29630739       1.68229755       0.36120579      -0.95311009      -0.93726539
C       -0.23503459       1.29339493       0.86293253      -3.36744817       1.70299451      -0.80565478
H        2.37709116       1.90044988      -0.49483195      -0.73710510       1.48357475       0.38948471
H       -0.52365203      -2.50502374       1.15564146      -0.24575699       0.09692019       0.12283890
