7
Properties=species:S:1:pos:R:3:forces:R:3 id=4431 bond=C-S smiles="[H:7][S:3][C:5](=[S:1])[S:4][S:2][H:6]" dataset=PubChem energy=-44416.3556879876 pbc="F F F"
S       -1.51301139       1.34204866       0.19400250       2.15782234      -1.38225058       0.94738721
S        1.79138333       2.52841277      -0.17899097       1.04008204      -1.42621006       0.08516389
S        0.41348718      -1.40373865       0.63249897       0.00551020       2.80254955       0.16651564
S        1.10474890       1.75156612       1.63575678       0.27254387      -0.44272949      -0.92407824
C       -0.10405236       0.74865366       0.81639176      -2.37539230      -1.41480077      -0.70103223
H        2.50807339       1.35570861      -0.54137272      -0.73752779       1.51311360       0.36344437
H       -0.65463426      -1.96028247       1.20218223      -0.36469108       0.34620591       0.06230143
