24
Properties=species:S:1:pos:R:3:forces:R:3 id=28416 bond=C-S smiles="[H:12][C:4]([H:13])([H:14])[C:9]([C:5]([H:15])([H:16])[H:17])([C:6]([H:18])([H:19])[H:20])[S:2][S:1][C:7]([H:21])([H:22])[C:8]([H:23])([H:24])[N:3]([H:10])[H:11]" dataset=PubChem energy=-29636.2411960351 pbc="F F F"
S       -0.21237764      -1.20647264       0.40353809       2.29640201       0.55352741       1.50258920
S       -0.54257163       0.80458303       0.87942635       0.30322450      -0.14345979       0.21332513
N        0.33478333      -2.25727600       3.49330165       0.26785409      -0.70654496      -0.67025879
C       -0.23581055       3.35927318      -0.31361602       0.63816637      -0.51806600       1.53625258
C        1.53115222       1.63910352      -0.89379738       0.37183542      -0.67798714       0.62212540
C       -0.86667374       1.47734385      -1.72066352       0.42679891       0.00568569       0.04459189
C        1.53180487      -1.60411019       1.47301378      -1.03523215       0.04675382      -0.28060060
C        1.40623190      -1.41061694       2.98471000      -1.26305327       0.77193263      -0.45968084
C        0.04360357       1.85386800      -0.54113970      -0.52730742       0.16889483      -1.21965338
H        0.03451086      -1.99721283       4.40630104      -0.13676985       0.21927557       0.51950261
H       -0.45614938      -2.19192833       2.85935905       0.09801908       0.02804545       0.25913099
H        0.45068040       3.68410491       0.50374643      -0.77910579       0.24305678      -0.50135502
H        0.04647845       3.86989068      -1.23411188      -0.05310152       0.01590669       0.11672722
H       -1.29920235       3.57823013      -0.08356086       0.76174975      -0.18681613      -0.01040615
H        1.70617756       0.60408977      -1.27473710      -0.19894464       0.74511613       0.39174690
H        1.85749671       2.32704472      -1.68166397      -0.21708309      -0.05621091       0.14573726
H        2.20137128       1.79569625      -0.00421942      -0.73710367      -0.11204589      -0.80219310
H       -0.65736714       0.44614831      -1.93584058      -0.25170850      -0.51348465      -0.47295778
H       -1.92675355       1.60835158      -1.48128639       0.30811072      -0.05527119       0.03575677
H       -0.62458935       2.09289907      -2.58929584       0.02015452      -0.10760006      -0.01927718
H        2.31627710      -0.96875770       1.09360834      -0.11769710       0.32609312      -0.40401611
H        1.81454618      -2.64599556       1.26777383      -0.56444542       0.28092161      -0.21766061
H        2.37096913      -1.64052767       3.43882444      -0.04289045      -0.16825866      -0.01306599
H        1.16766150      -0.35606599       3.21645811       0.43694857      -0.15741085      -0.31674223
