24
Properties=species:S:1:pos:R:3:forces:R:3 id=28416 bond=C-S smiles="[H:12][C:4]([H:13])([H:14])[C:9]([C:5]([H:15])([H:16])[H:17])([C:6]([H:18])([H:19])[H:20])[S:2][S:1][C:7]([H:21])([H:22])[C:8]([H:23])([H:24])[N:3]([H:10])[H:11]" dataset=PubChem energy=-29636.69634678577 pbc="F F F"
S       -0.12057856      -1.22740094       0.45982628       0.68329769       0.75903422       0.40838883
S       -0.45077255       0.78365473       0.93571454       0.23238820       0.02774473       0.19419218
N        0.24298425      -2.23634770       3.43701346       0.27167387      -0.71085990      -0.67032979
C       -0.14401147       3.33834488      -0.25732783       0.63903084      -0.52042588       1.53591944
C        1.62295130       1.61817522      -0.83750919       0.37169040      -0.67094487       0.63001151
C       -0.77487466       1.45641555      -1.66437533       0.42779221       0.00799320       0.04114205
C        1.44000579      -1.58318189       1.41672559      -0.15255922      -0.00536854       0.17286691
C        1.31443282      -1.38968864       2.92842181      -0.86283390       0.65960035      -0.13145866
C        0.13540265       1.83293970      -0.48485151      -0.54736175       0.16355295      -1.22281461
H       -0.05728822      -1.97628453       4.35001285      -0.13717369       0.22116346       0.51075474
H       -0.54794846      -2.17100003       2.80307086       0.07887982       0.01966704       0.28169582
H        0.54247948       3.66317661       0.56003462      -0.77932626       0.24320749      -0.50116848
H        0.13827753       3.84896238      -1.17782369      -0.05171801       0.01586060       0.11558980
H       -1.20740327       3.55730183      -0.02727267       0.76301265      -0.18877565      -0.01071823
H        1.79797664       0.58316147      -1.21844891      -0.19889085       0.74088994       0.38144541
H        1.94929579       2.30611642      -1.62537578      -0.21374100      -0.06114366       0.14348033
H        2.29317036       1.77476795       0.05206877      -0.73690939      -0.10935136      -0.80407713
H       -0.56556806       0.42522001      -1.87955239      -0.25274296      -0.51253048      -0.47418645
H       -1.83495447       1.58742328      -1.42499820       0.31058578      -0.05478731       0.03664971
H       -0.53279027       2.07197077      -2.53300765       0.02022397      -0.10781698      -0.02109701
H        2.22447802      -0.94782940       1.03732015       0.14197887       0.19148530      -0.21332115
H        1.72274710      -2.62506726       1.21148564      -0.35404888       0.24972991      -0.10376061
H        2.27917005      -1.61959937       3.38253625      -0.09735524      -0.16472242       0.04486681
H        1.07586242      -0.33513769       3.16016992       0.44791423      -0.19154925      -0.34485410
