24
Properties=species:S:1:pos:R:3:forces:R:3 id=28416 bond=C-S smiles="[H:12][C:4]([H:13])([H:14])[C:9]([C:5]([H:15])([H:16])[H:17])([C:6]([H:18])([H:19])[H:20])[S:2][S:1][C:7]([H:21])([H:22])[C:8]([H:23])([H:24])[N:3]([H:10])[H:11]" dataset=PubChem energy=-29635.26149420238 pbc="F F F"
S       -0.33860137      -1.17769624       0.32614182       2.56975451       0.71829656       1.80491090
S       -0.66879536       0.83335943       0.80203008       0.34690765      -0.36041955       0.15118059
N        0.46100706      -2.28605240       3.57069792       0.26724144      -0.70060445      -0.66251861
C       -0.36203428       3.38804958      -0.39101229       0.63943886      -0.51552865       1.53100992
C        1.40492849       1.66787992      -0.97119365       0.37371563      -0.68972621       0.61530491
C       -0.99289747       1.50612025      -1.79805979       0.42424632       0.00139263       0.04510287
C        1.65802860      -1.63288659       1.55041005      -0.64444783      -0.16031758       0.07485543
C        1.53245563      -1.43939334       3.06210627      -1.66470930       0.85844095      -0.74383081
C       -0.08262016       1.88264440      -0.61853597      -0.51857949       0.18392428      -1.21237069
H        0.16073459      -2.02598923       4.48369731      -0.13369862       0.21847352       0.52706110
H       -0.32992565      -2.22070473       2.93675532       0.11146537       0.03504506       0.22657175
H        0.32445667       3.71288131       0.42635016      -0.77876270       0.24323760      -0.50115747
H       -0.07974528       3.89866708      -1.31150815      -0.05396198       0.01773986       0.11776415
H       -1.42542608       3.60700653      -0.16095713       0.76053259      -0.18549409      -0.01003792
H        1.57995383       0.63286617      -1.35213337      -0.19953411       0.74897358       0.40294486
H        1.73127298       2.35582112      -1.75906024      -0.22147641      -0.05029147       0.14847489
H        2.07514755       1.82447265      -0.08161569      -0.73609357      -0.11574210      -0.80077442
H       -0.78359087       0.47492471      -2.01323685      -0.25121970      -0.51384966      -0.46821096
H       -2.05297728       1.63712798      -1.55868266       0.30455681      -0.05616132       0.03438089
H       -0.75081308       2.12167547      -2.66669211       0.01963185      -0.10490698      -0.01629827
H        2.44250083      -0.99753410       1.17100461      -0.31423455       0.46327421      -0.58052973
H        1.94076991      -2.67477196       1.34517010      -0.77242224       0.27711471      -0.33842907
H        2.49719286      -1.66930407       3.51622071       0.03272026      -0.17670129      -0.06619205
H        1.29388523      -0.38484239       3.29385438       0.44002028      -0.13537434      -0.28257562
