24
Properties=species:S:1:pos:R:3:forces:R:3 id=28416 bond=C-S smiles="[H:12][C:4]([H:13])([H:14])[C:9]([C:5]([H:15])([H:16])[H:17])([C:6]([H:18])([H:19])[H:20])[S:2][S:1][C:7]([H:21])([H:22])[C:8]([H:23])([H:24])[N:3]([H:10])[H:11]" dataset=PubChem energy=-29636.62541308362 pbc="F F F"
S       -0.06320413      -1.24048112       0.49500640      -1.72072061       1.20076351      -1.14712131
S       -0.39339812       0.77057455       0.97089466       0.15319414       0.15814810       0.15118411
N        0.18560982      -2.22326752       3.40183334       0.27959805      -0.71274494      -0.67032710
C       -0.08663704       3.32526470      -0.22214771       0.64170640      -0.52059585       1.53131908
C        1.68032573       1.60509504      -0.80232907       0.37152434      -0.66612785       0.63629464
C       -0.71750023       1.44333537      -1.62919521       0.42981551       0.01021704       0.03712470
C        1.38263136      -1.57010171       1.38154547       1.67163326      -0.30053995       1.23692039
C        1.25705839      -1.37660846       2.89324169      -0.56453933       0.55914121       0.16082168
C        0.19277708       1.81985952      -0.44967139      -0.57323772       0.16318744      -1.22055515
H       -0.11466265      -1.96320435       4.31483273      -0.13554921       0.22411236       0.50335106
H       -0.60532289      -2.15791985       2.76789074       0.06222946       0.01440094       0.29084321
H        0.59985391       3.65009643       0.59521474      -0.77927548       0.24326438      -0.50068845
H        0.19565196       3.83588220      -1.14264357      -0.05046718       0.01725612       0.11465037
H       -1.15002884       3.54422165       0.00790745       0.76419098      -0.19067813      -0.01086836
H        1.85535107       0.57008129      -1.18326879      -0.19893339       0.73718850       0.37304571
H        2.00667022       2.29303624      -1.59019566      -0.21071448      -0.06494570       0.14179151
H        2.35054479       1.76168777       0.08724889      -0.73634685      -0.10744174      -0.80507028
H       -0.50819363       0.41213983      -1.84437227      -0.25373533      -0.51195063      -0.47351894
H       -1.77758004       1.57434310      -1.38981808       0.31233214      -0.05471746       0.03730923
H       -0.47541584       2.05889059      -2.49782753       0.01988309      -0.10706557      -0.02292855
H        2.16710359      -0.93474922       1.00214003       0.37878572       0.09379579      -0.06277815
H        1.66537267      -2.61198708       1.17630552      -0.19819018       0.20950520      -0.02248112
H        2.22179562      -1.60651919       3.34735613      -0.12604957      -0.16545986       0.08782828
H        1.01848799      -0.32205751       3.12498980       0.46455760      -0.22727072      -0.36501807
