41
Properties=species:S:1:pos:R:3:forces:R:3 id=33891 bond=C-C smiles="[H:26][c:8]1[c:9]([c:13]([c:17]2[c:15]([c:11]3[c:10]([c:14]([c:16]2[c:12]1[H:28])[H:30])[C:5]4=[C:7]([N:18]3[H:32])[C@:24]([N:20]5[C:6](=[C:4]([N:19]([C:3]5=[S:1])[C:22]([H:35])([H:36])[H:37])[O:2][H:25])[C:21]4([H:33])[H:34])([H:41])[C:23]([H:38])([H:39])[H:40])[H:31])[H:29])[H:27]" dataset=PubChem energy=-37351.34158301994 pbc="F F F"
S       -2.02742588       4.93464732       2.39047530       0.16765610      -0.03866763      -0.01497956
O        2.77287162       3.63848900       3.40079071       1.37694963      -0.43307323       0.30094547
C       -0.56150972       4.13680529       2.39833500       0.97795007       0.03004152       0.17506080
C        1.56414771       3.52378153       2.84633567      -0.67659986      -1.23310036      -1.12918728
C        0.62564833       0.46055759       0.70483264      -1.43564153       0.40060679       0.11170112
C        1.08193500       2.55061173       2.00506857       0.00002999       1.10821535       0.72346288
C       -0.63377606       0.96073711       0.40393572       1.53700039      -0.42225608       0.31481252
C        2.33885801      -5.32311177      -0.92831561       1.00455597       1.95719759       1.65197450
C        1.14884115      -5.59728026      -1.56768653      -1.40208279       1.45732043      -0.78954512
C        0.66137296      -0.91489899       0.21999347       3.13369976       0.83833121       1.48087038
C       -0.53898382      -1.18812084      -0.38836238      -1.21078930      -1.15903215      -0.63553943
C        2.52544678      -4.09717870      -0.26244561      -0.14339200      -1.65271199      -0.91522775
C        0.15587116      -4.62940049      -1.61803505      -0.25711270      -2.03981676      -0.82435416
C        1.69363213      -1.86410212       0.29868674      -0.34922601       1.05935005       0.06960730
C       -0.71261322      -2.43848896      -1.00356994      -1.71428768       1.82891102       0.17820480
C        1.50190545      -3.10203290      -0.29258409       1.04331099      -0.77588482       0.02898040
C        0.30251262      -3.38596082      -0.98506877      -0.41652558       0.04279338       0.09239955
N       -1.37025463      -0.07423237      -0.21414617       0.30800002       0.36224265      -0.24225957
N        0.60031656       4.49595808       3.10170557       0.05364317      -0.71787932      -0.64570391
N       -0.21744847       2.98904323       1.71798196      -0.82552718       0.13878973      -0.53032385
C        1.66595650       1.25659108       1.45060667      -0.12169650       1.12663398      -0.23703350
C        0.81538269       5.61075758       4.03851106      -1.28891075       0.04504605      -0.20184017
C       -1.10299274       3.40559630      -0.93748937      -0.19303131      -2.46729556       1.97197930
C       -1.07758271       2.38794660       0.70756672      -0.40840334       0.27403385      -2.28558063
H        3.37476481       2.93973231       3.06045987      -0.81778888       0.81737826       0.34700041
H        3.08840645      -6.08485103      -0.96205470       0.54864422      -0.07241708       0.23760966
H        1.09105266      -6.49234891      -2.14592740      -0.41386035      -0.48998176      -0.10025305
H        3.45882404      -3.89969516       0.26095905      -0.23001814       0.02524830      -0.14045562
H       -0.76587867      -4.88834882      -2.17998288       0.64395527       0.50392514       0.52053959
H        2.67324794      -1.66471315       0.75034132      -0.62570536       0.14914723      -0.05889522
H       -1.68668186      -2.62562490      -1.46462652       0.47776917      -0.26742018      -0.01674242
H       -2.31551110      -0.03322042      -0.55210886       0.16883269       0.24115979       0.03656327
H        2.43445469       1.57964694       0.73851803       0.25116618      -0.42259061       0.13595412
H        2.13732768       0.72074839       2.28180709      -0.09665135      -0.20169580      -0.32438242
H       -0.00633180       6.33750033       3.95461323       0.14716128      -0.56142292      -0.23674942
H        1.72574461       6.15827441       3.85887482       0.40530622      -0.26623850      -0.28451012
H        0.79623172       5.23702931       5.05329277       0.15409960      -0.10032434       0.18610169
H       -0.10013463       3.63309221      -1.26341388       0.41150481      -0.21509725       0.36186841
H       -1.60335716       2.83433346      -1.73456309       0.22631653      -0.22016090       0.61710202
H       -1.65085777       4.30366068      -0.81975482      -0.46876184       0.75742738       0.69087191
H       -2.07786834       2.32876610       1.15270396       0.05752445       0.59303812      -0.62287196
