41
Properties=species:S:1:pos:R:3:forces:R:3 id=33891 bond=C-C smiles="[H:26][c:8]1[c:9]([c:13]([c:17]2[c:15]([c:11]3[c:10]([c:14]([c:16]2[c:12]1[H:28])[H:30])[C:5]4=[C:7]([N:18]3[H:32])[C@:24]([N:20]5[C:6](=[C:4]([N:19]([C:3]5=[S:1])[C:22]([H:35])([H:36])[H:37])[O:2][H:25])[C:21]4([H:33])[H:34])([H:41])[C:23]([H:38])([H:39])[H:40])[H:31])[H:29])[H:27]" dataset=PubChem energy=-37352.08441207972 pbc="F F F"
S       -2.02863588       4.98310683       2.31213929       0.12315037      -0.01991456      -0.00774475
O        2.77166162       3.68694851       3.32245470       1.38947051      -0.43092943       0.30173464
C       -0.56271972       4.18526480       2.31999899       1.04009137      -0.05140802       0.13965324
C        1.56293771       3.57224104       2.76799966      -0.68221320      -1.21671523      -1.11273637
C        0.62443833       0.50901710       0.62649663      -1.47616089       0.41987548       0.10069473
C        1.08072500       2.59907124       1.92673256      -0.04556086       1.10425251       0.72453512
C       -0.63498606       1.00919662       0.32559971       1.60376776      -0.66138313       0.46550583
C        2.33764801      -5.27465226      -1.00665162       1.00344876       1.95697526       1.65141724
C        1.14763115      -5.54882075      -1.64602254      -1.40153841       1.45669943      -0.78942880
C        0.66016296      -0.86643948       0.14165746       3.13844712       0.82569741       1.46689566
C       -0.54019382      -1.13966133      -0.46669839      -1.19777355      -1.17554990      -0.63745463
C        2.52423678      -4.04871919      -0.34078162      -0.14434492      -1.65205933      -0.91492006
C        0.15466116      -4.58094098      -1.69637106      -0.25719122      -2.03952338      -0.82376883
C        1.69242213      -1.81564261       0.22035073      -0.35379648       1.06399860       0.06792390
C       -0.71382322      -2.39002945      -1.08190595      -1.71327499       1.83190180       0.17676705
C        1.50069545      -3.05357339      -0.37092010       1.04126411      -0.77877140       0.02816092
C        0.30130262      -3.33750131      -1.06340478      -0.41419853       0.04165534       0.09304972
N       -1.37146463      -0.02577286      -0.29248218       0.30998259       0.37809658      -0.23507314
N        0.59910656       4.54441759       3.02336956       0.06117483      -0.73217181      -0.65024284
N       -0.21865847       3.03750274       1.63964595      -0.67920655       0.23143276      -0.24462940
C        1.66474650       1.30505059       1.37227066      -0.11760129       1.12489600      -0.23415403
C        0.81417269       5.65921709       3.96017505      -1.28776663       0.04631804      -0.20169269
C       -1.10178274       3.35713679      -0.85915336      -0.20243124      -2.34333948       1.88959291
C       -1.07879271       2.43640611       0.62923071      -0.59315462       0.23770935      -2.34785913
H        3.37355481       2.98819182       2.98212386      -0.81823520       0.81800379       0.34784700
H        3.08719645      -6.03639152      -1.04039071       0.54869650      -0.07249529       0.23753564
H        1.08984266      -6.44388940      -2.22426341      -0.41380050      -0.48996896      -0.10038502
H        3.45761404      -3.85123565       0.18262304      -0.22999786       0.02528527      -0.14037111
H       -0.76708867      -4.83988931      -2.25831889       0.64384022       0.50377115       0.52043693
H        2.67203794      -1.61625364       0.67200531      -0.62549318       0.14943258      -0.05908896
H       -1.68789186      -2.57716539      -1.54296253       0.47740906      -0.26781954      -0.01709665
H       -2.31672110       0.01523909      -0.63044487       0.16560039       0.23412483       0.04043568
H        2.43324469       1.62810645       0.66018202       0.25109371      -0.42328973       0.13985512
H        2.13611768       0.76920790       2.20347108      -0.09820349      -0.20015975      -0.32370659
H       -0.00754180       6.38595984       3.87627722       0.14675350      -0.56106727      -0.23661612
H        1.72453461       6.20673392       3.78053881       0.40529920      -0.26621012      -0.28430109
H        0.79502172       5.28548882       4.97495676       0.15413311      -0.10037321       0.18523419
H       -0.09892463       3.58463270      -1.18507787       0.36848837      -0.14327696       0.21369091
H       -1.60214716       2.78587395      -1.65622708       0.23797180      -0.10902758       0.50615264
H       -1.64964777       4.25520117      -0.74141881      -0.43970242       0.81891781       0.53290232
H       -2.07907834       2.37722561       1.07436795       0.08101428       0.46608461      -0.46977197
