41
Properties=species:S:1:pos:R:3:forces:R:3 id=33891 bond=C-C smiles="[H:26][c:8]1[c:9]([c:13]([c:17]2[c:15]([c:11]3[c:10]([c:14]([c:16]2[c:12]1[H:28])[H:30])[C:5]4=[C:7]([N:18]3[H:32])[C@:24]([N:20]5[C:6](=[C:4]([N:19]([C:3]5=[S:1])[C:22]([H:35])([H:36])[H:37])[O:2][H:25])[C:21]4([H:33])[H:34])([H:41])[C:23]([H:38])([H:39])[H:40])[H:31])[H:29])[H:27]" dataset=PubChem energy=-37351.72686578312 pbc="F F F"
S       -2.02803088       4.95887707       2.35130730       0.14439396      -0.02876170      -0.01144754
O        2.77226662       3.66271875       3.36162271       1.38402436      -0.43198401       0.30162370
C       -0.56211472       4.16103504       2.35916700       1.01025992      -0.01332063       0.15509937
C        1.56354271       3.54801128       2.80716767      -0.67971715      -1.22502046      -1.12090933
C        0.62504333       0.48478734       0.66566464      -1.45763814       0.41220053       0.10674823
C        1.08133000       2.57484148       1.96590057      -0.02399578       1.10600724       0.72336139
C       -0.63438106       0.98496686       0.36476772       1.57076537      -0.53691181       0.38360635
C        2.33825301      -5.29888202      -0.96748361       1.00404756       1.95710540       1.65157742
C        1.14823615      -5.57305051      -1.60685453      -1.40187651       1.45690128      -0.78942170
C        0.66076796      -0.89066924       0.18082547       3.13550723       0.83117046       1.47375197
C       -0.53958882      -1.16389109      -0.42753038      -1.20403016      -1.16752913      -0.63633794
C        2.52484178      -4.07294895      -0.30161361      -0.14371868      -1.65251137      -0.91501265
C        0.15526616      -4.60517074      -1.65720305      -0.25714113      -2.03973244      -0.82419214
C        1.69302713      -1.83987237       0.25951874      -0.35142651       1.06197336       0.06897163
C       -0.71321822      -2.41425921      -1.04273794      -1.71379487       1.83046400       0.17746726
C        1.50130045      -3.07780315      -0.33175209       1.04217706      -0.77746691       0.02843517
C        0.30190762      -3.36173107      -1.02423677      -0.41530043       0.04216527       0.09275544
N       -1.37085963      -0.05000262      -0.25331417       0.30875902       0.37097042      -0.23863239
N        0.59971156       4.52018783       3.06253757       0.05718668      -0.72562026      -0.64810874
N       -0.21805347       3.01327298       1.67881396      -0.75191236       0.18927146      -0.39155057
C        1.66535150       1.28082083       1.41143867      -0.11907046       1.12601146      -0.23595740
C        0.81477769       5.63498733       3.99934306      -1.28837943       0.04567221      -0.20166544
C       -1.10238774       3.38136655      -0.89832137      -0.19553774      -2.48837967       2.05918692
C       -1.07818771       2.41217635       0.66839872      -0.50385427       0.33974728      -2.44472519
H        3.37415981       2.96396206       3.02129187      -0.81809677       0.81777659       0.34746171
H        3.08780145      -6.06062128      -1.00122270       0.54864192      -0.07242840       0.23756287
H        1.09044766      -6.46811916      -2.18509540      -0.41384456      -0.48994696      -0.10026762
H        3.45821904      -3.87546541       0.22179105      -0.23009683       0.02525748      -0.14045203
H       -0.76648367      -4.86411907      -2.21915088       0.64391556       0.50385797       0.52049002
H        2.67264294      -1.64048340       0.71117332      -0.62569327       0.14928192      -0.05902119
H       -1.68728686      -2.60139515      -1.50379452       0.47756941      -0.26763894      -0.01692330
H       -2.31611610      -0.00899067      -0.59127686       0.16731558       0.23757323       0.03856463
H        2.43384969       1.60387669       0.69935003       0.25111443      -0.42299295       0.13815382
H        2.13672268       0.74497814       2.24263909      -0.09746801      -0.20075708      -0.32410874
H       -0.00693680       6.36173008       3.91544523       0.14695406      -0.56129159      -0.23668194
H        1.72513961       6.18250416       3.81970682       0.40528657      -0.26627726      -0.28439371
H        0.79562672       5.26125906       5.01412477       0.15413426      -0.10031362       0.18562289
H       -0.09952963       3.60886246      -1.22424588       0.38961620      -0.18251126       0.29473309
H       -1.60275216       2.81010371      -1.69539509       0.23339742      -0.16817464       0.56700804
H       -1.65025277       4.27943093      -0.78058682      -0.45450039       0.78368224       0.61805327
H       -2.07847334       2.35299585       1.11353596       0.07120426       0.53246131      -0.55166988
