41
Properties=species:S:1:pos:R:3:forces:R:3 id=33891 bond=C-C smiles="[H:26][c:8]1[c:9]([c:13]([c:17]2[c:15]([c:11]3[c:10]([c:14]([c:16]2[c:12]1[H:28])[H:30])[C:5]4=[C:7]([N:18]3[H:32])[C@:24]([N:20]5[C:6](=[C:4]([N:19]([C:3]5=[S:1])[C:22]([H:35])([H:36])[H:37])[O:2][H:25])[C:21]4([H:33])[H:34])([H:41])[C:23]([H:38])([H:39])[H:40])[H:31])[H:29])[H:27]" dataset=PubChem energy=-37352.55208452436 pbc="F F F"
S       -2.02984588       5.03156634       2.23380329       0.08704585      -0.00645374      -0.00042475
O        2.77045162       3.73540802       3.24411870       1.39656272      -0.42897338       0.30085295
C       -0.56392972       4.23372431       2.24166299       1.09145330      -0.11824041       0.11980341
C        1.56172771       3.62070055       2.68966366      -0.68452754      -1.19864037      -1.09756191
C        0.62322833       0.55747661       0.54816063      -1.50701152       0.43194725       0.08919387
C        1.07951500       2.64753075       1.84839656      -0.08506787       1.10081273       0.72810302
C       -0.63619606       1.05765613       0.24726371       1.67464468      -0.95503782       0.68216049
C        2.33643801      -5.22619275      -1.08498762       1.00275025       1.95678968       1.65088524
C        1.14642115      -5.50036124      -1.72435854      -1.40110084       1.45637947      -0.78919603
C        0.65895296      -0.81797997       0.06332146       3.14629498       0.81263935       1.45191162
C       -0.54140382      -1.09120182      -0.54503439      -1.18731253      -1.18929816      -0.64152621
C        2.52302678      -4.00025968      -0.41911762      -0.14489412      -1.65179326      -0.91433619
C        0.15345116      -4.53248147      -1.77470706      -0.25744905      -2.03935425      -0.82344526
C        1.69121213      -1.76718310       0.14201473      -0.35664874       1.06793684       0.06613349
C       -0.71503322      -2.34156994      -1.16024195      -1.71273036       1.83512508       0.17506941
C        1.49948545      -3.00511388      -0.44925610       1.03967126      -0.78171222       0.02796161
C        0.30009262      -3.28904180      -1.14174078      -0.41220790       0.04041762       0.09368211
N       -1.37267463       0.02268665      -0.37081818       0.31332520       0.38920026      -0.22747475
N        0.59789656       4.59287710       2.94503356       0.07048208      -0.74098444      -0.65380611
N       -0.21986847       3.08596225       1.56130995      -0.53985517       0.28791252       0.09115780
C        1.66353650       1.35351010       1.29393466      -0.11371068       1.12311031      -0.22995332
C        0.81296269       5.70767660       3.88183905      -1.28618598       0.04803723      -0.20203689
C       -1.10057274       3.30867728      -0.78081736      -0.24353698      -1.25921745       0.30545120
C       -1.08000271       2.48486562       0.55089471      -0.74027407      -0.75526528      -0.92858247
H        3.37234481       3.03665133       2.90378786      -0.81839496       0.81830295       0.34852765
H        3.08598645      -5.98793201      -1.11872671       0.54868447      -0.07243746       0.23744502
H        1.08863266      -6.39542989      -2.30259941      -0.41377967      -0.48987146      -0.10038633
H        3.45640404      -3.80277614       0.10428704      -0.23008988       0.02528976      -0.14036511
H       -0.76829867      -4.79142980      -2.33665489       0.64383620       0.50371806       0.52040534
H        2.67082794      -1.56779413       0.59366931      -0.62538516       0.14963940      -0.05937987
H       -1.68910186      -2.52870588      -1.62129853       0.47722959      -0.26808224      -0.01738129
H       -2.31793110       0.06369860      -0.70878087       0.16198225       0.22717818       0.04398908
H        2.43203469       1.67656596       0.58184602       0.25073026      -0.42416205       0.14291759
H        2.13490768       0.81766741       2.12513508      -0.09947479      -0.19898819      -0.32355263
H       -0.00875180       6.43441935       3.79794122       0.14656213      -0.56055474      -0.23644834
H        1.72332461       6.25519343       3.70220281       0.40509029      -0.26596769      -0.28404103
H        0.79381172       5.33394833       4.89662076       0.15406204      -0.10052245       0.18432273
H       -0.09771463       3.53617319      -1.10674187       0.32955525      -0.04324075       0.00252289
H       -1.60093716       2.73741444      -1.57789108       0.23707306       0.03801049       0.35004391
H       -1.64843777       4.20674166      -0.66308281      -0.40740462       0.92264699       0.32063888
H       -2.08028834       2.42568512       0.99603195       0.09016410       0.31174936      -0.26729587
