15
Properties=species:S:1:pos:R:3:forces:R:3 id=37296 bond=C-S smiles="[H:13][c:8]1[c:7]([c:5]([n:2][c:4]([c:6]1[H:11])[Cl:1])[C:9]([H:14])([H:15])[S:3][H:10])[H:12]" dataset=PubChem energy=-31173.151314268773 pbc="F F F"
Cl       2.83734068       3.43471572       1.48366721      -0.51074659      -0.83807158      -0.23939440
N        1.83727417       0.94695437       1.09930306       0.12293156       1.75620512       0.41025713
S        0.66532933      -1.92926948      -2.06347082       0.41620079       0.55674045       2.01729095
C        1.54527470       2.23003683       1.38747647      -0.16424616      -1.56480528       0.06442875
C        0.83482306       0.05871949       1.16511556       0.15047734      -0.79210674      -1.44517798
C        0.25142023       2.65631506       1.69788488      -0.48929743       0.37953383      -0.08190173
C       -0.47354784       0.40500662       1.44295617      -1.07044410       1.03130190       0.35328377
C       -0.81281438       1.73356911       1.69729139       0.83054490       0.12568169       0.55132601
C        1.15225622      -1.35748437       0.85821392       0.37084236       1.00631693       0.84303829
H        1.33806498      -0.86095874      -2.55417249      -0.12474890      -0.22783816       0.35246592
H        0.13416892       3.71683952       1.92031969      -0.24660737      -0.40380726      -0.03230859
H       -1.26517036      -0.31832686       1.48222475       0.05841476      -0.42532968      -0.11426464
H       -1.84558764       1.99571261       2.00822057       0.97433162      -0.01504269      -0.48416339
H        2.20756588      -1.52824929       1.04507497       0.09466239      -0.27634295      -1.04297712
H        0.56877869      -2.02759245       1.49292817      -0.41366892      -0.31308958      -1.15246570
