22
Properties=species:S:1:pos:R:3:forces:R:3 id=33414 bond=C-O smiles="[H:12]/[C:4](=[C:5]1/[C:7]([O:2][C:6]([O:3][C:10]1([C:8]([H:17])([H:18])[H:19])[C:9]([H:20])([H:21])[H:22])([H:13])[H:14])([H:15])[H:16])/[O:1][H:11]" dataset=PubChem energy=-13583.567864718338 pbc="F F F"
O       -1.46490787      -1.60008924      -0.04242324     -61.36938141    -110.51600840      29.83482146
O        1.22208754      -0.33546259       2.53758052       0.51904777       0.44662536       0.36773498
O        1.99063114       0.90027204       0.66274091       1.29828171      -0.01909954       1.13239615
C       -1.08728751      -0.87707164      -0.23920223      59.81822146     109.13989091     -28.28298826
C        0.01490790      -0.44016489       0.49144217       1.77710030       3.73799527      -1.27905360
C        2.25299230       0.54327304       2.02271190      -2.37629234      -0.10170177      -0.90922243
C        0.70123011      -1.24172392       1.55963043       0.18919569       0.72756969      -0.89046524
C       -0.28132728       2.02337560       0.84972045       1.07044888       0.35339381       0.46510723
C        0.77702114       1.23316285      -1.28296038      -0.45956087       0.02925783       0.08883654
C        0.64670788       0.94441930       0.22412673      -1.27358807      -0.90689140      -0.35071934
H       -1.42659305      -1.72412865       0.91574589      -0.09195521      -3.24303325       1.39991080
H       -1.49498519      -0.17615034      -0.95073839       0.07516518       1.24990801      -1.98324338
H        3.22141054       0.08866442       2.09574786       0.49870364      -0.41632709      -0.35356962
H        2.23506155       1.44532321       2.61932758      -0.20495537       0.04444389       0.45436045
H        1.56100205      -1.75127079       1.09124217      -0.27302801      -0.48056060       0.49379473
H        0.02536247      -1.96510985       2.07715133       0.57360713       0.16901925      -0.03564531
H       -0.48713192       1.80216823       1.90599779       0.26437323       0.13536230      -0.27371419
H       -1.23902377       1.97010610       0.34275896      -0.00075816       0.06361935      -0.15225218
H        0.14113164       3.04301760       0.74217979      -0.26908837      -0.43708906       0.09812479
H       -0.23943064       1.39108476      -1.66513940       0.35155215      -0.01482186      -0.15429603
H        1.21921811       0.37686184      -1.80917545      -0.00858287       0.39477408       0.22920029
H        1.34984646       2.15439544      -1.46229049      -0.10336892      -0.35272231       0.09831962
