22
Properties=species:S:1:pos:R:3:forces:R:3 id=33414 bond=C-O smiles="[H:12]/[C:4](=[C:5]1/[C:7]([O:2][C:6]([O:3][C:10]1([C:8]([H:17])([H:18])[H:19])[C:9]([H:20])([H:21])[H:22])([H:13])[H:14])([H:15])[H:16])/[O:1][H:11]" dataset=PubChem energy=-13600.137362911 pbc="F F F"
O       -1.74570251      -2.13771771       0.10389959       1.65893100       3.33785322      -1.55170822
O        1.50288218       0.20216588       2.39125769       0.56398909       0.65141604      -0.01045338
O        2.27142578       1.43790051       0.51641808       0.71335316      -0.26792402       0.81304404
C       -0.80649287      -0.33944317      -0.38552506       2.54172488      -0.70780082       3.85569274
C        0.29570254       0.09746358       0.34511934      -3.32793995      -2.13223085      -1.77232275
C        2.53378694       1.08090151       1.87638907      -2.23633631      -0.15774525      -0.44086200
C        0.98202475      -0.70409545       1.41330760       0.53473503       0.15164125       0.17147485
C       -0.00053264       2.56100407       0.70339762       0.72747436      -0.00970367       0.56303026
C        1.05781578       1.77079132      -1.42928321      -0.50815145      -0.15232957       0.02021296
C        0.92750252       1.48204777       0.07780390      -0.61114982       0.02050335      -0.73126848
H       -1.70738769      -2.26175712       1.06206872       0.28766407       0.70040202      -0.08120393
H       -1.21419055       0.36147813      -1.09706122      -1.16481772      -1.09970352      -0.38379891
H        3.50220518       0.62629289       1.94942503       0.47612069      -0.40575759      -0.37991464
H        2.51585619       1.98295168       2.47300475      -0.18384489       0.04296749       0.40493220
H        1.84179669      -1.21364232       0.94491934      -0.43019420      -0.25115601       0.14016774
H        0.30615711      -1.42748138       1.93082850       0.71821629       0.71362168      -0.52838230
H       -0.20633728       2.33979670       1.75967496       0.23383312       0.17773978      -0.26812225
H       -0.95822913       2.50773457       0.19643613      -0.00303464       0.07489392      -0.11291689
H        0.42192628       3.58064607       0.59585696      -0.18004827      -0.65367297       0.06158952
H        0.04136400       1.92871323      -1.81146223       0.34773041      -0.02121818      -0.15559887
H        1.50001275       0.91449031      -1.95549828      -0.02381377       0.41522422       0.20014425
H        1.63064110       2.69202391      -1.60861332      -0.13133374      -0.42546293       0.18656750
