50
Properties=species:S:1:pos:R:3:forces:R:3 id=21184 bond=C-C smiles="[H:21][C:1]1([C:2]([C:13]1([H:45])[C:19]([C:14]2([C:3]([C:4]2([H:27])[H:28])([H:25])[H:26])[H:46])([C:15]3([C:5]([C:6]3([H:31])[H:32])([H:29])[H:30])[H:47])[C:20]([C:16]4([C:7]([C:8]4([H:35])[H:36])([H:33])[H:34])[H:48])([C:17]5([C:9]([C:10]5([H:39])[H:40])([H:37])[H:38])[H:49])[C:18]6([C:11]([C:12]6([H:43])[H:44])([H:41])[H:42])[H:50])([H:23])[H:24])[H:22]" dataset=PubChem energy=-21237.008030708428 pbc="F F F"
C       -2.16135545       0.89917440      -1.36467315      -0.03959460       0.77774452       0.39384907
C       -2.97053619       0.44678039      -0.18863828       0.83174245      -1.18171464       0.33830867
C        0.19270940      -2.50099053       0.59221013      -0.07325064       0.93906232       0.73799126
C       -1.31594130      -2.41793742       0.48952317       0.11675203       0.10295880       0.53013265
C       -0.38805785       0.84635613       3.41267942      -0.39431573       0.67530405       0.21990173
C       -0.15389415      -0.60441842       3.32972811       0.53459235      -1.01970394      -0.11971717
C        1.99597148       3.47555528       0.45165568       0.73156664      -0.37240114      -0.06544254
C        0.73010463       3.62939320      -0.32028611      -0.58921835       0.16232360       1.27896787
C        0.77610657       0.89094005      -2.48934294       0.74154277       0.04847380       0.02876954
C        2.23613218       1.25808237      -2.19472791       0.19353664      -0.96354170      -0.05533300
C        3.15210224       0.84422786       2.43134075      -0.07204887      -0.20081647      -0.35094480
C        3.91423655       0.58616293       1.14079487      -0.51892087      -0.43332267       0.39100337
C       -1.58743401       1.05450724       0.04771067      -0.16368728      -0.36168465      -0.35985405
C       -0.45947739      -1.25554742       0.01904874       0.03144948       0.78621807       0.28708065
C       -0.88015338       0.10719268       2.18993019       0.39387667      -0.34319979      -0.71121950
C        0.89813487       2.44137726       0.61228952       0.39521238      -0.91503553       0.41696557
C        1.40186326       0.44751191      -1.19505407       0.33995012       0.91618870       1.00211500
C        2.44419814       0.14547101       1.27545953      -1.12133265       0.81395758      -0.66874779
C       -0.40443029       0.23156414       0.65972974      -0.83487118      -1.87129064       0.25193328
C        1.00097743       0.88746406       0.26528604       1.59463331       0.15667836       1.19872528
H       -1.73390122       0.15627325      -2.03460075      -0.21397259       0.25150334       0.28906849
H       -2.52157327       1.82560918      -1.83609916       0.42382447      -0.57466749       0.04802328
H       -3.80272718       1.03223727       0.13317611      -0.37359192       0.29059449       0.00003442
H       -3.10410353      -0.63841989      -0.03189524       0.19755752       0.83212951      -0.16105646
H        0.62719258      -2.41536846       1.59512208      -0.26252185      -0.15196563      -0.59989228
H        0.75286261      -3.10118260      -0.10696418      -0.09191881      -0.18316247       0.03794796
H       -1.87235542      -2.26842036       1.43680631       0.50711780      -0.28258585      -0.79610338
H       -1.78335997      -3.09445347      -0.23512818       0.03482456       0.60877189       0.26322970
H       -1.13426991       1.10006247       4.16723631       0.23856828       0.44615364      -0.44331416
H        0.47422081       1.49702857       3.33410691      -0.19585283      -0.07909503       0.04131106
H       -0.76913925      -1.22183933       4.00056980       0.46004330       0.16950531      -0.50897820
H        0.89794106      -0.92054882       3.22410772      -0.88063378       0.12483436      -0.09453642
H        2.16934184       4.10093031       1.31587683      -0.09359231       0.14945263      -0.10952555
H        2.92484096       3.26827655      -0.08858199      -0.56317092      -0.18813434       0.18468323
H        0.04982022       4.40865956       0.04700182       0.19564133      -0.44939100      -0.46842297
H        0.73207704       3.45434079      -1.36162401       0.06974646       0.02562918      -0.78573490
H        0.07070041       1.71593044      -2.43529345       0.15346471      -0.36665457      -0.17740427
H        0.59513152       0.11584047      -3.24407960      -0.09233565       0.50072904       0.35692575
H        2.47809747       2.30710063      -2.03238465      -0.19578529      -0.40578680       0.10086823
H        3.06500963       0.68540291      -2.69126536      -1.09917854       0.69796425       0.44387460
H        2.84748030       1.84700567       2.68519121       0.06557848       0.18197277      -0.23963571
H        3.46811724       0.28045771       3.32032090      -0.36199807       0.06082857      -0.56325561
H        4.74902153      -0.13615977       1.18897795      -0.90283363       0.13167053      -0.07444713
H        4.16603518       1.39298964       0.48530653      -0.20151716       0.47845282      -0.08818023
H       -1.66108604       2.05021594       0.48486636       0.16986987      -0.21707141      -0.33552565
H       -0.35476389      -1.20172813      -1.05838372      -0.15266951      -0.02779948       0.19680548
H       -1.97046324      -0.08044442       2.18577610       0.90222944       0.17255850       0.04444214
H        0.35919811       2.62579546       1.56421874       0.40849563      -0.51882127      -0.84711843
H        1.68334893      -0.59914889      -1.16955544       0.02825298       0.20599175      -0.08940262
H        2.33050132      -0.92745357       1.43854630      -0.27216301       0.39876210      -0.37051783
