36
Properties=species:S:1:pos:R:3:forces:R:3 id=41057 bond=C-O smiles="[H:36][C@:17]1([C@@:15]([C@@:13]([C:12]([C@@:14]([C@@:16]1([H:35])[O:6][H:23])([C:11]([H:29])([H:30])[O:3][H:20])[O:4][H:21])([H:31])[H:32])([H:33])[N:8]([C:9]([H:25])([H:26])[O:1][H:18])[C:10]([H:27])([H:28])[O:2][H:19])([H:34])[O:5][H:22])[O:7][H:24]" dataset=PubChem energy=-25474.477195506843 pbc="F F F"
O       -1.26478309       2.47864151      -0.66754333      -1.16655946       1.92856102      -1.60040437
O        0.95632158       0.22736764      -2.96134368       0.19418633      -0.62566842      -0.76256127
O        2.28042989       1.69498181       4.05730089      -0.29775302       0.02461613      -0.22638304
O       -1.39337672       1.06236763       1.40821465       2.46811309      -0.93207746       1.23344035
O        2.57739168      -1.28374743      -1.12563303       0.22540728       0.04912276       0.43253659
O        0.10902470      -1.25244713       3.01941474       0.22481459       0.60832467      -0.07715396
O        1.76438593      -2.60024678       1.15234428       0.76862989      -0.67944275       0.57720263
N        0.38242059       1.02351433      -0.89557615       0.59870114      -0.29452546       0.72552142
C       -0.00768066       2.39694261      -1.26934305      -0.13214326      -0.83115208       1.68138438
C       -0.01251203       0.10706454      -1.94836060       1.26936891       0.32626540       0.66892937
C        0.91955455       1.62474072       3.53560074      -0.92794261       0.75968694       0.51689785
C        1.74644386       1.58704722       1.16849943      -1.78756220       0.48897606      -1.15676321
C        1.70803159       0.92670688      -0.25246028       0.81633275      -0.43803932      -0.05697690
C        0.83585532       0.89100805       2.18427619       2.61508303       0.11354865      -0.07652769
C        2.33723968      -0.48317069       0.03618559      -0.74811693      -0.88223464       0.20386830
C        1.20605904      -0.60356772       2.33717986      -2.97536409       0.60058536      -1.50988306
C        1.39812332      -1.26074875       0.96609619      -2.12799166       0.29341706      -0.16192769
H       -1.19955749       2.17943454       0.25530552       0.17543980       0.48717757       0.06438851
H        1.76610690      -0.12137264      -2.54877869      -0.38234132      -0.05725710      -0.60477063
H        2.33040290       2.20224035       4.90532883      -0.61365578      -0.72309465      -1.34102544
H       -1.39957620       0.71525147       0.48002571       0.62536174      -0.32762861       1.30106855
H        2.94384974      -2.12310970      -0.78511349      -0.41065813       0.54443683      -0.45240075
H       -0.69877095      -0.71804667       2.81567677       0.84637917      -0.64569669      -0.05834950
H        1.33393174      -2.93755042       1.96511968       0.23276494       0.40015546      -0.83827570
H        0.65231922       3.15534818      -0.80562106       0.11629167      -0.48498376      -0.46730224
H       -0.03328556       2.53515065      -2.36254207      -0.25967922      -0.01132008       0.52329948
H       -1.00651044       0.39583282      -2.29183927       0.29501927       0.09605468      -0.18526954
H       -0.05985564      -0.91865551      -1.58358375       0.02726894       0.00846665       0.06779948
H        0.52378487       2.62922680       3.39865764       0.00531830       0.05780032      -0.06349799
H        0.29561662       1.12248099       4.25335368      -0.27695803      -0.27753399       0.25058133
H        2.78154152       1.56879687       1.51513072      -0.15899892      -0.31721842       0.39011910
H        1.50946038       2.66490686       1.13041209      -0.10601691      -0.53178276      -0.06941953
H        2.42417007       1.44641340      -0.89750353       0.25107778       0.04972850       0.25047325
H        3.29217415      -0.37722802       0.56670154      -0.06671800       0.48067962      -0.19190312
H        2.13874619      -0.72850525       2.87107976       0.06820897       0.36432745       0.62241042
H        0.39762205      -1.29012096       0.46627542       0.61457206       0.37568741       0.38529845
