44
Properties=species:S:1:pos:R:3:forces:R:3 id=44849 bond=C-C smiles="[H:28][c:10]1[c:12]([c:11]([c:9]([n:1][c:8]1[H:26])[H:27])[H:29])[C:19]([C:16](/[C:5](=[C:2](/[C:13]([H:30])([H:31])[H:32])[H:20])/[H:23])([H:39])[H:40])([C:17](/[C:6](=[C:3](/[C:14]([H:33])([H:34])[H:35])[H:21])/[H:24])([H:41])[H:42])[C:18](/[C:7](=[C:4](/[C:15]([H:36])([H:37])[H:38])[H:22])/[H:25])([H:43])[H:44]" dataset=PubChem energy=-20543.685948993236 pbc="F F F"
N       -3.21600311       1.81798704       2.70926325      -0.05754047      -1.29648624       0.38316970
C        1.80343503      -3.10912100       1.29460769     -46.70578668     120.89391190    -116.21184643
C        3.62153036       2.13732822       1.59631859      -2.05479215       0.92757317       0.81541578
C       -0.13580900       0.21316916      -2.63107378      -1.47643865       2.40618503       2.97555628
C        0.82907984      -2.15032045       1.49601292       0.15513000       1.72019203      -2.19891650
C        2.29492885       2.01682706       1.93964927       2.95491818      -0.73660432      -1.43721653
C       -0.36484831       0.93617089      -1.46126492       1.24001042      -2.01183216      -2.74716932
C       -2.19578212       2.61981447       2.39488153       0.28180058      -0.32453392      -0.65912221
C       -3.05086439       0.48459841       2.51633113       1.52539949       0.74284327      -0.85770123
C       -1.03401773       2.15544076       1.75815140      -0.33281093       0.56609580       0.56293760
C       -1.86908787      -0.04524408       1.91710060      -0.76676248       0.34020841       0.44810948
C       -0.84046178       0.78879820       1.50320773       0.25329248       1.09598130       0.19191620
C        2.01099643      -3.65921310       1.84601557      44.16957549    -117.24287975     117.57048173
C        4.32787449       3.46515615       1.72091650      -1.06225767       0.64736912       0.23844687
C       -1.26116877       0.03872027      -3.60306961       0.72800148      -0.71360874      -0.55988717
C        0.50166027      -1.12552039       0.45013632       0.11046840      -0.42528303      -0.21793435
C        1.68486113       0.65185045       1.86034732      -0.41059738      -0.33820984       0.19782527
C        0.71044014       1.15886594      -0.45634992       0.28799876       0.93558961       0.19837747
C        0.48557254       0.36342936       0.85537679       0.48522479       0.19551905       0.27254141
H        2.38588853      -3.03338043       0.40219664      -0.49529206       1.07475224      -2.27751614
H        4.21719534       1.30806334       1.21801059      -0.40268208      -0.03966073       0.12413688
H        0.86327114      -0.14621912      -2.82954080      -0.02387629      -0.13612120      -0.11129886
H        0.26733155      -2.14560191       2.45114546       0.66044242      -0.26429726      -0.50874999
H        1.75691790       2.88815911       2.27303736      -0.09753352       0.02772290       0.17046061
H       -1.35235183       1.31224210      -1.22720844      -0.05080527      -0.02788212      -0.13760707
H       -2.31965892       3.69803126       2.61114864       0.04127006      -0.78846163      -0.16495479
H       -3.84069603      -0.21554266       2.80134408       0.11406925       0.55612486      -0.01794294
H       -0.27859133       2.90462692       1.51803046      -0.22228767      -0.40865540      -0.04671827
H       -1.74705117      -1.10420506       1.78280299      -0.26296696      -0.24769714       0.04873006
H        3.06465981      -3.60902217       1.99868309       1.95649594      -1.77918076       1.44678838
H        1.75150153      -4.62371543       1.43786370       0.78251526      -2.65767389       0.66687337
H        1.51767096      -3.49214986       2.79434001       0.10666398      -1.82290671       1.81901346
H        5.36560852       3.36038859       2.02819042       0.01930325       0.09875713      -0.17712169
H        4.23218853       4.03221376       0.77267415       0.45268483      -0.29972941       0.44841081
H        3.78865058       4.07596763       2.49126403       0.60949395      -0.43937281      -0.62449574
H       -0.97869807       0.41495748      -4.59268887      -0.09921926      -0.15686914       0.08026860
H       -2.12367218       0.58235531      -3.27623970      -0.46142275       0.26665911       0.20024784
H       -1.54171007      -1.01959054      -3.70801336       0.08713580       0.26452516      -0.08602028
H        1.26620490      -1.22948913      -0.37570829      -1.04300276      -0.00051126       0.75629767
H       -0.49140554      -1.40343766       0.07831674       0.24122529       0.41113496      -0.56696186
H        2.54448063      -0.02556352       1.66214775      -0.89971572       0.15997972      -0.02867932
H        1.32204921       0.43328427       2.87221878       0.03568331      -0.35007582      -0.21424220
H        0.81360034       2.25634189      -0.27569516      -0.15210742      -0.79326238       0.13998623
H        1.68374498       0.86349197      -0.86803324      -0.22073631      -0.03040820       0.09637315
