44
Properties=species:S:1:pos:R:3:forces:R:3 id=44849 bond=C-C smiles="[H:28][c:10]1[c:12]([c:11]([c:9]([n:1][c:8]1[H:26])[H:27])[H:29])[C:19]([C:16](/[C:5](=[C:2](/[C:13]([H:30])([H:31])[H:32])[H:20])/[H:23])([H:39])[H:40])([C:17](/[C:6](=[C:3](/[C:14]([H:33])([H:34])[H:35])[H:21])/[H:24])([H:41])[H:42])[C:18](/[C:7](=[C:4](/[C:15]([H:36])([H:37])[H:38])[H:22])/[H:25])([H:43])[H:44]" dataset=PubChem energy=-20570.377448952568 pbc="F F F"
N       -3.50065875       2.57239906       1.95304674      -0.03997524      -1.31610127       0.37057099
C        1.51877939      -2.35470898       0.53839118      -2.50927086       1.97307274       1.91726689
C        3.33687472       2.89174024       0.84010208      -2.05240468       0.91409516       0.79773711
C       -0.42046464       0.96758118      -3.38729029      -1.47920582       2.37921680       2.96931735
C        0.54442420      -1.39590843       0.73979641       2.13844663      -2.70291703       1.26349964
C        2.01027321       2.77123908       1.18343276       2.94443400      -0.70479954      -1.44779285
C       -0.64950395       1.69058291      -2.21748143       1.20596683      -2.01691293      -2.73892167
C       -2.48043776       3.37422649       1.63866502       0.27842612      -0.32491842      -0.65690189
C       -3.33552003       1.23901043       1.76011462       1.49937602       0.74630762      -0.84643917
C       -1.31867337       2.90985278       1.00193489      -0.29820942       0.56655303       0.54559687
C       -2.15374351       0.70916794       1.16088409      -0.74215925       0.34807605       0.43199916
C       -1.12511742       1.54321022       0.74699122       0.18941938       1.07351417       0.20834994
C        2.29565207      -4.41362512       2.60223208      -0.43574660       0.14708481      -0.31016335
C        4.04321885       4.21956817       0.96469999      -1.06611091       0.64455913       0.25064825
C       -1.54582441       0.79313229      -4.35928612       0.72200601      -0.71188080      -0.55957279
C        0.21700463      -0.37110837      -0.30608019       0.54276227      -0.36016995      -0.64879373
C        1.40020549       1.40626247       1.10413081      -0.35294222      -0.38546107       0.21155790
C        0.42578450       1.91327796      -1.21256643       0.30681770       0.86069090       0.14490047
C        0.20091690       1.11784138       0.09916028       0.49794827       0.25782557       0.46501206
H        2.10123289      -2.27896841      -0.35401987       0.80332657      -0.77561307      -0.30486926
H        3.93253970       2.06247536       0.46179408      -0.40286922      -0.04023724       0.13103599
H        0.57861550       0.60819290      -3.58575731      -0.02063935      -0.13429411      -0.11714119
H       -0.01732409      -1.39118989       1.69492895       0.31774753       0.01469408      -0.73075538
H        1.47226226       3.64257113       1.51682085      -0.09836756       0.02059947       0.17535911
H       -1.63700747       2.06665412      -1.98342495      -0.04741257      -0.02280177      -0.13909918
H       -2.60431456       4.45244328       1.85493213       0.04478020      -0.79349525      -0.16680586
H       -4.12535167       0.53886936       2.04512757       0.11904473       0.55687432      -0.01951663
H       -0.56324697       3.65903894       0.76181395      -0.22426000      -0.40933385      -0.04334116
H       -2.03170681      -0.34979304       1.02658648      -0.29009114      -0.24400761       0.06378424
H        3.34931545      -4.36343419       2.75489960       0.72997782       0.67701554      -0.49567966
H        2.03615717      -5.37812745       2.19408021      -0.40343651       0.21902002      -0.64502900
H        1.80232660      -4.24656188       3.55055652      -0.53959405       0.65257383      -0.30977340
H        5.08095288       4.11480061       1.27197391       0.01372620       0.09407585      -0.17990043
H        3.94753289       4.78662578       0.01645764       0.45015927      -0.30579568       0.44809633
H        3.50399494       4.83037965       1.73504752       0.60913784      -0.43947852      -0.62503820
H       -1.26335371       1.16936950      -5.34890538      -0.09462052      -0.15917202       0.08835201
H       -2.40832782       1.33676733      -4.03245621      -0.46002548       0.26711863       0.19978823
H       -1.82636571      -0.26517852      -4.46422987       0.09485242       0.27000427      -0.08522306
H        0.98154926      -0.47507711      -1.13192480      -1.04522135      -0.00192647       0.72774103
H       -0.77606118      -0.64902564      -0.67789977       0.32574651       0.20311522      -0.38541770
H        2.25982499       0.72884850       0.90593124      -0.89200731       0.16854793      -0.01728871
H        1.03739357       1.18769629       2.11600227       0.02684622      -0.35170125      -0.20931491
H        0.52894470       3.01075391      -1.03191167      -0.14965517      -0.83023192       0.17606695
H        1.39908934       1.61790399      -1.62424975      -0.21732033      -0.02283996       0.09632137
