14
Properties=species:S:1:pos:R:3:forces:R:3 id=26257 bond=C-C smiles="[H:13][C:5]([H:14])([C:4]([H:11])([H:12])[N:2]([H:7])[H:8])[C:3]([H:9])([H:10])[S:1][H:6]" dataset="DES370K Monomers" energy=-15574.508699395064 pbc="F F F"
S       -0.38830243      -0.07327987       1.31705030       0.24515462      -0.85071360      -0.38037290
N        0.82342237       0.90144897      -2.87758788      -0.90908488      -1.32751993      -1.62494798
C        1.21939963      -0.27992607       0.42749151       2.29982832       0.58312510       1.84814090
C        0.60148387       0.42189870      -1.40681000     -53.70879554     -11.33980780     -38.08855020
C        1.41211004       0.60685234      -0.86887185      53.73567563      12.12809381      37.39203974
H       -0.02397736      -0.93134833       2.30028280      -0.14902006       0.38498975      -0.23550310
H        1.56512004       0.38670028      -3.47658833      -1.72047890       0.85198216       2.11172774
H        0.99926966       1.87788380      -2.97909864       0.09416386       0.62439126       0.26054723
H        1.62061614      -1.33437610       0.29836612      -1.08629397       1.26918198      -0.25473413
H        1.85868830       0.20302375       1.12608560       0.95355717      -0.12335560       0.77355666
H        0.37829099      -0.61280917      -1.44890507      -1.39130549      -1.46937113      -1.45132155
H       -0.23431069       0.93263663      -0.77631761      -0.99956198      -1.21335030      -2.73543094
H        2.40498919       0.31883612      -1.36760906      -0.49621952       0.43378598       1.42587459
H        1.25923437       1.70226275      -0.66494916       3.13429111       0.04672902       0.95920525
