14
Properties=species:S:1:pos:R:3:forces:R:3 id=26257 bond=C-C smiles="[H:13][C:5]([H:14])([C:4]([H:11])([H:12])[N:2]([H:7])[H:8])[C:3]([H:9])([H:10])[S:1][H:6]" dataset="DES370K Monomers" energy=-15583.140272743452 pbc="F F F"
S       -0.31289534      -0.05607488       1.36709105       0.28938118      -0.88650091      -0.28957446
N        0.74801528       0.88424398      -2.92762863      -0.52382774      -1.61149779      -0.71081836
C        1.29480672      -0.26272108       0.47753226       1.93066425       0.65047846       0.88346026
C        0.52607678       0.40469371      -1.45685075     -18.21706365      -2.84464524     -14.63367432
C        1.48751713       0.62405733      -0.81883110      18.26414193       3.74949133      13.53367113
H        0.05142973      -0.91414334       2.35032355      -0.18877064       0.38922697      -0.22664140
H        1.48971295       0.36949529      -3.52662908      -1.73595338       0.88839856       2.10672055
H        0.92386257       1.86067881      -3.02913939       0.09368599       0.56877361       0.27262050
H        1.69602323      -1.31717111       0.34840687      -1.11350585       1.22531908      -0.14897025
H        1.93409539       0.22022874       1.17612635       0.93586711      -0.12226513       0.72741774
H        0.30288390      -0.63001416      -1.49894582      -0.89177248      -1.16970805      -0.80146363
H       -0.30971778       0.91543164      -0.82635836      -0.03710441      -0.93362548      -2.52032565
H        2.48039628       0.33604111      -1.31756831      -1.04802118       0.59903922       1.12314688
H        1.33464146       1.71946774      -0.61490841       2.24502497      -0.50326066       0.68438747
