10
Properties=species:S:1:pos:R:3:forces:R:3 id=15301 bond=C-N smiles="[H:5][C:2]([H:6])([H:7])[N:1]([H:4])[C:3]([H:8])([H:9])[H:10]" dataset="DES370K Monomers" energy=-3678.0655995245384 pbc="F F F"
N        0.24381370      -0.30717784       0.04414585      -6.79101789      -1.85526707      14.64006089
C        0.61874461      -0.19886708      -1.09350457       6.73465660       1.00340045     -12.03690326
C       -0.79621178       0.63993883       0.50519743       0.00526844      -4.67002302      -0.53514019
H        0.87161791      -0.55079085       0.79501584       0.00248602       0.11626084      -0.47143750
H        1.30390787      -0.98151100      -1.39229598       0.51886723      -0.40788568      -0.18611449
H       -0.07930238      -0.23321524      -1.87215426      -1.67962821       0.17712872      -1.13381100
H        1.18320608       0.71161890      -1.16236725       0.90683916       1.41192189      -1.64160395
H       -0.67354494       1.57291400       0.16310849       0.66998558       3.60445065      -1.52205707
H       -1.79037726       0.26157826       0.21044636       0.29182579       0.25739614       0.35759524
H       -0.61228800       0.61290544       1.51691475      -0.65955451       0.36324118       2.52924665
