10
Properties=species:S:1:pos:R:3:forces:R:3 id=15301 bond=C-N smiles="[H:5][C:2]([H:6])([H:7])[N:1]([H:4])[C:3]([H:8])([H:9])[H:10]" dataset="DES370K Monomers" energy=-3674.087690355562 pbc="F F F"
N       -0.00961181      -0.38038790       0.81311327      -1.68143362      -0.93671068      -2.17496220
C        0.87217012      -0.12565702      -1.86247199       1.84087034       0.08192806       0.41075512
C       -1.04963729       0.56672877       1.27416485       0.62901572      -4.14895130      -1.39030230
H        0.61819240      -0.62400091       1.56398326       1.05802988       0.74327972      -0.33840965
H        1.55733338      -0.90830094      -2.16126340       0.16744272      -0.71728076       1.24597528
H        0.17412313      -0.16000518      -2.64112168      -2.27217526       0.14304224      -0.14140427
H        1.43663159       0.78482896      -1.93133467      -0.12154935       0.65126077       0.84462127
H       -0.92697045       1.49970394       0.93207591       0.42701685       3.59548251      -1.22827795
H       -2.04380277       0.18836820       0.97941378       0.38824914       0.16884513       0.15536899
H       -0.86571351       0.53969538       2.28588217      -0.43702911       0.41960631       2.61649524
