10
Properties=species:S:1:pos:R:3:forces:R:3 id=15301 bond=C-N smiles="[H:5][C:2]([H:6])([H:7])[N:1]([H:4])[C:3]([H:8])([H:9])[H:10]" dataset="DES370K Monomers" energy=-3673.9374815891556 pbc="F F F"
N       -0.02002656      -0.38339653       0.84471467      -1.70715993      -0.92891495      -2.12906984
C        0.88258487      -0.12264839      -1.89407339       1.86324541       0.07720166       0.23824246
C       -1.06005204       0.56372014       1.30576625       0.66708535      -4.18712744      -1.29642571
H        0.60777765      -0.62700954       1.59558466       1.02379220       0.75746323      -0.27216007
H        1.56774813      -0.90529231      -2.19286480       0.17068883      -0.72334322       1.24370728
H        0.18453788      -0.15699655      -2.67272308      -2.26623826       0.14500073      -0.15561071
H        1.44704634       0.78783759      -1.96293607      -0.12153053       0.65929033       0.85610213
H       -0.93738520       1.49669531       0.96367731       0.43217094       3.59350542      -1.24314894
H       -2.05421752       0.18535957       1.01101518       0.39409279       0.16380528       0.13656637
H       -0.87612826       0.53668675       2.31748357      -0.45755010       0.44359240       2.62132088
