10
Properties=species:S:1:pos:R:3:forces:R:3 id=15301 bond=C-N smiles="[H:5][C:2]([H:6])([H:7])[N:1]([H:4])[C:3]([H:8])([H:9])[H:10]" dataset="DES370K Monomers" energy=-3676.312431383554 pbc="F F F"
N        0.09106408      -0.35130445       0.50763306      -0.76776645      -0.32097727      -3.55724109
C        0.77149423      -0.15474047      -1.55699178       1.30467264      -0.09820889       2.95111468
C       -0.94896140       0.59581222       0.96868464       0.28234157      -4.11320956      -1.86582538
H        0.71886829      -0.59491746       1.25850305       1.02780381       0.35571113      -0.88376469
H        1.45665749      -0.93738439      -1.85578319       0.15034130      -0.60362789       1.13512198
H        0.07344724      -0.18908863      -2.33564147      -2.23785203       0.12444367      -0.07009850
H        1.33595570       0.75574551      -1.62585446      -0.09158929       0.57095400       0.61616169
H       -0.82629456       1.52878739       0.62659570       0.42286133       3.59578964      -1.22797382
H       -1.94312688       0.21745165       0.67393357       0.29909574       0.23307356       0.35407229
H       -0.76503762       0.56877883       1.98040196      -0.39031330       0.25621448       2.54919898
