10
Properties=species:S:1:pos:R:3:forces:R:3 id=15301 bond=C-N smiles="[H:5][C:2]([H:6])([H:7])[N:1]([H:4])[C:3]([H:8])([H:9])[H:10]" dataset="DES370K Monomers" energy=-3679.5779603512947 pbc="F F F"
N        0.21256946      -0.31620374       0.13895005      -2.13315388      -0.43582689       1.12929808
C        0.64998885      -0.18984118      -1.18830877       2.55295173       0.03340831       0.32826806
C       -0.82745602       0.63091293       0.60000163       0.15863113      -4.58604070      -1.04117870
H        0.84037367      -0.55981675       0.88982004       0.27318859       0.13166984      -0.79996895
H        1.33515211      -0.97248510      -1.48710018       0.32613281      -0.38795066       0.30819699
H       -0.04805814      -0.22418934      -1.96695846      -1.80676190       0.14866379      -0.61623121
H        1.21445032       0.72064480      -1.25717145       0.40948044       0.87085032      -0.78451221
H       -0.70478918       1.56388810       0.25791269       0.56972414       3.61104724      -1.43250681
H       -1.82162150       0.25255236       0.30525056       0.26517530       0.27200124       0.39936969
H       -0.64353224       0.60387954       1.61171895      -0.61532507       0.34239456       2.50953804
