10
Properties=species:S:1:pos:R:3:forces:R:3 id=15301 bond=C-N smiles="[H:5][C:2]([H:6])([H:7])[N:1]([H:4])[C:3]([H:8])([H:9])[H:10]" dataset="DES370K Monomers" energy=-3674.3661644103977 pbc="F F F"
N        0.00774610      -0.37537351       0.76044427      -1.60665606      -0.91433289      -2.28398296
C        0.85481221      -0.13067141      -1.80980299       1.79079524       0.08109352       0.73792631
C       -1.03227938       0.57174316       1.22149585       0.56054363      -4.09632002      -1.54233398
H        0.63555031      -0.61898652       1.51131426       1.10369578       0.70313530      -0.45240938
H        1.53997547      -0.91331533      -2.10859440       0.16192438      -0.70524861       1.24655129
H        0.15676522      -0.16501957      -2.58845268      -2.28014844       0.13946011      -0.11805122
H        1.41927368       0.77981457      -1.87866567      -0.12123262       0.63739969       0.82346529
H       -0.90961254       1.50471833       0.87940691       0.41969280       3.59798741      -1.20859721
H       -2.02644486       0.19338259       0.92674478       0.37580101       0.17869462       0.19029801
H       -0.84835560       0.54470977       2.23321317      -0.40606348       0.37864861       2.60714595
