10
Properties=species:S:1:pos:R:3:forces:R:3 id=15301 bond=C-N smiles="[H:5][C:2]([H:6])([H:7])[N:1]([H:4])[C:3]([H:8])([H:9])[H:10]" dataset="DES370K Monomers" energy=-3679.1122082157995 pbc="F F F"
N        0.22992737      -0.31118935       0.08628105      -4.12075846      -1.04082906       6.87866723
C        0.63263094      -0.19485557      -1.13563977       4.31560868       0.43789271      -4.83103416
C       -0.81009811       0.63592732       0.54733263       0.09498055      -4.64363807      -0.78846262
H        0.85773158      -0.55480236       0.83715104       0.12443746       0.12349759      -0.64936188
H        1.31779420      -0.97749949      -1.43443118       0.41621093      -0.38760710       0.05891906
H       -0.06541605      -0.22920373      -1.91428946      -1.72949318       0.16205921      -0.86540667
H        1.19709241       0.71563041      -1.20450245       0.64498761       1.11684589      -1.22204006
H       -0.68743127       1.56890249       0.20524369       0.61930631       3.60986125      -1.47863751
H       -1.80426359       0.25756675       0.25258156       0.27622247       0.26696581       0.38015448
H       -0.62617433       0.60889393       1.55904995      -0.64187428       0.35539470       2.51804242
