15
Properties=species:S:1:pos:R:3:forces:R:3 id=46001 bond=C-O smiles="[C:14]([C:13]([F:3])([F:4])[I:10])([O:11][C:15]([C:12]([F:1])([F:2])[Cl:8])([F:7])[Cl:9])([F:5])[F:6]" dataset=PubChem energy=-58374.82316 pbc="F F F"
F        2.09319482       4.09936647      -1.14145207      -0.75737213      -1.31229977       0.37434931
F        2.82253919       2.03351323      -1.32978701      -1.18105542       0.82005056       0.84214473
F       -1.48308878      -2.93665671       1.78266290       0.74352120       0.66309289      -0.77411633
F        0.23440586      -3.02009130       0.37653715      -0.69516500       0.65211352       0.57946076
F       -1.40061300      -0.76183319       0.11029444       0.44805043       0.14299342       0.88625142
F       -0.96124166      -0.18517596       2.24635437      -0.44472860      -1.07193873      -1.09508255
F       -0.01328733       2.35679274      -1.44021355       1.63968776      -1.22498470       2.32932940
Cl       3.05755529       3.12657885       0.97669066      -0.53385177      -0.38582074      -0.32989569
Cl      -0.20353952       3.47798042       0.84776546       1.13573553      -2.27386734      -0.97082166
I        1.01651663      -2.67819810       3.16963724      -0.25619465       0.23663274      -0.59741430
O        0.76040852      -0.17594556       0.79659084      -2.57061531      -0.69397207      -0.38644034
C        2.12735138       2.88771586      -0.50865625       2.43271017      -0.60059737      -0.45457113
C       -0.29330122      -2.35941577       1.43471781       0.56714874      -0.89457629       0.96339189
C       -0.48480182      -0.84830732       1.12486598       2.51415126       3.17267975      -0.53292491
C        0.68332804       2.34111195      -0.26389127      -3.02986956       2.76579433      -0.84182422
