47
Properties=species:S:1:pos:R:3:forces:R:3 id=33734 bond=C-O smiles="[H:34][c:12]1[c:10]([c:14]([c:11]([c:13]([c:15]1[C:18]([H:38])([H:39])[N:16]([C:9](=[S:1])[S:8][H:31])[C:19]([H:40])([H:41])[C@@:21]([H:44])([C@:23]([H:46])([C@@:24]([H:47])([C@@:22]([H:45])([C:20]([H:42])([H:43])[O:3][H:26])[O:5][H:28])[O:7][H:30])[O:6][H:29])[O:4][H:27])[H:35])[H:33])[C:17]([H:36])([H:37])[O:2][H:25])[H:32]" dataset=PubChem energy=-51393.843756125214 pbc="F F F"
S        0.41066174       1.35673550      -4.49987595       0.01946046      -0.71804533       0.27911384
O        2.53051990      -2.48211794       2.71183441      10.28543496      11.76978664      10.02592774
O        1.30173622       0.03113380       3.73388440       0.67131129       0.19470429      -0.13167497
O        1.22413711       1.84361610      -0.05947214      -0.55331094       0.05250515      -1.05049206
O        2.69601975       2.90078506       1.83471948       0.58722914       0.25748135       0.48423365
O       -0.57476283       0.76478598       1.88332278       0.02614550       0.72620348      -0.54165786
O        0.55479129       4.19341859       2.72735674       0.06094173       0.26757247      -0.41431282
S       -0.10163213       3.74628767      -3.07091182      -0.16970298       1.22518986       0.79723607
C       -0.12386014       2.03814361      -3.07742064      -0.77631403      -2.39502026       0.75954362
C       -0.22086622      -2.15734211       1.04916263       0.35647433       0.30153048      -0.98040166
C        1.85698818      -1.80513778      -0.06603097       1.79866675       0.07248017       0.16074679
C       -0.83278109      -1.48282256      -0.00355320      -0.11616290       0.27925627      -0.85982331
C        1.27021586      -1.07344297      -1.09355538      -0.87043592      -0.37531779       0.35209219
C        1.14348548      -2.34837022       1.01423985      -0.79761581      -0.86552636      -1.33869408
C       -0.13860257      -0.92797366      -1.09868734       0.65950159      -0.81590113       1.69005087
N       -0.60011031       1.30588040      -1.96124928       0.49709317       1.80868079      -1.64720266
C        1.82791458      -3.17631450       2.10006780      -8.86229666      -8.70129691      -8.86470547
C       -0.86652900      -0.13857868      -2.12966674       0.14621322       0.05247510       0.18406490
C       -1.14394821       2.00126561      -0.74095219      -0.35343539      -0.52149258      -0.73551814
C        2.22133897       0.78402346       2.89288336      -1.24841438       0.36453690       0.15799523
C       -0.01361312       2.49715063       0.21704219      -0.60005056      -0.45492689       0.48333417
C        1.99726771       2.32040712       2.92420537      -0.33968537      -1.17637142      -1.19423330
C       -0.41204418       2.19326433       1.69062418       1.63115592      -0.66768969      -0.25011601
C        0.53733729       2.76698050       2.81327326       0.32496319       0.57085722      -0.50239267
H        2.00372451      -1.69287185       2.98806975       1.12370768      -0.26154628       0.59090004
H        0.38683788       0.16540280       3.41744381       0.75837824       0.09050891      -0.23415551
H        1.27877985       1.69765338      -1.03124040      -0.00038272       0.05058080       1.04527866
H        2.26844917       2.55880329       1.03643576       0.36005567      -0.08928801      -0.11193393
H       -0.12582780       0.27365270       1.16330577      -0.27831208       0.50255540       0.59832246
H        1.31283961       4.50154361       2.16792340      -0.82685032      -0.95341864       0.80253665
H        0.41674891       3.70877942      -4.30908578      -0.04741149       0.36277503       0.17057423
H       -0.78662969      -2.53782645       1.86760766      -0.42233311      -0.23775735       0.34817711
H        2.98237811      -1.93553105      -0.05611073      -1.48268140       0.12459075      -0.11690602
H       -1.90460456      -1.39221647      -0.00672674      -0.27022198       0.13052015       0.09967338
H        1.86711226      -0.65196887      -1.89518922      -0.02978675      -0.07101317       0.08842419
H        1.08309235      -3.63170400       2.74695808      -1.11254053      -0.97488834      -0.28102036
H        2.43385039      -3.94697013       1.62946243      -0.32809451      -0.79974780      -0.42628590
H       -1.92848338      -0.23222795      -2.00251191      -0.55766930      -0.34066010       0.09749522
H       -0.61960269      -0.53243414      -3.12107318       0.07789881       0.80558841       0.18297958
H       -1.79148186       2.82579121      -1.07002514       0.52796320       0.04490254       0.02266302
H       -1.87161578       1.35132238      -0.20862453       0.91190015      -0.06881872      -0.46754532
H        3.23512660       0.63973132       3.21317107       0.27911055      -0.49142957       0.48280893
H        2.16388236       0.40104099       1.87877423      -0.10299798       0.17477812      -0.23955675
H        0.06828164       3.57214031       0.08980078       0.26441542       0.12981334       0.10223003
H        2.42701195       2.69098458       3.85266144      -0.20097936       0.29777304      -0.09287148
H       -1.35742797       2.67621073       1.85811801      -0.51220852       0.11581981       0.10055868
H        0.08757924       2.47308048       3.74634368      -0.50975157       0.20828770       0.37861244
