47
Properties=species:S:1:pos:R:3:forces:R:3 id=33734 bond=C-O smiles="[H:34][c:12]1[c:10]([c:14]([c:11]([c:13]([c:15]1[C:18]([H:38])([H:39])[N:16]([C:9](=[S:1])[S:8][H:31])[C:19]([H:40])([H:41])[C@@:21]([H:44])([C@:23]([H:46])([C@@:24]([H:47])([C@@:22]([H:45])([C:20]([H:42])([H:43])[O:3][H:26])[O:5][H:28])[O:7][H:30])[O:6][H:29])[O:4][H:27])[H:35])[H:33])[C:17]([H:36])([H:37])[O:2][H:25])[H:32]" dataset=PubChem energy=-51395.45190945782 pbc="F F F"
S        0.28705525       1.23460832      -4.60750155       0.01742938      -0.72367189       0.28427449
O        2.65412639      -2.35999076       2.81946001      -1.84253213      -1.68201384      -1.50969786
O        1.17812973      -0.09099338       3.62625880       0.64667753       0.51196788      -0.02127601
O        1.10053062       1.72148892      -0.16709774      -0.56413303       0.04012206      -1.06602919
O        2.57241326       2.77865788       1.72709388       0.57648264       0.26854332       0.46870372
O       -0.69836932       0.64265880       1.77569718       0.01283930       0.70944829      -0.56112510
O        0.43118480       4.07129141       2.61973114       0.04956654       0.27143042      -0.42086757
S       -0.22523862       3.62416049      -3.17853742      -0.17055413       1.21811721       0.79757564
C       -0.24746663       1.91601643      -3.18504624      -0.76947508      -2.38351265       0.74571405
C       -0.34447271      -2.27946929       0.94153703       0.31721841       0.21517580      -0.89258313
C        1.73338169      -1.92726496      -0.17365657       1.87987209       0.02311193       0.07718394
C       -0.95638758      -1.60494974      -0.11117880      -0.08784138       0.19584599      -0.88223231
C        1.14660937      -1.19557015      -1.20118098      -0.91318615      -0.43028819       0.34547985
C        1.01987899      -2.47049740       0.90661425       0.42974363      -0.38541177       0.06855225
C       -0.26220906      -1.05010084      -1.20631294       0.68019441      -0.80207843       1.69008107
N       -0.72371680       1.18375322      -2.06887488       0.49632263       1.78542834      -1.63812954
C        1.70430809      -3.29844168       1.99244220       1.27691680       2.83462460       0.69255662
C       -0.99013549      -0.26070586      -2.23729234       0.13555439       0.08115764       0.18326757
C       -1.26755470       1.87913843      -0.84857779      -0.35295661      -0.51759296      -0.72970242
C        2.09773248       0.66189628       2.78525776      -1.27463945       0.53652016       0.11694479
C       -0.13721961       2.37502345       0.10941659      -0.59705411      -0.45376687       0.48600191
C        1.87366122       2.19827994       2.81657977      -0.33982945      -1.19460438      -1.17764974
C       -0.53565067       2.07113715       1.58299858       1.63366884      -0.65894846      -0.24720324
C        0.41373080       2.64485332       2.70564766       0.33763538       0.57384381      -0.49713047
H        2.12733100      -1.57074467       3.09569535       0.04227363      -1.09908284      -0.17958169
H        0.26323139       0.04327562       3.30981821       0.78253249       0.02162246      -0.24032466
H        1.15517336       1.57552620      -1.13886600       0.00348425       0.06053932       1.04886578
H        2.14484268       2.43667611       0.92881016       0.37293582      -0.08820321      -0.09624120
H       -0.24943429       0.15152552       1.05568017      -0.26596528       0.52402632       0.62014344
H        1.18923312       4.37941643       2.06029780      -0.82261892      -0.95622593       0.80446236
H        0.29314242       3.58665224      -4.41671138      -0.04780047       0.36339037       0.17109243
H       -0.91023618      -2.65995363       1.75998206      -0.42153586      -0.17755146       0.34845801
H        2.85877162      -2.05765823      -0.16373633      -1.52332740       0.15647438      -0.07839735
H       -2.02821105      -1.51434365      -0.11435234      -0.25595336       0.12052070       0.11163505
H        1.74350577      -0.77409605      -2.00281482      -0.02689382      -0.06965069       0.10358161
H        0.95948586      -3.75383118       2.63933248       0.11225611       0.07171477       0.15419004
H        2.31024390      -4.06909731       1.52183683       0.28851711       0.18282898       0.35094902
H       -2.05208987      -0.35435513      -2.11013751      -0.55741854      -0.34239285       0.09695293
H       -0.74320918      -0.65456132      -3.22869878       0.07881933       0.80086790       0.18263165
H       -1.91508835       2.70366403      -1.17765074       0.52717895       0.04312038       0.02189201
H       -1.99522227       1.22919520      -0.31625013       0.90979532      -0.06774068      -0.46647827
H        3.11152011       0.51760414       3.10554547       0.27889644      -0.49230415       0.46683241
H        2.04027587       0.27891381       1.77114863      -0.09203612       0.16218206      -0.21440551
H       -0.05532485       3.45001313      -0.01782482       0.26424535       0.12904756       0.10274686
H        2.30340546       2.56885740       3.74503584      -0.20293468       0.30087053      -0.09345612
H       -1.48103446       2.55408355       1.75049241      -0.51372627       0.11524530       0.09942676
H       -0.03602725       2.35095330       3.63871808      -0.50922499       0.20718142       0.37769131
