35
Properties=species:S:1:pos:R:3:forces:R:3 id=33929 bond=O-P smiles="[H:16][C:5](=[S:1])[N:6]([C:12]([H:31])([H:32])[C:8]([H:20])([H:21])[H:22])[P:15](=[S:2])([O:3][C:11]([H:29])([H:30])[C:7]([H:17])([H:18])[H:19])[S:4][C:14]([H:35])([C:10]([H:26])([H:27])[H:28])[C:13]([H:33])([H:34])[C:9]([H:23])([H:24])[H:25]" dataset=PubChem energy=-54959.4828927637 pbc="F F F"
S       -1.57402884       0.61443369       4.42900804       0.84854494       1.75457091      -0.70166447
S        1.46103479      -0.76579090       2.75752691       3.51537695      -0.23970354       1.44396742
O       -0.36021218      -0.01543135       1.65505076    -227.41270870    -140.18524492     -36.16627533
S        1.23860092       0.94904236      -0.17987647       0.54110194       0.04471086       0.40697490
C       -0.94516443       1.98739831       3.66646746       1.18616287      -3.81045869      -1.91244822
N        0.02721207       1.94819479       2.62398390      -0.89328433       0.82442762       0.65711996
C       -2.40468630      -0.21284234       0.19503519       0.99533122      -2.95277181      -0.85605778
C       -0.14848019       3.99987809       1.17201516      -2.10324387       1.53811825       0.37971055
C        1.70617296      -3.05140479      -1.32824012       1.38643289      -0.42735058      -1.70766883
C        3.20391262      -0.30781837      -1.60762544       2.11255100      -1.18170110       3.60531314
C       -1.56469425       0.61587138       1.05201441      -5.47673595      -1.16491936       0.78649941
C        0.68638648       3.13937632       2.06777159       1.10039771      -0.01546056       0.37351073
C        1.09887076      -1.69610246      -1.15614577      -2.24653058       1.12014577       1.80784958
C        2.13833643      -0.64507492      -0.51295587      -0.26650909      -1.32746228      -1.55871443
P        0.37916427       0.47054316       1.76186971     226.24972766     139.98225876      36.27619302
H       -1.52231394       2.84819309       3.76195387      -0.04103843       2.01732003       0.39948207
H       -1.68038115      -0.74969399      -0.44822203      -0.88681812       0.28591818      -0.46640581
H       -2.96828159      -1.02886176       0.72923124       0.29759695       1.24958981      -0.45427590
H       -3.00282177       0.50656417      -0.35213708      -0.36805557      -0.39501914      -0.23792728
H       -0.09649824       3.64656679       0.19834263      -0.03458133      -1.06781434      -1.97014999
H       -1.25428878       3.98067967       1.42413834       1.28792885       0.10416994       0.03456277
H        0.11929810       5.07074182       0.99390993       0.15911685      -0.82150730       0.96208527
H        2.48918380      -2.88353808      -2.15524503      -1.16167193      -1.16787720       0.99137076
H        2.27993239      -3.19441159      -0.41379383      -0.05339132      -0.60230834      -0.01332622
H        1.00448419      -3.94882329      -1.51452800       1.16149873       1.71479604       0.12804507
H        4.00827087       0.33482094      -1.17377158      -0.52445851      -0.63519185      -0.05733925
H        2.81930269       0.26681771      -2.32345410      -1.83387716       2.04376035      -3.13073592
H        3.70723785      -1.17437215      -2.05641099      -0.41063471       0.10749244       0.35125209
H       -2.28893909       0.85525873       1.85176278       1.56918874       0.52879599       0.21445084
H       -1.20811376       1.41937584       0.47277558       0.67323350       0.91517486      -0.13825600
H        1.16643734       3.69511788       2.83811788      -0.06324706       0.50571107       0.95122562
H        1.56438877       2.75856750       1.51566152      -0.56477237       0.20448384       0.16063421
H        0.18691328      -1.88081558      -0.49159094       1.31657636       0.64918772      -0.13342767
H        0.57303120      -1.23616274      -2.02131768       0.93848793      -0.33475975       0.06710466
H        2.67129696      -1.08846887       0.36598537      -1.00705445       0.74086581      -0.49019581
