43
Properties=species:S:1:pos:R:3:forces:R:3 id=30487 bond=C-O smiles="[H:43][C@:17]1([C@:16]2([C:10]([C@:14]3([C@@:15]([C:12]1([H:40])[H:41])([C@@:13]([O:2]2)([C:6]([C:5]([C:8]3([H:32])[H:33])([H:25])[H:26])([H:27])[H:28])[O:1][H:18])[C:9]([H:34])([H:35])[H:36])[C:7]([H:29])([H:30])[H:31])([H:37])[H:38])[H:42])[C:11]([H:39])([C:3]([H:19])([H:20])[H:21])[C:4]([H:22])([H:23])[H:24]" dataset=PubChem energy=-20084.54670745265 pbc="F F F"
O        0.24408021      -1.19800986      -1.52516509       6.48483339       0.66544941       3.25525249
O       -0.34418213       0.92775183      -0.74976606      -0.86451257       1.02217977       0.76320017
C       -1.90307861      -1.31658609       2.87205081      -2.17471058      -0.13848559       0.02609336
C       -3.26303345       0.29464211       1.34932422       0.14581745      -2.70020681      -0.99340553
C        2.13718849       2.14443796      -1.78784437       0.35380419       0.82384264       0.36275661
C        1.75709170       0.71060178      -2.04658837      -2.59394970      -0.13823720      -0.52913463
C        2.70749324       1.98679810       2.05642920       1.41386818      -1.31711783       0.33561443
C        2.81317586       2.37849789      -0.36566228      -1.22862103      -4.97169937      -2.74407854
C        2.95363897      -0.73029370       0.11865183      -0.25121407       2.61395866      -3.28844410
C        0.63525661       2.39471775       0.93966608      -2.20332144       1.37744566      -0.61050992
C       -1.92379671      -0.50202901       1.55931937       0.43800982       0.97001183       1.26857782
C        0.64868900      -0.57434100       1.36578601       1.90207066       3.92650712       0.97182164
C        0.80530843       0.12840500      -0.89870686       0.25471270       0.95117098      -3.37137694
C        2.00103837       1.64518361       0.73793325      -0.91453440       1.17713868      -0.20500040
C        1.64715236       0.17462741       0.35365756      -0.17410849      -4.01282015       0.77595131
C       -0.62762493       1.53090357       0.60524296       3.14860983      -1.87307101       0.63383957
C       -0.60450894       0.35060259       1.63591736      -1.24308045      -0.66408234      -2.16950176
H       -0.60335089      -1.06718159      -1.76576234      -4.34505912       1.32025956      -0.89552717
H       -2.23427612      -0.85209067       3.82974558      -0.40217198       0.12762418      -1.05448374
H       -0.96343154      -1.64154238       3.14641290       2.49720141      -0.41451965       0.05356165
H       -2.40176636      -2.26995749       2.71946721      -0.67359515       0.05988263       0.25915016
H       -3.54142219       0.77588882       2.22630279      -0.52860733       0.89344420       1.63920860
H       -4.10504132      -0.37001986       1.02952324       0.71630840      -0.05444183       0.81792130
H       -3.34231836       0.97892910       0.54786422       0.85346915       0.97427416      -0.84797713
H        1.23470491       2.74471670      -1.97012992      -0.05337737      -0.11616373       0.99807112
H        2.73192399       2.59160500      -2.59342189       0.55380817      -0.59109557       0.21031917
H        1.07521838       0.68690903      -2.90236611       0.31023477       0.09442067      -0.20251798
H        2.57618612       0.06961756      -2.31380481       0.26045777      -0.40382313       0.40299741
H        3.56114453       1.34221642       2.32664244       0.16447562       0.36063155      -0.70351628
H        3.02183026       3.04630261       2.07915263      -0.18262212      -0.61533138      -0.17980897
H        2.09025902       1.81375449       2.90218692      -0.92577108       0.04126304       0.69135328
H        2.65653962       3.32391315      -0.17343194      -0.08780734       5.02739872       1.10170002
H        3.87366026       2.12685590      -0.43116350      -0.22242634      -0.05211988       0.34014151
H        2.90715044      -1.55310983      -0.63824827      -0.58050710       1.01995917       0.40244467
H        3.82337540      -0.05686457      -0.18036181      -1.23412657      -0.74243463      -0.07515881
H        3.35954111      -1.17971582       0.91653316       0.72473419      -1.52784955       3.60416415
H        0.37425136       3.25294643       0.26244443       1.41369375      -0.38357516       0.42682644
H        0.56697128       2.81700831       1.99120467      -0.15312911      -0.62528185      -1.32331782
H       -1.77047116      -1.21964652       0.76915885      -0.14024014      -0.03844500      -0.43414145
H        0.49410797      -1.57426686       1.07536762      -0.41994327      -0.91834886      -0.43723009
H        1.26677877      -0.50169880       2.25428550      -0.27976867      -0.81199790       0.57660206
H       -1.54265100       2.15554171       0.57845407       0.65742455      -0.82006817      -0.30181822
H       -0.44556004       0.73262792       2.62604742      -0.41699695       0.48456565       0.44662965
