35
Properties=species:S:1:pos:R:3:forces:R:3 id=46073 bond=C-S smiles="[H:18][C:7]([H:19])([H:20])[C:12]([H:31])([H:32])[N:5]([C:4](=[S:1])[S:2][C:11]([H:30])([C:6]([H:15])([H:16])[H:17])[S:3][C:14]([H:35])([C:9]([H:24])([H:25])[H:26])[C:10]([H:27])([H:28])[H:29])[C:13]([H:33])([H:34])[C:8]([H:21])([H:22])[H:23]" dataset=PubChem energy=-44720.36984716573 pbc="F F F"
S        1.16497345      -2.38794282       1.53098668       0.45344203       0.85390624       0.00637369
S        1.78744490       0.24817284       2.72220922      -0.73263438       0.57046748      -0.53112768
S       -0.93299916       2.34500058       1.95198349       0.86674965      -2.07305978       1.03134353
C        2.03659064      -0.94588187       1.42543108       0.57017196      -1.93061640      -3.02164339
N        2.91293771      -0.76197663       0.29750655      -1.08197339      -0.22395383       2.13752568
C       -0.41818803       0.29114484       4.37416626      -0.06981604       0.76078129      -0.33173746
C        2.71983654       1.60810730      -0.37042092      -0.28682148      -0.21213379       0.02096999
C        1.73047287      -1.58982387      -1.71468447      -0.69522766       0.07233326      -0.51523188
C       -2.94955113       2.93017776       0.12568376      -0.19985703       0.52382845       1.38920761
C       -1.43586256       1.05440448      -0.44502648      -0.87504676      -0.63056396       0.00605785
C       -0.05870020       0.27947940       2.91454316      -0.06174473       0.66897162      -1.10192321
C        3.63657243       0.49269985       0.16297351      -0.51036682       0.94015115       0.57437545
C        2.94659359      -1.74521115      -0.82536017      -0.18239329       0.87674642       0.21886465
C       -2.14656904       1.76164492       0.71206808       0.25285988      -0.10653948      -0.32328270
H        0.08961375       1.12369218       4.84773351      -0.00895926       0.02596219       0.35740328
H       -0.07769721      -0.64493165       4.81488324      -0.10198092      -0.00892181       0.05271520
H       -1.49564283       0.43207507       4.49567152       0.24171171      -0.14528900       0.00265606
H        3.17319257       2.58487579      -0.21270334       0.00313213       0.01127550      -0.06818994
H        1.78637166       1.56608244       0.20782830       0.24334003       0.22943617      -0.28937629
H        2.47057564       1.49775311      -1.44357323       0.25126794      -0.05643531       0.60696312
H        1.77741320      -0.63625100      -2.26752471      -0.01943075      -0.33484162       0.33803107
H        1.68433601      -2.38147476      -2.48700570      -0.00042951       0.26028621       0.54910594
H        0.80617873      -1.59858885      -1.11153840       0.44938631      -0.11781825      -0.42911513
H       -3.60032084       3.31880768       0.93238494       0.20425860       0.02894302      -0.57637663
H       -3.57646300       2.59254177      -0.69759985       0.07962864      -0.04322183       0.02081688
H       -2.30937865       3.75280507      -0.20739075      -0.04419401      -0.23539920      -0.05272237
H       -2.22078659       0.76353020      -1.17959377       0.71040975      -0.05474572       0.33168641
H       -0.90072920       0.18258692      -0.08874365      -0.04922611      -0.33251596      -0.04260502
H       -0.69151165       1.66688486      -0.94475099      -0.15370884       0.38596156       0.09311934
H       -0.55022471      -0.57278237       2.40481378       0.52658009       0.90796050      -0.23033191
H        4.54209263       0.44424805      -0.42510830       0.01242003      -0.68298475      -0.34704025
H        3.99923522       0.73898637       1.16429342      -0.15990696       0.27487390      -0.11624510
H        3.05676777      -2.72212008      -0.41400682      -0.29807213      -0.69842060       0.37640350
H        3.82506949      -1.60551885      -1.45610355       0.20654899       0.50186797       0.47785460
H       -2.85807421       1.12492849       1.27111432       0.46124498      -0.00709933      -0.62041426
