35
Properties=species:S:1:pos:R:3:forces:R:3 id=46073 bond=C-S smiles="[H:18][C:7]([H:19])([H:20])[C:12]([H:31])([H:32])[N:5]([C:4](=[S:1])[S:2][C:11]([H:30])([C:6]([H:15])([H:16])[H:17])[S:3][C:14]([H:35])([C:9]([H:24])([H:25])[H:26])[C:10]([H:27])([H:28])[H:29])[C:13]([H:33])([H:34])[C:8]([H:21])([H:22])[H:23]" dataset=PubChem energy=-44718.08755030387 pbc="F F F"
S        1.33197437      -2.78248058       1.71484639       0.46644223       0.92797276       0.10683966
S        1.95444582      -0.14636492       2.90606893      -1.60810905       0.76090846      -0.50652580
S       -1.10000008       2.73953834       1.76812378       0.29644982      -1.17879980       0.47221705
C        2.20359156      -1.34041963       1.60929079       0.63606653      -2.00490912      -3.25538224
N        3.07993863      -1.15651439       0.48136626      -1.12140202      -0.20564320       2.21644074
C       -0.25118711      -0.10339292       4.55802597      -0.26111702       1.34532027      -0.58756338
C        2.88683746       1.21356954      -0.18656121      -0.27498160      -0.21769095       0.03122096
C        1.89747379      -1.98436163      -1.53082476      -0.69921101       0.07999557      -0.50928049
C       -3.11655205       3.32471552      -0.05817595      -0.27250843       0.52139298       1.28793791
C       -1.60286348       1.44894224      -0.62888619      -0.90611292      -0.62558179      -0.02937456
C        0.10830072      -0.11505836       3.09840287       1.70408006      -1.30369338       0.06960403
C        3.80357335       0.09816209       0.34683322      -0.49542528       0.98369152       0.55610008
C        3.11359451      -2.13974891      -0.64150046      -0.18667340       0.84809415       0.18568873
C       -2.31356996       2.15618268       0.52820837       0.40228769       0.09539068      -0.18069774
H        0.25661467       0.72915442       5.03159322       0.00899937       0.00347549       0.39567531
H        0.08930371      -1.03946941       4.99874295      -0.09244432      -0.08573846      -0.01327108
H       -1.32864191       0.03753731       4.67953123       0.23123929      -0.16315407       0.01276956
H        3.34019349       2.19033803      -0.02884363      -0.00468056       0.00104122      -0.06785622
H        1.95337258       1.17154468       0.39168801       0.21779148       0.25126712      -0.31317586
H        2.63757656       1.10321535      -1.25971352       0.23991543      -0.05193818       0.62618843
H        1.94441412      -1.03078876      -2.08366500      -0.02272883      -0.34299550       0.34465992
H        1.85133693      -2.77601252      -2.30314599       0.00382317       0.26224169       0.55749868
H        0.97317965      -1.99312661      -0.92767869       0.44021359      -0.11057621      -0.43775195
H       -3.76732176       3.71334544       0.74852523       0.21761777       0.02149117      -0.57087140
H       -3.74346392       2.98707953      -0.88145956       0.04374291      -0.03863682      -0.01114805
H       -2.47637957       4.14734283      -0.39125046      -0.04100472      -0.24205847      -0.04137930
H       -2.38778751       1.15806796      -1.36345348       0.69082227      -0.05458624       0.30084700
H       -1.06773012       0.57712468      -0.27260336      -0.05770813      -0.31649448      -0.01320972
H       -0.85851257       2.06142262      -1.12861070      -0.15092484       0.39022719       0.09680037
H       -0.38322379      -0.96732013       2.58867349       0.36361207       1.06228753      -0.52665223
H        4.70909355       0.04971029      -0.24124859       0.00883359      -0.68942403      -0.33855036
H        4.16623614       0.34444861       1.34815313      -0.14468300       0.27046549      -0.10945014
H        3.22376869      -3.11665784      -0.23014711      -0.29007761      -0.70092434       0.38023555
H        3.99207041      -2.00005661      -1.27224384       0.20402529       0.50515912       0.48910505
H       -3.02507513       1.51946625       1.08725461       0.45228556       0.00233910      -0.62186431
