35
Properties=species:S:1:pos:R:3:forces:R:3 id=46073 bond=C-S smiles="[H:18][C:7]([H:19])([H:20])[C:12]([H:31])([H:32])[N:5]([C:4](=[S:1])[S:2][C:11]([H:30])([C:6]([H:15])([H:16])[H:17])[S:3][C:14]([H:35])([C:9]([H:24])([H:25])[H:26])[C:10]([H:27])([H:28])[H:29])[C:13]([H:33])([H:34])[C:8]([H:21])([H:22])[H:23]" dataset=PubChem energy=-44718.44359548676 pbc="F F F"
S        1.29759183      -2.70125221       1.67699292       0.46495064       0.91864391       0.09077525
S        1.92006328      -0.06513655       2.86821546      -1.48300163       0.74573572      -0.50738076
S       -1.06561754       2.65830997       1.80597725       0.40263217      -1.36977159       0.58723858
C        2.16920902      -1.25919126       1.57143732       0.62098714      -1.99672506      -3.21897458
N        3.04555609      -1.07528602       0.44351279      -1.11531452      -0.20895632       2.20247395
C       -0.28556965      -0.02216455       4.52017250      -0.24205402       1.28645971      -0.56244217
C        2.85245492       1.29479791      -0.22441468      -0.27783291      -0.21788649       0.03092350
C        1.86309125      -1.90313326      -1.56867823      -0.69853893       0.07875540      -0.51009677
C       -3.08216951       3.24348715      -0.02032248      -0.25999271       0.52297587       1.30464843
C       -1.56848094       1.36771387      -0.59103272      -0.90417405      -0.62586142      -0.02375741
C        0.07391818      -0.03382999       3.06054940       1.44377675      -1.00175441      -0.10710294
C        3.76919081       0.17939046       0.30897975      -0.49761240       0.97751607       0.55787309
C        3.07921197      -2.05852054      -0.67935393      -0.18622098       0.85417100       0.19161727
C       -2.27918742       2.07495431       0.56606184       0.37607031       0.05828119      -0.20233162
H        0.22223213       0.81038279       4.99373975       0.00544974       0.00478192       0.38866340
H        0.05492117      -0.95824104       4.96088948      -0.09057686      -0.07667489      -0.01118349
H       -1.36302445       0.11876568       4.64167776       0.23350759      -0.15952489       0.01004969
H        3.30581095       2.27156640      -0.06669710      -0.00323269       0.00275172      -0.06756983
H        1.91899004       1.25277305       0.35383454       0.21964138       0.24914842      -0.30927478
H        2.60319402       1.18444372      -1.29756699       0.24182924      -0.05303371       0.62267115
H        1.91003158      -0.94956039      -2.12151847      -0.02219381      -0.34154414       0.34373764
H        1.81695439      -2.69478415      -2.34099946       0.00314210       0.26178124       0.55596363
H        0.93879711      -1.91189824      -0.96553216       0.44129307      -0.11122237      -0.43598045
H       -3.73293922       3.63211707       0.78637870       0.21553673       0.02254952      -0.57191587
H       -3.70908138       2.90585116      -0.84360609       0.04978396      -0.03918831      -0.00594160
H       -2.44199703       4.06611446      -0.35339699      -0.04168012      -0.24017312      -0.04364612
H       -2.35340497       1.07683959      -1.32560001       0.69441690      -0.05417604       0.30510317
H       -1.03334758       0.49589631      -0.23474989      -0.05608786      -0.31875757      -0.01570493
H       -0.82413003       1.98019425      -1.09075723      -0.15034810       0.38960226       0.09631838
H       -0.41760633      -0.88609176       2.55082002       0.38266341       1.05513225      -0.49088540
H        4.67471101       0.13093866      -0.27910206       0.00974548      -0.68886447      -0.34011420
H        4.13185360       0.42567698       1.31029966      -0.14744313       0.27125668      -0.11081196
H        3.18938615      -3.03542947      -0.26800058      -0.29150119      -0.70072721       0.37976747
H        3.95768787      -1.91882824      -1.31009731       0.20453001       0.50467806       0.48706294
H       -2.99069259       1.43823788       1.12510808       0.45495215       0.00227434      -0.62391944
