35
Properties=species:S:1:pos:R:3:forces:R:3 id=46073 bond=C-S smiles="[H:18][C:7]([H:19])([H:20])[C:12]([H:31])([H:32])[N:5]([C:4](=[S:1])[S:2][C:11]([H:30])([C:6]([H:15])([H:16])[H:17])[S:3][C:14]([H:35])([C:9]([H:24])([H:25])[H:26])[C:10]([H:27])([H:28])[H:29])[C:13]([H:33])([H:34])[C:8]([H:21])([H:22])[H:23]" dataset=PubChem energy=-44721.06054747589 pbc="F F F"
S        1.01270790      -2.02821722       1.36334988       0.45009947       0.69891790      -0.05153115
S        1.63517935       0.60789844       2.55457242       0.93458234      -0.30964139      -0.53550099
S       -0.78073361       1.98527498       2.11962029      -3.09100503       6.94849394      -3.70673156
C        1.88432509      -0.58615627       1.25779428       0.65478053      -1.76442475      -2.66775808
N        2.76067216      -0.40225103       0.12986975      -1.05833379      -0.21682534       2.05609846
C       -0.57045358       0.65087044       4.20652946       0.50671542      -1.00781485       0.87830027
C        2.56757099       1.96783290      -0.53805772      -0.28237087      -0.19346124       0.00171603
C        1.57820732      -1.23009827      -1.88232127      -0.69575318       0.05146104      -0.51652706
C       -2.79728558       2.57045216       0.29332056      -0.18513325       0.43336379       1.40361490
C       -1.28359701       0.69467888      -0.27738968      -0.84001775      -0.62213606       0.04292267
C       -0.21096575       0.63920500       2.74690636       1.18118050      -5.22324402       1.60269313
C        3.48430688       0.85242545      -0.00466329      -0.53727358       0.88771159       0.60054675
C        2.79432804      -1.38548555      -0.99299697      -0.18291538       0.88694874       0.23397290
C       -1.99430349       1.40191932       0.87970488       0.13621863       0.24248555      -0.71675590
H       -0.06265180       1.48341778       4.68009671      -0.00165037       0.10320356       0.26991753
H       -0.22996276      -0.28520605       4.64724644      -0.14406611       0.07536621       0.35827076
H       -1.64790838       0.79180067       4.32803472       0.28150044      -0.15436467      -0.03973539
H        3.02092702       2.94460139      -0.38034014       0.00852085       0.01890471      -0.07217534
H        1.63410611       1.92580804       0.04019150       0.27965035       0.21108684      -0.26665970
H        2.31831009       1.85747871      -1.61121003       0.25569747      -0.05581144       0.59855416
H        1.62514765      -0.27652540      -2.43516151      -0.01920453      -0.32746163       0.33169541
H        1.53207046      -2.02174916      -2.65464250      -0.00011018       0.26000019       0.54068920
H        0.65391318      -1.23886325      -1.27917520       0.49075100      -0.14064632      -0.45430622
H       -3.44805529       2.95908208       1.10002174       0.19677741       0.03814490      -0.57355354
H       -3.42419745       2.23281617      -0.52996305       0.09062398      -0.02569234       0.04375255
H       -2.15711310       3.39307947      -0.03975395      -0.04316594      -0.24891561      -0.04858607
H       -2.06852104       0.40380460      -1.01195697       0.71889229      -0.06728403       0.37179612
H       -0.74846365      -0.17713868       0.07889315      -0.09955630      -0.32035481      -0.11911347
H       -0.53924610       1.30715926      -0.77711419      -0.17666599       0.38802819       0.08083064
H       -0.70249026      -0.21305677       2.23717698       0.94281533       0.07279656       0.47941289
H        4.38982708       0.80397365      -0.59274510       0.01243805      -0.67057485      -0.35114181
H        3.84696967       1.09871197       0.99665662      -0.16606324       0.27469038      -0.10933874
H        2.90450222      -2.36239448      -0.58164362      -0.30270232      -0.69238933       0.37004042
H        3.67280394      -1.24579325      -1.62374035       0.20873454       0.50024679       0.47151743
H       -2.70580866       0.76520289       1.43875112       0.47701565      -0.04663451      -0.51559613
