22
Properties=species:S:1:pos:R:3:forces:R:3 id=26869 bond=N-O smiles="[H:15][c:7]1[c:5]([n:2][c:6]([c:8]([c:9]1/[C:4](=[N+:10]([O-:1])/[O:3][C:11]([H:17])([H:18])[H:19])/[C:12]([H:20])([H:21])[H:22])[H:16])[H:14])[H:13]" dataset=PubChem energy=-15538.806679496265 pbc="F F F"
O       -0.37675538      -1.30448380       1.41965194      -0.57278715      -0.44815087       1.36938014
N        2.36459909       2.62084398       2.91321858       0.25764022       0.98621775       0.70008379
O       -0.73916059      -1.62145166      -0.62662557      -2.86772906      -4.11776428      -6.44399659
C        0.59121599       0.09456227      -0.04448871      -0.38662547      -0.87441458      -1.99382630
C        1.04052512       2.49481806       2.83473428       1.15933786      -1.69354523      -2.04359765
C        3.14914141       1.99945185       2.03786357      -1.78813343      -0.95933654      -0.36631198
C        0.44762846       1.66595194       1.87070235      -0.38194316       0.63120946       0.90609525
C        2.61352143       1.14054302       1.08610369      -0.43824002      -0.26946213      -0.46412008
C        1.22689299       0.95104161       0.97820219       0.00384623      -0.15736180       0.69578315
N       -0.19790985      -0.94886532       0.24202736       4.98017126       5.93191453       5.97045348
C       -2.14755660      -1.40443413      -0.68366197      -0.95638660       1.72526742       0.59741967
C        0.83646698       0.42543056      -1.52766458      -0.54788964      -0.30367558       1.26354669
H        0.39733984       2.98539147       3.50457629      -0.30669817       0.77866928       0.98523831
H        4.21009669       2.06818065       2.08237334       0.59095143       0.44376446       0.39676189
H       -0.63517179       1.61807212       1.91253909       0.13724569      -0.31512261      -0.35418337
H        3.26448593       0.58288802       0.43670421       0.19524734      -0.02285551      -0.17326562
H       -2.30493527      -0.30887787      -0.88332609       0.00849798      -1.01095365       0.01283739
H       -2.62382179      -2.00513439      -1.43185190       0.42498623      -0.28907583      -0.57174738
H       -2.62744861      -1.63829713       0.26293477       0.30351331      -0.05275577       0.17189560
H       -0.13599636       0.54709531      -1.98999969      -0.00083064      -0.14067871      -0.44928225
H        1.41296015      -0.35829690      -2.01129619      -0.06013322       0.04653421      -0.18715344
H        1.34278433       1.37514052      -1.59622375       0.24965277       0.11302783      -0.02022569
