22
Properties=species:S:1:pos:R:3:forces:R:3 id=26869 bond=N-O smiles="[H:15][c:7]1[c:5]([n:2][c:6]([c:8]([c:9]1/[C:4](=[N+:10]([O-:1])/[O:3][C:11]([H:17])([H:18])[H:19])/[C:12]([H:20])([H:21])[H:22])[H:16])[H:14])[H:13]" dataset=PubChem energy=-15537.07824706173 pbc="F F F"
O       -0.17034619      -1.04798900       1.75091788      -0.68433429      -0.45004529      -2.52466897
N        2.57100828       2.87733878       3.24448452       0.20331083       0.96252359       0.67216492
O       -0.94556978      -1.87794646      -0.95789151       0.37431097       0.87328190       0.97484771
C        0.79762518       0.35105707       0.28677723      -1.13681162      -2.02205414      -2.75399467
C        1.24693431       2.75131286       3.16600022       1.21598627      -1.65711359      -1.99810639
C        3.35555060       2.25594665       2.36912951      -1.79713057      -0.95440281      -0.34373510
C        0.65403765       1.92244674       2.20196829      -0.44686904       0.53042330       0.83685333
C        2.81993062       1.39703782       1.41736963      -0.42002441      -0.35541333      -0.56406351
C        1.43330218       1.20753641       1.30946813       0.09517693       0.12911744       0.97342187
N        0.00849934      -0.69237052       0.57329330       1.07096514       1.61125987       2.39778880
C       -2.35396579      -1.66092893      -1.01492791       1.49691349       2.29562304       1.39885453
C        1.04287617       0.68192536      -1.19639864      -0.53702471      -0.24673708       1.18504248
H        0.60374903       3.24188627       3.83584223      -0.30849984       0.77453436       0.97376330
H        4.41650588       2.32467545       2.41363928       0.58162564       0.43477129       0.38838314
H       -0.42876260       1.87456692       2.24380503       0.12177343      -0.29118004      -0.36017842
H        3.47089512       0.83938282       0.76797015       0.19553647      -0.01258550      -0.17016629
H       -2.51134446      -0.56537267      -1.21459203      -0.30066087      -0.98670571      -0.13136987
H       -2.83023098      -2.26162919      -1.76311784       0.18731356      -0.45779573      -0.75029289
H       -2.83385780      -1.89479193      -0.06833117      -0.06341963      -0.13459618       0.23586345
H        0.07041283       0.80359011      -1.65873375       0.00145360      -0.22340121      -0.34006167
H        1.61936934      -0.10180210      -1.68003025      -0.10974744       0.04935843      -0.09588145
H        1.54919352       1.63163532      -1.26495781       0.26361665       0.13293712      -0.00330771
