28
Properties=species:S:1:pos:R:3:forces:R:3 id=3040 bond=N-O smiles="[H:21][c:7]1[c:8]([c:10]([c:12]([c:11]([c:9]1[H:23])[H:25])[C:14]([H:26])([H:27])[C:5]2=[C:4]([N:13]([C:15]([C:6](=[C:3]2[H:18])[H:20])([H:28])[O:2][H:17])[O:1][H:16])[H:19])[H:24])[H:22]" dataset=PubChem energy=-18248.395262975897 pbc="F F F"
O        3.13324179       2.06833309      -0.72488196       5.50289362       4.18847023     -12.75598727
O        3.89156093       3.04077123       1.77254032       0.67665806       1.23652617       0.13478981
C        2.01028433       0.22864581       2.57257007       1.81622905      -0.21943488       0.38027319
C        1.58498457       0.95771341       0.31020868       0.01074109      -0.60291224       0.74954780
C        1.18181839       0.20526390       1.38691448       0.03148388       0.61906050      -0.40693964
C        3.23416200       0.87067164       2.60135745      -2.61184015      -0.76531569      -0.34945631
C       -2.85041437      -0.00106420      -1.91503883       0.11145432       0.10235640      -0.42232601
C       -2.04777536      -1.13195063      -1.85405160       0.03641760      -0.18124019       0.30487611
C       -2.70672712       0.99417884      -0.94852257      -0.80117912       0.40331835      -0.22085432
C       -1.16410968      -1.29675271      -0.77930821      -0.12794271       0.43120689      -0.33291782
C       -1.84864006       0.83033184       0.11333587       0.61397000      -0.23320940       0.50308791
C       -1.04937801      -0.31265302       0.19341441       0.32656818      -0.60092384       0.91089561
N        2.75703087       1.71532140       0.33990314      -6.86621958      -5.91350017      12.20537839
C       -0.12989829      -0.55853452       1.41459571      -0.48541750       0.03984512      -0.48223048
C        3.71625438       1.68116532       1.43799018      -1.64809168      -0.41578680       0.08918860
H        3.82052769       2.72991592      -0.63331062      -0.08161539       0.52877083      -0.07146241
H        3.01175728       3.46252583       1.88621448       0.78611347      -0.81511941      -0.01915913
H        1.77051904      -0.43404843       3.44984220      -0.05368671       0.97030215      -0.97374680
H        0.98923531       0.93207864      -0.63860751       0.96200759       0.43591538       1.00192186
H        3.79616394       0.84984873       3.51659202       0.47472938       0.00298504      -0.11128417
H       -3.57239541       0.11887743      -2.73207331       0.39870607      -0.01543173       0.40670964
H       -2.12605128      -1.90232278      -2.61615897      -0.01583709       0.12624902       0.16455610
H       -3.32051406       1.89675544      -1.00908888       0.18015470      -0.35673946       0.02449696
H       -0.55362186      -2.18139269      -0.67626656      -0.01996734      -0.09754021      -0.17100839
H       -1.78587899       1.54624299       0.93442785      -0.05412386      -0.00934020      -0.41821267
H       -0.69747147      -0.22604634       2.30344747       0.26847251      -0.34997751      -0.24606314
H        0.06229451      -1.65655019       1.50618683      -0.20837007       0.85241496       0.01195231
H        4.62146463       1.24489270       1.02503084       0.77816578       0.64093322       0.09056601
