28
Properties=species:S:1:pos:R:3:forces:R:3 id=3040 bond=N-O smiles="[H:21][c:7]1[c:8]([c:10]([c:12]([c:11]([c:9]1[H:23])[H:25])[C:14]([H:26])([H:27])[C:5]2=[C:4]([N:13]([C:15]([C:6](=[C:3]2[H:18])[H:20])([H:28])[O:2][H:17])[O:1][H:16])[H:19])[H:24])[H:22]" dataset=PubChem energy=-18248.908615513803 pbc="F F F"
O        3.13984198       2.07452627      -0.74356240       3.93321324       2.75709824      -9.06956452
O        3.88496074       3.03457805       1.79122076       0.66436045       1.19357746       0.19938721
C        2.00368414       0.22245263       2.59125051       1.88103591      -0.20437482       0.42999417
C        1.57838438       0.95152023       0.32888912       0.03701008      -0.59814349       0.56655847
C        1.17521820       0.19907072       1.40559492       0.04410475       0.67265884      -0.49866013
C        3.22756181       0.86447846       2.62003789      -2.66239556      -0.80596616      -0.34465897
C       -2.85701456      -0.00725738      -1.89635839       0.11187099       0.10218046      -0.42145686
C       -2.05437555      -1.13814381      -1.83537116       0.03635269      -0.18137246       0.30499903
C       -2.71332731       0.98798566      -0.92984213      -0.80126205       0.40310840      -0.22062150
C       -1.17070987      -1.30294589      -0.76062777      -0.12740419       0.43069102      -0.33142528
C       -1.85524025       0.82413866       0.13201631       0.61417710      -0.23359382       0.50475021
C       -1.05597820      -0.31884620       0.21209485       0.32479506      -0.60037082       0.90678515
N        2.75043068       1.70912822       0.35858358      -5.37777311      -4.53286429       8.68110835
C       -0.13649848      -0.56472770       1.43327615      -0.48903690       0.04387525      -0.48732962
C        3.70965419       1.67497214       1.45667062      -1.56387988      -0.27411794      -0.11664387
H        3.82712788       2.73610910      -0.65199106      -0.11298225       0.44162643       0.10823417
H        3.00515709       3.45633265       1.90489492       0.79595659      -0.81521340      -0.03528787
H        1.76391885      -0.44024161       3.46852264      -0.05357254       0.97140321      -0.97347147
H        0.98263512       0.92588546      -0.61992707       0.94953336       0.42998728       1.01267275
H        3.78956375       0.84365555       3.53527246       0.47407758       0.01048316      -0.11350492
H       -3.57899560       0.11268425      -2.71339287       0.39896061      -0.01540541       0.40686892
H       -2.13265147      -1.90851596      -2.59747853      -0.01552220       0.12648034       0.16483105
H       -3.32711425       1.89056226      -0.99040844       0.18070080      -0.35689961       0.02456581
H       -0.56022205      -2.18758587      -0.65758612      -0.01996243      -0.09762818      -0.17166215
H       -1.79247918       1.54004981       0.95310829      -0.05441040      -0.00884889      -0.41862546
H       -0.70407166      -0.23223952       2.32212791       0.27166456      -0.34898450      -0.24528774
H        0.05569432      -1.66274337       1.52486727      -0.20403762       0.85469583       0.01327142
H        4.61486444       1.23869952       1.04371128       0.76486650       0.63805792       0.12141142
