28
Properties=species:S:1:pos:R:3:forces:R:3 id=3040 bond=N-O smiles="[H:21][c:7]1[c:8]([c:10]([c:12]([c:11]([c:9]1[H:23])[H:25])[C:14]([H:26])([H:27])[C:5]2=[C:4]([N:13]([C:15]([C:6](=[C:3]2[H:18])[H:20])([H:28])[O:2][H:17])[O:1][H:16])[H:19])[H:24])[H:22]" dataset=PubChem energy=-18247.683803264692 pbc="F F F"
O        3.24544505       2.17361727      -1.04244945      -1.86945089      -2.48058982       2.60596778
O        3.77935767       2.93548705       2.09010781       0.50616084       0.70591540       0.55521576
C        1.89808107       0.12336163       2.89013756       2.17986540      -0.15094307       0.70490532
C        1.47278131       0.85242923       0.62777617       0.58176171      -0.64299474      -1.18949467
C        1.06961513       0.09997972       1.70448197       0.24491853       0.66953404      -0.63605861
C        3.12195874       0.76538746       2.91892494      -3.09016773      -1.12999973      -0.27792388
C       -2.96261763      -0.10634838      -1.59747134       0.11812350       0.09808709      -0.41192825
C       -2.15997862      -1.23723481      -1.53648411       0.03262414      -0.18135216       0.30397876
C       -2.81893038       0.88889466      -0.63095508      -0.80171548       0.40183505      -0.21649758
C       -1.27631294      -1.40203689      -0.46174072      -0.11648633       0.42395486      -0.31528264
C       -1.96084332       0.72504766       0.43090336       0.61359257      -0.23419857       0.52118585
C       -1.16158127      -0.41793720       0.51098190       0.30079144      -0.60213697       0.85923811
N        2.64482761       1.61003722       0.65747063      -1.04021540       0.39696844      -1.76324068
C       -0.24210155      -0.66381870       1.73216320      -0.63005350       0.21596693      -0.49639332
C        3.60405112       1.57588114       1.75555767      -0.66761142       0.86034315      -1.27362413
H        3.93273095       2.83520010      -0.95087811       0.18265800       0.27455184       1.14542181
H        2.89955402       3.35724165       2.20378197       0.84447812      -0.78220319      -0.16873776
H        1.65831578      -0.53933261       3.76740969      -0.05211881       0.97670939      -0.98480938
H        0.87703205       0.82679446      -0.32104002       0.80369072       0.43986116       1.08175037
H        3.68396068       0.74456455       3.83415951       0.55006496      -0.01007826      -0.16701610
H       -3.68459867       0.01359325      -2.41450582       0.40222012      -0.01521587       0.40893818
H       -2.23825454      -2.00760696      -2.29859148      -0.01209266       0.12913861       0.16809675
H       -3.43271732       1.79147126      -0.69152139       0.18752886      -0.35884451       0.02540415
H       -0.66582512      -2.28667687      -0.35869907      -0.02014486      -0.09969501      -0.17907474
H       -1.89808225       1.44095881       1.25199534      -0.05920601      -0.00301338      -0.42250584
H       -0.80967473      -0.33133052       2.62101496       0.28051009      -0.35627028      -0.24031291
H       -0.04990875      -1.76183437       1.82375432      -0.12364191       0.88747019       0.01544207
H        4.50926137       1.13960852       1.34259833       0.65279393       0.56666739       0.34974852
