44
Properties=species:S:1:pos:R:3:forces:R:3 id=42233 bond=C-N smiles="[H:26][c:11]1[c:10]([c:13]([c:14]([c:12]([c:15]1[N:16]([H:28])[C:6](=[S:1])[C:8]2=[C:7]([O:4][C:21]([C:22]2([H:43])[H:44])([H:41])[H:42])[C:17]([H:29])([H:30])[H:31])[H:27])/[C:9](=[N:3]/[O:5][C:23]([C:18]([H:32])([H:33])[H:34])([C:19]([H:35])([H:36])[H:37])[C:20]([H:38])([H:39])[H:40])/[H:24])[Cl:2])[H:25]" dataset=PubChem energy=-48418.52756510821 pbc="F F F"
S       -1.89791175       3.82681055      -2.71642287       0.73859736      -0.16282793       0.57868046
Cl       4.48173046      -0.61825296      -3.07474648      -0.42037933      -0.07270526       0.24824407
N        2.33234573      -2.23070827       0.41041604       0.93091437       1.20951897      -1.37947591
O       -3.66699048       4.71426696       1.69420247      -0.21569117       0.37733379       0.91591926
O        2.98687482      -3.39139929       0.91303700      -0.44721882       0.75574781      -1.07532748
C       -1.72032853       3.39774580      -1.10432275       0.96537508      -1.95298233      -0.95465869
C       -2.47885485       4.47154302       1.09039239      -0.58830357      -2.00827256      -2.88709014
C       -2.70819612       3.90190787      -0.15258803       2.08295895       0.60145677       2.07181908
C        2.80787302      -1.73623028      -0.72267091      -0.24217746      -1.66698002       3.15168087
C        2.49315048       1.18811366      -3.09200203      -0.37828717      -0.08421745       1.21574168
C        1.38691647       1.87880358      -2.58557474      -1.00430828      -0.59335361       0.61754479
C        1.18718148       0.21195521      -0.78108609      -0.22124436       1.00942087      -0.11451008
C        2.99989748       0.04622284      -2.42179977      -0.54917023       1.19764387      -0.71066494
C        2.34668732      -0.45507267      -1.29440402      -0.84167261      -0.25922967      -0.07619162
C        0.71295232       1.35566452      -1.44798600      -0.63749282       0.80754244       0.83961971
N       -0.90393551       2.38613827      -0.60708721       1.70550720      -0.15711959      -1.77180916
C       -1.15440830       4.71911831       1.77095155      -1.37263612       0.12210060      -0.05759618
C        1.66534609      -3.48712554       3.06003392       0.10427775       0.40393837      -0.42381512
C        3.78019906      -2.12287464       2.82304609       0.53227609       0.30965268       0.18760349
C        3.89932109      -4.63090577       2.70132053      -0.83995336      -0.79147784      -0.16735633
C       -4.76508780       4.34280653       0.79872259       0.06746041       0.00375557       0.11609705
C       -4.14090748       3.74636979      -0.44743927      -0.71428677       0.06939728      -0.45302192
C        3.05543185      -3.39598003       2.37427914      -0.15855047       0.33707560       0.48101204
H        3.64226985      -2.21965518      -1.21948564      -0.05444431      -0.08761984       0.05819937
H        2.95564175       1.61359915      -3.97291624       0.18586889      -0.32032377       0.12582075
H        1.03482113       2.74752435      -3.12904560      -0.15460905      -0.09805718       0.33318851
H        0.79280779      -0.16968444       0.17461127      -0.04612618       0.23712478      -0.83509411
H       -1.14472946       2.08529110       0.33082880       0.47354343      -0.09315828      -0.16295590
H       -0.34653624       4.47778720       1.09487657       0.04916667      -0.29904329       0.02389109
H       -1.12853142       4.15484495       2.70532290       0.23952224       0.02170171      -0.14520934
H       -1.07596608       5.76720734       2.00382368       0.04299945       0.43679662       0.26604366
H        1.74981875      -3.48849311       4.15681398       0.21534428       0.19372449      -0.40340736
H        1.03520001      -2.64026561       2.74307382       0.31746656      -0.31348503       0.21544047
H        1.14179248      -4.39901223       2.80125511       0.03449973      -0.21206817      -0.23486007
H        3.08000994      -1.27631143       2.88274419       0.27947586      -0.28405982      -0.08115905
H        4.58435464      -1.85093990       2.08183897      -0.68201839      -0.38194213       0.95877524
H        4.20237398      -2.28929963       3.84815514      -0.21398336       0.26119052      -0.98951184
H        4.84252334      -4.62288966       2.16222895       0.06337623       0.11078016       0.06362120
H        3.33891249      -5.55042281       2.39092195       0.51860131       0.74493711       0.28472182
H        4.08409191      -4.69332042       3.78855646      -0.09447555       0.10195116      -0.57435719
H       -5.30344697       5.25281115       0.56758892      -0.13678282       0.11046218       0.18593057
H       -5.43227120       3.60890622       1.25619576       0.24612319       0.39282034       0.47339510
H       -4.43696518       4.29713721      -1.34665950       0.12300472      -0.23641795       0.13312837
H       -4.41351768       2.69147320      -0.58682712       0.09384611       0.26223740      -0.04067803
