44
Properties=species:S:1:pos:R:3:forces:R:3 id=42233 bond=C-N smiles="[H:26][c:11]1[c:10]([c:13]([c:14]([c:12]([c:15]1[N:16]([H:28])[C:6](=[S:1])[C:8]2=[C:7]([O:4][C:21]([C:22]2([H:43])[H:44])([H:41])[H:42])[C:17]([H:29])([H:30])[H:31])[H:27])/[C:9](=[N:3]/[O:5][C:23]([C:18]([H:32])([H:33])[H:34])([C:19]([H:35])([H:36])[H:37])[C:20]([H:38])([H:39])[H:40])/[H:24])[Cl:2])[H:25]" dataset=PubChem energy=-48419.5499486943 pbc="F F F"
S       -1.82050755       3.77747936      -2.75667866       0.72150703      -0.18040561       0.63602048
Cl       4.40432626      -0.56892177      -3.03449069      -0.39545976      -0.08751778       0.23780443
N        2.25494153      -2.18137708       0.45067183       0.91385810       1.22414174      -1.38103516
O       -3.58958628       4.66493577       1.65394668      -0.20651293       0.37118405       0.91424479
O        2.90947062      -3.34206810       0.95329279      -0.43411114       0.72800039      -1.05192936
C       -1.64292433       3.34841461      -1.14457854       0.79278445      -1.81008188      -0.96549279
C       -2.40145065       4.42221183       1.05013660      -0.60406782      -2.01278589      -2.89865460
C       -2.63079192       3.85257668      -0.19284382       2.10186133       0.61149646       2.05539528
C        2.73046882      -1.68689909      -0.68241512      -0.22410272      -1.65144549       3.12946244
C        2.41574628       1.23744485      -3.05174624      -0.40565062      -0.01966073       1.18996876
C        1.30951227       1.92813477      -2.54531895      -0.73488273      -0.80158720       0.52852119
C        1.10977728       0.26128640      -0.74083030       0.03570898       0.87534145      -0.27518681
C        2.92249328       0.09555403      -2.38154398      -0.56499933       1.19853431      -0.70884524
C        2.26928312      -0.40574148      -1.25414823      -0.88301700      -0.27358076      -0.00733765
C        0.63554812       1.40499571      -1.40773021      -1.47949763       1.40999041       1.20437064
N       -0.82653131       2.33680708      -0.64734300       2.27783660      -0.62112528      -1.86900586
C       -1.07700410       4.66978712       1.73069576      -1.37524288       0.11928948      -0.05621437
C        1.58794189      -3.43779435       3.10028971       0.10455195       0.40407173      -0.42085850
C        3.70279486      -2.07354345       2.86330188       0.53310914       0.30986451       0.19022871
C        3.82191689      -4.58157458       2.74157632      -0.84025676      -0.79037605      -0.16370143
C       -4.68768360       4.29347534       0.75846680       0.06501296       0.00736845       0.11494292
C       -4.06350328       3.69703860      -0.48769506      -0.71579027       0.08544497      -0.46643455
C        2.97802765      -3.34664884       2.41453493      -0.15617122       0.33899108       0.45615460
H        3.56486565      -2.17032399      -1.17922985      -0.05354081      -0.09491780       0.06325611
H        2.87823755       1.66293034      -3.93266045       0.20431310      -0.33402022       0.12616271
H        0.95741693       2.79685554      -3.08878981      -0.15796465      -0.11664245       0.34963313
H        0.71540359      -0.12035325       0.21486706      -0.05598959       0.24499198      -0.83335212
H       -1.06732526       2.03595991       0.29057301       0.43883885      -0.04280069      -0.22936030
H       -0.26913204       4.42845601       1.05462078       0.05472575      -0.29291863       0.02648826
H       -1.05112722       4.10551376       2.66506711       0.23918924       0.02267307      -0.14490573
H       -0.99856188       5.71787615       1.96356789       0.04685306       0.43388021       0.26349032
H        1.67241455      -3.43916192       4.19706977       0.21483925       0.19320799      -0.40181340
H        0.95779581      -2.59093442       2.78332961       0.31827688      -0.31335259       0.21375051
H        1.06438828      -4.34968104       2.84151090       0.03437111      -0.21238666      -0.23527686
H        3.00260574      -1.22698024       2.92299998       0.27963866      -0.28416002      -0.08239392
H        4.50695044      -1.80160871       2.12209476      -0.68388769      -0.38199984       0.95815740
H        4.12496978      -2.23996844       3.88841093      -0.21327181       0.26098278      -0.98761896
H        4.76511914      -4.57355847       2.20248474       0.06268784       0.11121877       0.06306758
H        3.26150829      -5.50109162       2.43117774       0.51834701       0.74493589       0.28413030
H        4.00668771      -4.64398923       3.82881225      -0.09374492       0.10089120      -0.57311672
H       -5.22604277       5.20347996       0.52733313      -0.13677328       0.10990408       0.18740415
H       -5.35486700       3.55957503       1.21593997       0.24711503       0.39292781       0.47122130
H       -4.35956098       4.24780602      -1.38691529       0.11309364      -0.23627802       0.13603955
H       -4.33611348       2.64214201      -0.62708291       0.09362712       0.26074577      -0.04048791
