42
Properties=species:S:1:pos:R:3:forces:R:3 id=6189 bond=C-C smiles="[H:22][C:5]1=[C:4]([C:15]([C:11]([C:12]([C:17]1([C:18]2([C:13]([C:10]([C:14]3([C:16]2([O:3]3)[C:9]([H:32])([H:33])[O:1][H:19])[H:42])([H:34])[H:35])([H:40])[H:41])[C:8]([H:29])([H:30])[H:31])[C:7]([H:26])([H:27])[H:28])([H:38])[H:39])([H:36])[H:37])([C:6]([H:23])([H:24])[H:25])[O:2][H:20])[H:21]" dataset=PubChem energy=-22098.83339131976 pbc="F F F"
O        2.59956798       2.04344521      -3.24779780       0.32426297       0.38030354       0.04114741
O        0.28431023       0.44563429       3.91333883       0.68234957      -1.05417945       1.07754556
O        3.39770494       0.47750832      -1.52583248       0.62477799      -1.11944308       0.37670157
C        0.06855289       2.19843171       2.44338779       0.57326736      -0.49676238      -3.63349209
C        0.39645244       1.93715320       1.13096337      -0.50582447       0.48282067       2.10756854
C       -1.48827424       1.93445490       4.37266891      -0.02189503      -0.12245643       0.01912660
C       -1.16450884       1.15463047      -0.57304175       0.51082821       1.49524286      -0.28040020
C        0.62309704      -1.68630928      -1.46721757       1.42876787       2.32477173       0.32079931
C        1.55921689       1.84800742      -2.29580052       0.58475183      -0.32944540      -0.42864958
C        3.30211267       0.58358884       0.96650578       0.08306574       0.67765312      -0.22203818
C       -1.59778490       0.31581034       2.44710784      -0.50319019      -0.20261743      -0.39677479
C       -0.80769386      -0.32868148       1.30853377       1.06105750      -0.23608289       0.23012050
C        2.27292070      -0.53688611       0.67752194       1.15890056      -0.33861420      -0.09302900
C        3.49408230       1.30483679      -0.39467581      -3.55047909      -0.14473944       0.97696873
C       -0.70058384       1.22013916       3.27793114      -0.19832785       0.58196921       0.15027411
C        2.12327466       1.01117121      -1.15066858       0.83356301       0.27178325       0.52794244
C       -0.05764553       0.68176603       0.37974338      -0.02897673      -0.12943394      -0.39555595
C        1.25050036       0.02995228      -0.34999044      -1.25428533      -2.18994772       0.00530520
H        3.38213382       1.49214499      -2.98943264      -1.29632388       0.61235716      -0.13779150
H        0.71017652      -0.12988962       3.26772921      -0.12205060       0.33079749       0.14399082
H        0.48326372       3.09682225       2.86028378      -0.16079149       0.21398463       0.44840639
H        0.97109035       2.70707451       0.57174435      -0.40466610      -0.80702504       0.39673560
H       -2.21554556       2.59488199       3.89816468       0.02866285       0.00557739       0.09264340
H       -0.81467619       2.54581974       4.99779098      -0.34708198      -0.41569024      -0.19318813
H       -2.03939857       1.19274534       4.97516171       0.36265538       0.39457450      -0.10530552
H       -2.02995982       1.56949709      -0.03836609       0.46593514      -0.12615370       0.08724629
H       -0.79976072       1.94502018      -1.22974188      -0.08743282       0.12160810       0.12324559
H       -1.54198231       0.41764279      -1.22281701      -0.24739050      -1.28908609      -0.63380769
H       -0.03752282      -1.40083379      -2.29596389       0.15769955       0.20673411       0.52523462
H        1.52108425      -2.16129678      -1.90382826      -0.18961801       0.69535441       0.41719933
H        0.16049940      -2.42113298      -0.83078051      -0.24772248       0.25402413       0.59235657
H        0.76246381       1.27901434      -2.79216988       0.06011383      -0.00932931       0.24789238
H        1.10754511       2.80497788      -1.97500379       0.51280422      -0.33277078      -0.07425325
H        4.23735103       0.23352961       1.40059535       0.01541298      -0.34334441      -0.17194883
H        2.89164815       1.28186880       1.72631006       0.21802062      -0.11725932      -0.75818309
H       -2.43765320       0.87383867       2.00937586       0.21289601       0.00224019       0.35707813
H       -2.02599206      -0.47925796       3.10513012       0.35240459       0.64800697      -0.48554896
H       -1.46321978      -0.96544827       0.71594387       0.11174807       0.09813884      -0.08703107
H       -0.07917395      -1.00143887       1.76657884      -0.10046420      -0.12183805      -0.15595186
H        1.92056832      -0.94743539       1.63900392      -0.27011291       0.21850269      -0.70024633
H        2.87997255      -1.33759619       0.20705627      -0.74001295       0.31044754       0.15778904
H        4.00391445       2.26941262      -0.42744000      -0.08946229      -0.39909139      -0.47449995
