42
Properties=species:S:1:pos:R:3:forces:R:3 id=6189 bond=C-C smiles="[H:22][C:5]1=[C:4]([C:15]([C:11]([C:12]([C:17]1([C:18]2([C:13]([C:10]([C:14]3([C:16]2([O:3]3)[C:9]([H:32])([H:33])[O:1][H:19])[H:42])([H:34])[H:35])([H:40])[H:41])[C:8]([H:29])([H:30])[H:31])[C:7]([H:26])([H:27])[H:28])([H:38])[H:39])([H:36])[H:37])([C:6]([H:23])([H:24])[H:25])[O:2][H:20])[H:21]" dataset=PubChem energy=-22100.800226750653 pbc="F F F"
O        2.51861272       1.82199210      -3.39195614       0.29414000       0.37146820       0.02807779
O        0.20335497       0.22418118       3.76918049       0.66877105      -1.07144152       1.08219269
O        3.31674968       0.25605521      -1.66999082       0.61334151      -1.26314069       0.29085947
C       -0.01240237       1.97697860       2.29922945       0.57741625      -0.45397364      -3.64852601
C        0.31549718       1.71570009       0.98680503      -0.66199210       0.45651392       2.15257656
C       -1.56922950       1.71300179       4.22851057      -0.02687427      -0.12721857       0.01857621
C       -1.24546410       0.93317736      -0.71720009       0.52534511       1.47961604      -0.28756373
C        0.70405230      -1.46485617      -1.32305923       1.00622721       1.40218320      -0.67496713
C        1.47826163       1.62655431      -2.43995886       0.64418811      -0.34147557      -0.39503880
C        3.22115741       0.36213573       0.82234744       0.08601238       0.60886150      -0.17926591
C       -1.67874016       0.09435723       2.30294950      -0.50362551      -0.20643453      -0.39074775
C       -0.88864912      -0.55013459       1.16437543       1.03730745      -0.21950471       0.22082867
C        2.19196544      -0.75833922       0.53336360       1.52017467       0.25936264       0.41844024
C        3.41312704       1.08338368      -0.53883415      -3.66431508      -0.03106204       0.96232973
C       -0.78153910       0.99868605       3.13377280      -0.18126953       0.59960795       0.13798444
C        2.04231940       0.78971810      -1.29482692       1.19484791       0.83363081       0.88165552
C       -0.13860079       0.46031292       0.23558504       0.18143418       0.41325583      -0.00358777
C        1.16954510      -0.19150083      -0.49414878      -1.04578843      -1.73379355       0.55632162
H        3.30117856       1.27069188      -3.13359098      -1.29082660       0.61113311      -0.12345393
H        0.62922126      -0.35134273       3.12357087      -0.11454905       0.33861200       0.14694442
H        0.40230846       2.87536914       2.71612544      -0.15179469       0.20496758       0.46288760
H        0.89013509       2.48562140       0.42758601      -0.39540941      -0.81198503       0.39368817
H       -2.29650082       2.37342888       3.75400634       0.02925021       0.00590537       0.09294870
H       -0.89563145       2.32436663       4.85363264      -0.34677104      -0.41664393      -0.19547347
H       -2.12035383       0.97129223       4.83100337       0.36155579       0.39465523      -0.10277712
H       -2.11091508       1.34804398      -0.18252443       0.46832378      -0.13944155       0.08090051
H       -0.88071598       1.72356707      -1.37390022      -0.08760398       0.12449287       0.12200566
H       -1.62293757       0.19618968      -1.36697535      -0.30751436      -1.25298966      -0.63682214
H        0.04343244      -1.17938068      -2.15180555       0.04924252      -0.22600537       0.31650583
H        1.60203951      -1.93984367      -1.75966992      -0.44908222       0.30114096       0.14442520
H        0.24145466      -2.19967987      -0.68662217      -0.29006681      -0.05375084       0.23865752
H        0.68150855       1.05756123      -2.93632822       0.03635266       0.00873274       0.20895657
H        1.02658985       2.58352477      -2.11916213       0.50200681      -0.34452297      -0.07523326
H        4.15639577       0.01207650       1.25643701       0.02664917      -0.32532575      -0.16846416
H        2.81069289       1.06041569       1.58215172       0.22630588      -0.11408035      -0.75572589
H       -2.51860846       0.65238556       1.86521752       0.21516841       0.00036616       0.35430391
H       -2.10694732      -0.70071107       2.96097178       0.35169550       0.64620774      -0.48704652
H       -1.54417504      -1.18690138       0.57178553       0.07398265       0.09827549      -0.05112459
H       -0.16012921      -1.22289198       1.62242050      -0.09607714      -0.12808344      -0.13561248
H        1.83961306      -1.16888850       1.49484558      -0.25694119       0.21832409      -0.66953338
H        2.79901729      -1.55904930       0.06289793      -0.75583061       0.30387673       0.14766226
H        3.92295919       2.04795951      -0.57159834      -0.06509294      -0.41773954      -0.48044461
