50
Properties=species:S:1:pos:R:3:forces:R:3 id=12156 bond=C-N smiles="[H:18][C:2]([H:19])([H:20])[C:4]([H:24])([H:25])[C:5]([H:26])([H:27])[C:6]([H:28])([H:29])[C:7]([H:30])([H:31])[C:8]([H:32])([H:33])[C:9]([H:34])([H:35])[C:10]([H:36])([H:37])[C:11]([H:38])([H:39])[C:12]([H:40])([H:41])[C:13]([H:42])([H:43])[C:16]([H:50])([C:3]([H:21])([H:22])[H:23])[N+:17]([C:14]([H:44])([H:45])[H:46])([C:15]([H:47])([H:48])[H:49])[O-:1]" dataset=PubChem energy=-19641.310873655442 pbc="F F F"
O        2.04805529       5.79881639       2.81867495      -4.20939289       4.81349275      -1.77417137
C       -2.67961466      -4.90060644      -4.43633660       0.68506976      -0.07335159      -0.17299685
C        3.07544458       2.39231104       3.06982222      -0.69253202       0.31364950      -0.18854206
C       -2.27705658      -4.97597533      -2.96675500       0.08279579       0.84790484       0.40025300
C       -1.30957020      -3.84726363      -2.48663744      -0.92054096      -0.27883672       0.19165990
C       -1.12710047      -3.81661683      -0.97034487      -0.11366058      -0.19349646       0.23259084
C       -0.38645709      -2.61193304      -0.36302677      -0.38208090      -0.56694447      -0.66818555
C       -1.10178507      -1.28616219      -0.59194978       0.79322773       0.50962294       1.11723506
C       -0.37018550      -0.23745602       0.31277126       0.02527210       0.36041002      -0.49913771
C       -0.83497978       1.20161826       0.07800875      -0.13919398      -0.29055741       0.25969462
C       -0.06575472       2.21431882       0.92777157       0.16750544      -0.34741341       0.44445592
C        1.36250054       2.46747071       0.45766963      -0.08961902       0.02243455      -0.03541743
C        1.97768247       3.69268340       1.10075924      -1.61883580       0.51831435       0.74394765
C        4.12538802       5.18670529       2.64416328       1.58543720      -0.32569170      -0.58551228
C        2.78356616       4.96198878       4.82106269       0.07797704      -0.55510006      -0.73686863
C        2.18505644       3.59580726       2.63827101       0.73523858      -2.25901978      -0.37018261
N        2.77113544       4.85972423       3.17610350       2.32415145      -1.07084250       2.66390951
H       -3.20963919      -3.98592358      -4.70092734       0.04823304       0.05656705       0.18498723
H       -3.33470476      -5.73843270      -4.67588195       0.12062626       0.01454125      -0.14694453
H       -1.76967514      -4.94992332      -5.06276282      -0.51494165      -0.05537638       0.10539116
H        2.65509235       1.42694569       2.79292432      -0.26205995       0.14340784      -0.01796168
H        3.16706621       2.40095181       4.15550843       0.21941952      -0.07357712      -0.11014870
H        4.04651749       2.43087334       2.59577504       0.26638654       0.10300628       0.04915965
H       -1.79224694      -5.92793493      -2.78091391       0.03701219      -0.23134606       0.06754270
H       -3.19214309      -4.96468620      -2.36187323       0.23133518       0.06779541       0.05294000
H       -1.67032755      -2.88231664      -2.81220969      -0.28177541       0.25662203      -0.24570013
H       -0.35813916      -3.98721104      -2.95410785       0.70279087      -0.08609126      -0.40688521
H       -2.11398160      -3.88112383      -0.51316318      -0.11186928       0.01559285       0.10100965
H       -0.60803438      -4.72709255      -0.69389507       0.11066011      -0.24862822       0.21095890
H        0.61209881      -2.57302719      -0.81937131      -0.09814770       0.12780210       0.28678669
H       -0.27311296      -2.74604040       0.72690428       0.04914135      -0.12504596      -0.49745913
H       -1.11115516      -1.00116640      -1.64717849       0.25685358       0.12894964       0.18231062
H       -2.15065372      -1.35140043      -0.29348871       0.02963232      -0.06746104       0.07879774
H        0.72962018      -0.28929763       0.12795809      -0.76024781      -0.18550187       0.23446116
H       -0.56532276      -0.42088341       1.40241447       0.30667099      -0.28992913      -0.96783125
H       -0.78422821       1.49533124      -0.97703274       0.10441763      -0.15342104       0.11449739
H       -1.89446485       1.18934763       0.34597318      -0.01618744       0.38260128      -0.02592159
H       -0.58660829       3.17996139       0.87985021       0.04907928      -0.24351854       0.37363966
H        0.00845110       1.84466166       1.98935726      -0.47570772       0.50515333      -0.87561508
H        2.02788186       1.65522832       0.63998857       0.21261133      -1.04727845       0.21797227
H        1.39284604       2.58312768      -0.62639197      -0.16261666       0.24648274      -0.04530400
H        2.89103734       3.86841173       0.61651879       1.32434829       0.45511206      -0.55820636
H        1.26990157       4.50826663       0.86153591       0.76683698      -0.04490120       0.46613590
H        4.87076842       4.42001504       2.85520568      -0.02494770      -0.04699674       0.08108229
H        4.46991765       6.13360280       3.06828919      -0.48156383      -0.31347408       0.23404067
H        4.09984957       5.36889381       1.54387549      -0.47957147      -0.39863864       1.00724953
H        1.79437773       4.60690293       5.13618863       0.23461525       0.26685417      -0.37363982
H        2.90322249       6.04441771       5.09282840      -0.03562111      -1.19841057      -0.81773167
H        3.52565019       4.32889829       5.31049074       0.16706641       0.13074116      -0.20622883
H        1.20306837       3.46048779       3.08864633       0.15576302       0.48527724       0.22304088
