50
Properties=species:S:1:pos:R:3:forces:R:3 id=12156 bond=C-N smiles="[H:18][C:2]([H:19])([H:20])[C:4]([H:24])([H:25])[C:5]([H:26])([H:27])[C:6]([H:28])([H:29])[C:7]([H:30])([H:31])[C:8]([H:32])([H:33])[C:9]([H:34])([H:35])[C:10]([H:36])([H:37])[C:11]([H:38])([H:39])[C:12]([H:40])([H:41])[C:13]([H:42])([H:43])[C:16]([H:50])([C:3]([H:21])([H:22])[H:23])[N+:17]([C:14]([H:44])([H:45])[H:46])([C:15]([H:47])([H:48])[H:49])[O-:1]" dataset=PubChem energy=-19639.378312288445 pbc="F F F"
O        2.04545156       5.77739612       2.47412269      -2.17976868       2.33889020       0.05841546
C       -2.68221839      -4.92202671      -4.78088886       0.68622783      -0.07335347      -0.17252608
C        3.07284085       2.37089077       2.72526996      -0.69954335       0.38948625      -0.14808573
C       -2.27966031      -4.99739560      -3.31130726       0.08125380       0.84735717       0.39992444
C       -1.31217393      -3.86868390      -2.83118970      -0.91991948      -0.27926207       0.19157348
C       -1.12970420      -3.83803710      -1.31489713      -0.11403877      -0.19303170       0.23236044
C       -0.38906082      -2.63335331      -0.70757903      -0.38083631      -0.56793068      -0.66626938
C       -1.10438880      -1.30758246      -0.93650204       0.79226896       0.51186859       1.11577608
C       -0.37278923      -0.25887629      -0.03178100       0.02594906       0.35844845      -0.49309028
C       -0.83758351       1.18019799      -0.26654351      -0.13920030      -0.28772083       0.25251588
C       -0.06835845       2.19289855       0.58321931       0.16746293      -0.35307439       0.46099412
C        1.35989681       2.44605044       0.11311737      -0.10238621       0.02519445      -0.04053913
C        1.97507874       3.67126313       0.75620698      -1.54878444       0.48082566       0.64136054
C        4.12278429       5.16528502       2.29961102       1.53754613      -0.09839542       0.05599671
C        2.78616989       4.98340905       5.16561495       0.00952699      -0.08322751      -0.34439051
C        2.18245271       3.57438699       2.29371875       0.53895302      -2.24576824       0.23149915
N        2.76853171       4.83830396       2.83155124       0.69008248       0.46744757       0.06631634
H       -3.21224292      -4.00734385      -5.04547960       0.04800485       0.05660593       0.18494391
H       -3.33730849      -5.75985297      -5.02043421       0.12082404       0.01482111      -0.14678375
H       -1.77227887      -4.97134359      -5.40731508      -0.51491297      -0.05550398       0.10537116
H        2.65248862       1.40552542       2.44837206      -0.27441201       0.16013605      -0.04061653
H        3.16446248       2.37953154       3.81095617       0.21175802       0.04044530      -0.09370610
H        4.04391376       2.40945307       2.25122278       0.26572591       0.09916886       0.04148987
H       -1.79485067      -5.94935520      -3.12546617       0.03702632      -0.23091475       0.06759171
H       -3.19474682      -4.98610647      -2.70642549       0.23148979       0.06757306       0.05282013
H       -1.67293128      -2.90373691      -3.15676195      -0.28204307       0.25705978      -0.24623790
H       -0.36074289      -4.00863131      -3.29866011       0.70266906      -0.08621490      -0.40696423
H       -2.11658533      -3.90254410      -0.85771544      -0.11120110       0.01533001       0.10109278
H       -0.61063811      -4.74851282      -1.03844733       0.11052996      -0.24738286       0.21114531
H        0.60949508      -2.59444746      -1.16392357      -0.09812921       0.12782702       0.28704783
H       -0.27571669      -2.76746067       0.38235202       0.04920932      -0.12486394      -0.49801376
H       -1.11375889      -1.02258667      -1.99173075       0.25681746       0.12879743       0.18161258
H       -2.15325745      -1.37282070      -0.63804097       0.03038191      -0.06694932       0.07897784
H        0.72701645      -0.31071790      -0.21659417      -0.75944193      -0.18692265       0.23493168
H       -0.56792649      -0.44230368       1.05786221       0.30779741      -0.28952195      -0.96959867
H       -0.78683194       1.47391097      -1.32158500       0.10274196      -0.15407278       0.11295976
H       -1.89706858       1.16792736       0.00142092      -0.01333000       0.38468308      -0.02499136
H       -0.58921202       3.15854112       0.53529795       0.04220243      -0.24125181       0.37103992
H        0.00584737       1.82324139       1.64480500      -0.47534423       0.50915584      -0.88236121
H        2.02527813       1.63380805       0.29543631       0.21189175      -1.02387180       0.21996113
H        1.39024231       2.56170741      -0.97094423      -0.15918662       0.25000835      -0.04974153
H        2.88843361       3.84699146       0.27196653       1.31908879       0.45053340      -0.56526524
H        1.26729784       4.48684636       0.51698365       0.71995407      -0.02586331       0.44833215
H        4.86816469       4.39859477       2.51065342      -0.14921274      -0.00504574       0.11980243
H        4.46731392       6.11218253       2.72373693      -0.41906447      -0.34992278       0.22021917
H        4.09724584       5.34747354       1.19932323      -0.46407455      -0.40682946       0.92309721
H        1.79698146       4.62832320       5.48074089       0.11203195       0.11407703      -0.71382854
H        2.90582622       6.06583798       5.43738066       0.03652275      -0.99391461      -0.97450140
H        3.52825392       4.35031856       5.65504300       0.18251081       0.14636835      -0.39149719
H        1.20046464       3.43906752       2.74409407       0.17669828       0.42825549       0.19976997
