50
Properties=species:S:1:pos:R:3:forces:R:3 id=12156 bond=C-N smiles="[H:18][C:2]([H:19])([H:20])[C:4]([H:24])([H:25])[C:5]([H:26])([H:27])[C:6]([H:28])([H:29])[C:7]([H:30])([H:31])[C:8]([H:32])([H:33])[C:9]([H:34])([H:35])[C:10]([H:36])([H:37])[C:11]([H:38])([H:39])[C:12]([H:40])([H:41])[C:13]([H:42])([H:43])[C:16]([H:50])([C:3]([H:21])([H:22])[H:23])[N+:17]([C:14]([H:44])([H:45])[H:46])([C:15]([H:47])([H:48])[H:49])[O-:1]" dataset=PubChem energy=-19618.9676361686 pbc="F F F"
O        2.05099499       5.82300058       3.20768557      -8.21324496       8.35276976      -8.13676427
C       -2.67667496      -4.87642225      -4.04732598       0.68584713      -0.07278265      -0.17277637
C        3.07838428       2.41649523       3.45883284      -0.65813280       0.35351994      -0.12803708
C       -2.27411688      -4.95179114      -2.57774438       0.08173402       0.84653767       0.40045195
C       -1.30663050      -3.82307944      -2.09762682      -0.91973569      -0.27915148       0.19190826
C       -1.12416077      -3.79243264      -0.58133425      -0.11439240      -0.19342947       0.23175697
C       -0.38351739      -2.58774885       0.02598385      -0.38068815      -0.56805934      -0.66674856
C       -1.09884537      -1.26197800      -0.20293916       0.79162743       0.51062815       1.11608161
C       -0.36724580      -0.21327183       0.70178188       0.02546108       0.35913907      -0.49522260
C       -0.83204008       1.22580245       0.46701937      -0.14601446      -0.29494426       0.26273809
C       -0.06281502       2.23850301       1.31678219       0.17318552      -0.33296529       0.43462686
C        1.36544024       2.49165490       0.84668025      -0.08960278       0.01958578      -0.11533564
C        1.98062217       3.71686759       1.48976986      -1.65603244       0.23025937       0.66740471
C        4.12832772       5.21088948       3.03317390       2.87415717       0.18754517      -3.95363539
C        2.78062646       4.93780459       4.43205207       1.71778161       4.95307782     126.03853726
C        2.18799614       3.61999145       3.02728163       0.64655670      -3.36753117      -3.69698638
N        2.77407514       4.88390842       3.56511412       3.70513953      -9.87995921    -118.95074866
H       -3.20669949      -3.96173939      -4.31191672       0.04797266       0.05643094       0.18496133
H       -3.33176506      -5.71424851      -4.28687133       0.12096969       0.01490410      -0.14663024
H       -1.76673544      -4.92573913      -4.67375220      -0.51499984      -0.05547991       0.10537863
H        2.65803205       1.45112988       3.18193494      -0.31462343       0.19864368      -0.05062776
H        3.17000591       2.42513600       4.54451905       0.18342568      -0.17977708      -0.15037020
H        4.04945719       2.45505753       2.98478566       0.25234174       0.10416269       0.03136144
H       -1.78930724      -5.90375074      -2.39190329       0.03701277      -0.23093730       0.06757677
H       -3.18920339      -4.94050201      -1.97286261       0.23154782       0.06766528       0.05281746
H       -1.66738785      -2.85813245      -2.42319907      -0.28210726       0.25683269      -0.24625140
H       -0.35519946      -3.96302685      -2.56509723       0.70271113      -0.08614841      -0.40698082
H       -2.11104190      -3.85693964      -0.12415256      -0.11095283       0.01532923       0.10113514
H       -0.60509468      -4.70290836      -0.30488445       0.11063850      -0.24740552       0.21121105
H        0.61503851      -2.54884300      -0.43036069      -0.09788482       0.12780582       0.28646158
H       -0.27017326      -2.72185621       1.11591490       0.04901858      -0.12544226      -0.49741373
H       -1.10821546      -0.97698221      -1.25816787       0.25698326       0.12915102       0.18263222
H       -2.14771402      -1.32721624       0.09552191       0.03087863      -0.06694299       0.07895921
H        0.73255988      -0.26511344       0.51696871      -0.75904187      -0.18631447       0.23345766
H       -0.56238306      -0.39669922       1.79142509       0.30596941      -0.29047280      -0.96750937
H       -0.78128851       1.51951543      -0.58802212       0.10558458      -0.15069032       0.11858228
H       -1.89152515       1.21353182       0.73498380      -0.01351966       0.38380631      -0.02566213
H       -0.58366859       3.20414558       1.26886083       0.04698251      -0.24311753       0.37270101
H        0.01139080       1.86884585       2.37836788      -0.48030225       0.49639768      -0.86306191
H        2.03082156       1.67941251       1.02899919       0.21758885      -1.04663644       0.22008999
H        1.39578574       2.60731187      -0.23738135      -0.17118070       0.23378031      -0.04834501
H        2.89397704       3.89259592       1.00552941       1.32986100       0.45609615      -0.55106549
H        1.27284127       4.53245082       1.25054653       0.77706831      -0.04647488       0.49376980
H        4.87370812       4.44419923       3.24421630      -0.24459800      -0.14655318       0.15714251
H        4.47285735       6.15778699       3.45729981      -0.69181638      -0.35908612       0.30501163
H        4.10278927       5.39307800       1.93288611      -0.19541545      -0.34060873       0.88635289
H        1.79143803       4.58271874       4.74717801      -0.40822720       0.65259389       2.80120309
H        2.90028279       6.02023352       4.70381778       0.50984556      -0.64981005       2.21653629
H        3.52271049       4.30471410       4.92148012       0.21944255      -0.32261678       1.52017442
H        1.20600807       3.48467198       3.47765695       0.22554471       0.75411765       0.29764981
