50
Properties=species:S:1:pos:R:3:forces:R:3 id=12156 bond=C-N smiles="[H:18][C:2]([H:19])([H:20])[C:4]([H:24])([H:25])[C:5]([H:26])([H:27])[C:6]([H:28])([H:29])[C:7]([H:30])([H:31])[C:8]([H:32])([H:33])[C:9]([H:34])([H:35])[C:10]([H:36])([H:37])[C:11]([H:38])([H:39])[C:12]([H:40])([H:41])[C:13]([H:42])([H:43])[C:16]([H:50])([C:3]([H:21])([H:22])[H:23])[N+:17]([C:14]([H:44])([H:45])[H:46])([C:15]([H:47])([H:48])[H:49])[O-:1]" dataset=PubChem energy=-19640.82256673667 pbc="F F F"
O        2.04738336       5.79328858       2.72975824      -3.50339020       3.96395764      -1.18346986
C       -2.68028659      -4.90613425      -4.52525331       0.68498422      -0.07327006      -0.17252161
C        3.07477265       2.38678323       2.98090551      -0.69652998       0.34034974      -0.18119391
C       -2.27772851      -4.98150314      -3.05567171       0.08274923       0.84785355       0.39974594
C       -1.31024213      -3.85279144      -2.57555415      -0.92049455      -0.27897931       0.19175644
C       -1.12777240      -3.82214464      -1.05926158      -0.11379396      -0.19332230       0.23252028
C       -0.38712902      -2.61746085      -0.45194348      -0.38196453      -0.56712808      -0.66779831
C       -1.10245700      -1.29169000      -0.68086649       0.79324796       0.51000647       1.11692421
C       -0.37085743      -0.24298383       0.22385455       0.02490673       0.36021488      -0.49817386
C       -0.83565171       1.19609045      -0.01090796      -0.13850172      -0.28986721       0.25817335
C       -0.06642665       2.20879101       0.83885486       0.16713684      -0.34900059       0.44812043
C        1.36182861       2.46194290       0.36875292      -0.09176842       0.02015446      -0.03442252
C        1.97701054       3.68715559       1.01184253      -1.59985632       0.51750428       0.71536773
C        4.12471609       5.18117748       2.55524657       1.54025605      -0.27055689      -0.31738584
C        2.78423809       4.96751659       4.90997940       0.13042895      -0.52451769      -1.12193043
C        2.18438451       3.59027945       2.54935430       0.68369070      -2.23371086      -0.12376947
N        2.77046351       4.85419642       3.08718679       1.68762073      -0.40590449       2.41288694
H       -3.21031112      -3.99145139      -4.78984405       0.04816614       0.05657314       0.18499949
H       -3.33537669      -5.74396051      -4.76479866       0.12062267       0.01455601      -0.14693586
H       -1.77034707      -4.95545113      -5.15167953      -0.51497470      -0.05537549       0.10535928
H        2.65442042       1.42141788       2.70400761      -0.26391916       0.14593526      -0.02093472
H        3.16639428       2.39542400       4.06659172       0.21894520      -0.03891183      -0.10064943
H        4.04584556       2.42534553       2.50685833       0.26669565       0.10159477       0.04860353
H       -1.79291887      -5.93346274      -2.86983062       0.03701906      -0.23131379       0.06754896
H       -3.19281502      -4.97021401      -2.45078994       0.23133950       0.06775168       0.05291830
H       -1.67099948      -2.88784445      -2.90112640      -0.28181630       0.25671770      -0.24576348
H       -0.35881109      -3.99273885      -3.04302456       0.70275344      -0.08607275      -0.40686578
H       -2.11465353      -3.88665164      -0.60207989      -0.11183812       0.01562538       0.10097993
H       -0.60870631      -4.73262036      -0.78281178       0.11063351      -0.24846068       0.21096406
H        0.61142688      -2.57855500      -0.90828802      -0.09812859       0.12779027       0.28687596
H       -0.27378489      -2.75156821       0.63798757       0.04920332      -0.12497044      -0.49756475
H       -1.11182709      -1.00669421      -1.73609520       0.25682476       0.12890674       0.18209560
H       -2.15132565      -1.35692824      -0.38240542       0.02964462      -0.06743681       0.07885080
H        0.72894825      -0.29482544       0.03904138      -0.76018375      -0.18571317       0.23460567
H       -0.56599469      -0.42641122       1.31349776       0.30684867      -0.28983791      -0.96817483
H       -0.78490014       1.48980343      -1.06594945       0.10413714      -0.15373054       0.11389864
H       -1.89513678       1.18381982       0.25705647      -0.01591367       0.38288033      -0.02580969
H       -0.58728022       3.17443358       0.79093350       0.04773594      -0.24294605       0.37311128
H        0.00777917       1.83913385       1.90044055      -0.47556630       0.50642749      -0.87757052
H        2.02720993       1.64970051       0.55107186       0.21189215      -1.04232114       0.21801905
H        1.39217411       2.57759987      -0.71530868      -0.16185584       0.24785994      -0.04671902
H        2.89036541       3.86288392       0.52760208       1.32164174       0.45437531      -0.56074157
H        1.26922964       4.50273882       0.77261920       0.75684981      -0.04201081       0.46254651
H        4.87009649       4.41448723       2.76628897      -0.05181432      -0.03863475       0.09188209
H        4.46924572       6.12807499       2.97937248      -0.46181183      -0.32215355       0.22643397
H        4.09917764       5.36336600       1.45495878      -0.48258570      -0.40192885       0.98677263
H        1.79504966       4.61243074       5.22510534       0.18880307       0.20016686      -0.57175141
H        2.90389442       6.04994552       5.18174511      -0.01239473      -1.11163320      -0.97699569
H        3.52632212       4.33442610       5.39940745       0.17030294       0.13834776      -0.26952268
H        1.20239644       3.45495998       2.99972962       0.16044835       0.46512867       0.21388866
