50
Properties=species:S:1:pos:R:3:forces:R:3 id=12156 bond=C-N smiles="[H:18][C:2]([H:19])([H:20])[C:4]([H:24])([H:25])[C:5]([H:26])([H:27])[C:6]([H:28])([H:29])[C:7]([H:30])([H:31])[C:8]([H:32])([H:33])[C:9]([H:34])([H:35])[C:10]([H:36])([H:37])[C:11]([H:38])([H:39])[C:12]([H:40])([H:41])[C:13]([H:42])([H:43])[C:16]([H:50])([C:3]([H:21])([H:22])[H:23])[N+:17]([C:14]([H:44])([H:45])[H:46])([C:15]([H:47])([H:48])[H:49])[O-:1]" dataset=PubChem energy=-19638.237409462672 pbc="F F F"
O        2.04335177       5.76012170       2.19625796      -1.77743732       1.86183981       0.70489054
C       -2.68431818      -4.93930113      -5.05875359       0.68554403      -0.07307294      -0.17299456
C        3.07074106       2.35361635       2.44740523      -0.69369963       0.40945622      -0.12558938
C       -2.28176010      -5.01467002      -3.58917199       0.08181017       0.84672810       0.40028959
C       -1.31427372      -3.88595832      -3.10905443      -0.91888309      -0.27864458       0.19243958
C       -1.13180399      -3.85531152      -1.59276186      -0.11519691      -0.19338016       0.23144242
C       -0.39116061      -2.65062773      -0.98544376      -0.37928798      -0.56816905      -0.66494948
C       -1.10648859      -1.32485688      -1.21436677       0.79048218       0.51206545       1.11408990
C       -0.37488902      -0.27615071      -0.30964573       0.02714350       0.35858867      -0.48965026
C       -0.83968330       1.16292357      -0.54440824      -0.14089092      -0.28837756       0.24908714
C       -0.07045824       2.17562413       0.30535458       0.16620298      -0.35380157       0.46909419
C        1.35779702       2.42877602      -0.16474736      -0.11089758       0.03410317      -0.04485113
C        1.97297895       3.65398871       0.47834225      -1.52485263       0.45074643       0.59479230
C        4.12068450       5.14801060       2.02174629       1.57811519      -0.00605761       0.14625507
C        2.78826968       5.00068347       5.44347968      -0.19424834       0.33430008       0.46835146
C        2.18035292       3.55711257       2.01585402       0.45918655      -2.27996503       0.31602420
N        2.76643192       4.82102954       2.55368651       0.52857332       0.42780280      -1.45291502
H       -3.21434271      -4.02461827      -5.32334433       0.04788250       0.05664105       0.18485926
H       -3.33940828      -5.77712739      -5.29829894       0.12102669       0.01507784      -0.14663617
H       -1.77437866      -4.98861801      -5.68517981      -0.51504081      -0.05565420       0.10537966
H        2.65038883       1.38825100       2.17050733      -0.28201858       0.17130478      -0.05192307
H        3.16236269       2.36225712       3.53309144       0.20680616       0.07037787      -0.08867712
H        4.04181397       2.39217865       1.97335805       0.26439182       0.09796015       0.03509810
H       -1.79695046      -5.96662962      -3.40333090       0.03689681      -0.23057538       0.06766020
H       -3.19684661      -5.00338089      -2.98429022       0.23165489       0.06762819       0.05279339
H       -1.67503107      -2.92101133      -3.43462668      -0.28246353       0.25742617      -0.24662570
H       -0.36284268      -4.02590573      -3.57652484       0.70279736      -0.08622838      -0.40685406
H       -2.11868512      -3.91981852      -1.13558017      -0.11098671       0.01533470       0.10124061
H       -0.61273790      -4.76578724      -1.31631206       0.11033027      -0.24638440       0.21137096
H        0.60739529      -2.61172188      -1.44178830      -0.09815933       0.12774228       0.28683018
H       -0.27781648      -2.78473509       0.10448729       0.04919289      -0.12501384      -0.49840353
H       -1.11585868      -1.03986109      -2.26959548       0.25654080       0.12863413       0.18135815
H       -2.15535724      -1.39009512      -0.91590570       0.03077973      -0.06682059       0.07922153
H        0.72491666      -0.32799232      -0.49445890      -0.75907800      -0.18825567       0.23462681
H       -0.57002628      -0.45957810       0.77999748       0.30847655      -0.28927302      -0.97066311
H       -0.78893173       1.45663655      -1.59944973       0.10208440      -0.15352689       0.11261467
H       -1.89916837       1.15065294      -0.27644381      -0.01061555       0.38640914      -0.02433486
H       -0.59131181       3.14126670       0.25743322       0.03816371      -0.24078728       0.36959411
H        0.00374758       1.80596697       1.36694027      -0.47475628       0.51012034      -0.88371951
H        2.02317834       1.61653363       0.01757158       0.21390782      -1.01147145       0.22118764
H        1.38814252       2.54443299      -1.24880896      -0.15661293       0.25126996      -0.05157343
H        2.88633382       3.82971704      -0.00589820       1.32222531       0.44709861      -0.56441477
H        1.26519805       4.46957194       0.23911892       0.69470202      -0.01088683       0.44059977
H        4.86606490       4.38132035       2.23278869      -0.20525391       0.01657483       0.13040917
H        4.46521413       6.09490811       2.44587220      -0.39293484      -0.35701824       0.22327761
H        4.09514605       5.33019912       0.92145850      -0.44655356      -0.40316861       0.88367219
H        1.79908125       4.64559762       5.75860562       0.09455811       0.10085909      -0.72227883
H        2.90792601       6.08311240       5.71524539       0.04798336      -0.98577383      -0.88313564
H        3.53035371       4.36759298       5.93290773       0.21591493       0.12759683      -0.51263408
H        1.19836485       3.42179310       2.46622934       0.17841455       0.40965253       0.19551826
