8
Properties=species:S:1:pos:R:3:forces:R:3 id=14780 bond=O-P smiles="[H:6][O:2][P:5](=[S:1])([O:3][H:7])[S:4][H:8]" dataset=PubChem energy=-35110.29676360609 pbc="F F F"
S       -1.22862946      -0.74625227       0.43843075       0.05540990       1.05126048       0.27160109
O        0.20110212       2.35584111       1.12421674       0.82419847      -4.05414512      -1.39949836
O        1.36606611      -0.38226143       1.57310657       1.11646045       0.97994296      -0.23753854
S        1.27878971       0.06817952      -1.35893054       0.85460322       0.27739923      -0.82591210
P        0.43162041       0.26529184       0.47270439      -3.09189975       1.43933981       1.01048764
H        1.08905307       2.71897526       0.99700415      -0.08429059      -0.05750685       0.01458416
H        0.86318964      -0.30176046       2.38286571      -0.04313339      -0.18550762       0.76918388
H        0.35510599      -0.85898247      -1.74327488       0.36470180       0.55673985       0.39617131
