8
Properties=species:S:1:pos:R:3:forces:R:3 id=14780 bond=O-P smiles="[H:6][O:2][P:5](=[S:1])([O:3][H:7])[S:4][H:8]" dataset=PubChem energy=-35112.45803373422 pbc="F F F"
S       -1.25934944      -0.46765558       0.52525443      -0.07858570       0.66425684       0.15982735
O        0.23182210       2.07724442       1.03739306       1.04959753      -0.52383703      -0.86870041
O        1.33534613      -0.10366474       1.65993025       1.45364776       0.43346692      -0.13724061
S        1.24806973       0.34677621      -1.27210686       0.89781025       0.08248049      -0.96259890
P        0.40090043       0.54388853       0.55952807      -3.54308486      -1.70169998       0.42387724
H        1.11977305       2.44037857       0.91018047      -0.14911360       0.75311521       0.33095691
H        0.83246966      -0.02316377       2.46968939      -0.04064352      -0.26755612       0.64527944
H        0.32438601      -0.58038578      -1.65645120       0.40944801       0.55190543       0.40671071
