34
Properties=species:S:1:pos:R:3:forces:R:3 id=16545 bond=C-N smiles="[H:16][C:3]1=[N:1][N:6]([C:4]2=[C:5]1[C:11]([C:15]([C:14]([C:10]2([H:24])[H:25])([H:32])[H:33])([H:34])[N:7]([H:18])[C:12]([H:28])([H:29])[C:13]([H:30])([H:31])[C:9]([H:22])([H:23])[S:2][C:8]([H:19])([H:20])[H:21])([H:26])[H:27])[H:17]" dataset=PubChem energy=-27032.4913255968 pbc="F F F"
N        0.64075599       3.77116354      -2.63610789      -0.02651630       0.09016103       1.19187227
S        3.67009691      -2.92055372       1.06918724      -0.57932857      -0.42782688       0.30742214
C        0.70960084       4.10635169      -1.35070917      -0.39370857      -0.58397691       0.90797113
C       -0.75831925       2.41343828      -1.41410693       0.70924135       1.29697030       0.52926406
C       -0.14328041       3.28094371      -0.53525850       0.34453355       0.41833199      -0.82590304
N       -0.22202145       2.74370213      -2.63779255      -1.44233582      -1.17173130      -0.98221015
N        0.28677365       0.40131802       1.20074512      -2.21124206       1.52975596       0.46807281
C        3.00375417      -4.64365938       1.11733718      -0.14102462       0.44810790      -1.40792713
C        2.11257199      -2.00145963       1.45705427       0.36076616      -0.33446514      -0.14248616
C       -1.86438321       1.47718527      -0.99993405       0.51439904       0.19592391      -0.29811600
C       -0.31279759       3.26900085       0.95471239       0.29890034      -0.73049417       0.03897083
C        1.17734039       0.15617427       2.35427452      -0.33105640       1.12711359      -0.10853181
C        2.42992786      -0.58523629       1.90759421       0.04973336      -0.20469614      -0.25422873
C       -2.21409224       1.69713398       0.49765869       0.63488575      -1.60459227       0.04707757
C       -0.99558519       1.95794948       1.40185764       1.39289138      -0.73085946      -0.65920658
H        1.34808804       4.87616046      -0.92414710      -0.03379133      -0.08572090      -0.67443235
H       -0.54301296       2.39104601      -3.54375550       0.37836370       0.25752916       0.78201883
H        0.89670299       0.57053133       0.39465016      -0.56556150       0.67122833       0.28748813
H        2.35391548      -4.75534085       1.96450223      -0.10019477      -0.12298161       0.45322476
H        3.79167798      -5.40535572       1.11035730      -0.02870629       0.51100285       0.21435556
H        2.40897385      -4.80246285       0.19522365       0.25624210       0.04567707       0.57613826
H        1.45256075      -1.97945646       0.59257665       0.03050623      -0.16762891       0.03229066
H        1.61387524      -2.51543907       2.27783824      -0.02006270      -0.12214527      -0.08643833
H       -2.71513175       1.67956616      -1.66042658      -0.06985253      -0.28942790       0.35319447
H       -1.54466318       0.45430188      -1.12527129      -0.01552287      -0.35997324      -0.17723913
H       -0.89984905       4.13184006       1.32264110       0.20470642      -0.39934270      -0.12926306
H        0.68801586       3.32736786       1.37531587      -0.04044539       0.13537017       0.39297171
H        0.68191184      -0.41967920       3.14493204      -0.18253747       0.05658060      -0.28959041
H        1.47387162       1.11055657       2.81433035       0.14183564      -0.16276224       0.04439585
H        2.90718916      -0.04176555       1.08644117       0.03981201       0.04320680       0.13751467
H        3.14412883      -0.65725855       2.72270514       0.05635087       0.21169721       0.13806395
H       -2.73432134       0.80756333       0.90871778       0.18506939       0.50034550      -0.51368482
H       -2.90319132       2.52276023       0.53829897      -0.12009205       0.54982028       0.41628470
H       -1.31510114       2.01796980       2.46798900       0.69991151      -0.59234050      -0.76865822
