34
Properties=species:S:1:pos:R:3:forces:R:3 id=16545 bond=C-N smiles="[H:16][C:3]1=[N:1][N:6]([C:4]2=[C:5]1[C:11]([C:15]([C:14]([C:10]2([H:24])[H:25])([H:32])[H:33])([H:34])[N:7]([H:18])[C:12]([H:28])([H:29])[C:13]([H:30])([H:31])[C:9]([H:22])([H:23])[S:2][C:8]([H:19])([H:20])[H:21])([H:26])[H:27])[H:17]" dataset=PubChem energy=-27031.27731586022 pbc="F F F"
N        0.54915892       3.88235150      -2.62174271      -0.02444642       0.08961596       1.19693801
S        3.76169398      -3.03174168       1.05482206      -0.58258145      -0.42637859       0.30809715
C        0.61800377       4.21753965      -1.33634399      -0.39966213      -0.58055488       0.91518514
C       -0.84991632       2.52462624      -1.39974175       0.71604843       1.30206528       0.53752043
C       -0.23487748       3.39213167      -0.52089332       0.33439603       0.43066068      -0.83903502
N       -0.31361852       2.85489009      -2.62342737      -1.45076041      -1.17520171      -0.96587648
N        0.37837072       0.29013006       1.18637994      -1.90572864       0.91093894       0.50389839
C        3.09535124      -4.75484734       1.10297200      -0.13961445       0.44786854      -1.40775184
C        2.20416906      -2.11264759       1.44268909       0.36264177      -0.33285897      -0.13716562
C       -1.95598028       1.58837323      -0.98556887       0.51487289       0.20017158      -0.32418053
C       -0.40439466       3.38018881       0.96907757       0.47380924      -0.97835686      -0.04212331
C        1.26893746       0.04498631       2.33990934      -0.35864873       1.18781609      -0.18907326
C        2.52152493      -0.69642425       1.89322903       0.10800049      -0.21106515      -0.27483475
C       -2.30568931       1.80832194       0.51202387       0.85890269      -1.86020448       0.03164937
C       -1.08718226       2.06913744       1.41622282       0.55188917       0.30145680      -0.60765802
H        1.25649097       4.98734842      -0.90978192      -0.03288912      -0.08618827      -0.67515495
H       -0.63461003       2.50223397      -3.52939032       0.37961731       0.25562087       0.78205146
H        0.98830006       0.45934337       0.38028498      -0.46802008       0.75974996       0.26842171
H        2.44551255      -4.86652881       1.95013705      -0.10054261      -0.12276873       0.45297436
H        3.88327505      -5.51654368       1.09599212      -0.02868755       0.51026109       0.21436248
H        2.50057092      -4.91365081       0.18085847       0.25602043       0.04593432       0.57621227
H        1.54415782      -2.09064442       0.57821147       0.02706046      -0.16605375       0.02836186
H        1.70547231      -2.62662703       2.26347306      -0.02077208      -0.12285645      -0.08702092
H       -2.80672882       1.79075412      -1.64606140      -0.07363099      -0.28699279       0.35537299
H       -1.63626025       0.56548984      -1.11090611      -0.01168486      -0.35809209      -0.16452828
H       -0.99144612       4.24302802       1.33700628       0.15657976      -0.41625920      -0.08102253
H        0.59641879       3.43855582       1.38968105      -0.04912339       0.15343413       0.39061992
H        0.77350891      -0.53086716       3.13056686      -0.20561411       0.06696881      -0.29343939
H        1.56546869       0.99936861       2.79996517       0.15090462      -0.18069067       0.03616751
H        2.99878623      -0.15295351       1.07207599       0.03995867       0.04082781       0.13985450
H        3.23572590      -0.76844651       2.70833996       0.06399164       0.20754018       0.14714111
H       -2.82591841       0.91875129       0.92308296       0.16363487       0.50967032      -0.51444864
H       -2.99478839       2.63394819       0.55266415      -0.10439157       0.59920602       0.45175898
H       -1.40669821       2.12915776       2.48235418       0.79462466      -0.71741527      -0.73185113
