34
Properties=species:S:1:pos:R:3:forces:R:3 id=16545 bond=C-N smiles="[H:16][C:3]1=[N:1][N:6]([C:4]2=[C:5]1[C:11]([C:15]([C:14]([C:10]2([H:24])[H:25])([H:32])[H:33])([H:34])[N:7]([H:18])[C:12]([H:28])([H:29])[C:13]([H:30])([H:31])[C:9]([H:22])([H:23])[S:2][C:8]([H:19])([H:20])[H:21])([H:26])[H:27])[H:17]" dataset=PubChem energy=-27034.157660906305 pbc="F F F"
N        0.76053676       3.62576389      -2.65489312      -0.03229307       0.09384605       1.18789177
S        3.55031614      -2.77515407       1.08797247      -0.57692340      -0.42786404       0.30635698
C        0.82938161       3.96095204      -1.36949440      -0.37638483      -0.59427552       0.89184715
C       -0.63853848       2.26803863      -1.43289216       0.69205972       1.29370567       0.49748068
C       -0.02349964       3.13554406      -0.55404373       0.34773525       0.40287008      -0.78586427
N       -0.10224068       2.59830248      -2.65657778      -1.43071137      -1.16504221      -1.00529107
N        0.16699288       0.54671767       1.21953035      -1.62600577       1.55059662       0.46585443
C        2.88397340      -4.49825973       1.13612241      -0.14378894       0.44743309      -1.40805788
C        1.99279122      -1.85605998       1.47583950       0.35992023      -0.33159673      -0.14322388
C       -1.74460244       1.33178562      -1.01871928       0.51901653       0.19481158      -0.25662229
C       -0.19301682       3.12360120       0.93592716      -0.08510110      -0.18969864       0.16869533
C        1.05755962       0.30157392       2.37305975      -0.19543189       0.83779612      -0.16328956
C        2.31014709      -0.43983664       1.92637944       0.00720939      -0.19151721      -0.18945186
C       -2.09431147       1.55173433       0.47887346       0.15279297      -1.04171536       0.08507818
C       -0.87580442       1.81254983       1.38307241       1.79546828      -1.49439604      -0.63511763
H        1.46786881       4.73076081      -0.94293233      -0.03600150      -0.08516382      -0.67279466
H       -0.42323219       2.24564636      -3.56254073       0.37664682       0.25970208       0.78198823
H        0.77692222       0.71593098       0.41343539      -0.56903561       0.30839378       0.34002651
H        2.23413471      -4.60994120       1.98328746      -0.09934785      -0.12374196       0.45347216
H        3.67189721      -5.25995607       1.12914253      -0.02866584       0.51255826       0.21436050
H        2.28919308      -4.65706320       0.21400888       0.25695046       0.04543652       0.57601103
H        1.33277998      -1.83405681       0.61136188       0.03279982      -0.16841652       0.03380956
H        1.49409447      -2.37003942       2.29662347      -0.01999903      -0.12220263      -0.08596324
H       -2.59535098       1.53416651      -1.67921181      -0.06197805      -0.29630269       0.35220280
H       -1.42488241       0.30890223      -1.14405652      -0.01883644      -0.36675768      -0.20649222
H       -0.78006828       3.98644041       1.30385587       0.29098278      -0.34139126      -0.21063991
H        0.80779663       3.18196821       1.35653064      -0.02465743       0.10969625       0.40016050
H        0.56213107      -0.27427955       3.16371727      -0.16980106       0.05545838      -0.28439163
H        1.35409085       1.25595622       2.83311558       0.10052339      -0.11638641       0.02678283
H        2.78740839       0.10363410       1.10522640       0.03680333       0.04588127       0.13706016
H        3.02434806      -0.51185890       2.74149037       0.05368227       0.20999143       0.12174634
H       -2.61454057       0.66216368       0.88993255       0.22156348       0.48645747      -0.49983433
H       -2.78341055       2.37736058       0.51951374      -0.18471278       0.47709494       0.32778579
H       -1.19532037       1.87257015       2.44920377       0.43199516      -0.27602790      -0.82205102
