38
Properties=species:S:1:pos:R:3:forces:R:3 id=10456 bond=C-S smiles="[H:37][C@@:16]1([C@:14]([C@@:13]([O:3][C@:15]([C@:17]1([H:38])[O:5][H:20])([H:36])[O:2][C:8]([H:23])([H:24])[H:25])([H:34])[C:12]([H:32])([H:33])[S:6][C:9]([H:26])([H:27])[C:11]([H:30])([H:31])[C:10]([H:28])([H:29])[N:7]([H:21])[H:22])([H:35])[O:1][H:18])[O:4][H:19]" dataset=PubChem energy=-33287.25863702611 pbc="F F F"
O        2.05230357       1.19030584       1.33299661      -1.10375441       0.21563934      -0.81513097
O        0.16479563       2.54602964      -2.55437009      -0.43497123      -0.38921915       1.48326759
O       -1.07792781       1.79346414      -0.68144231       1.44142154       0.40095761      -0.80460692
O        1.83378961       4.15844877       0.99613950       0.60028450      -2.35706513       0.67704254
O        0.63602580       5.04780872      -1.22914141       0.16425210       0.80517561       0.42215046
S        0.63104927      -1.33391478       0.39584842       4.17214846      -4.80440982       1.85280489
N        2.44861927      -3.10557273       4.49842999       0.14107491       0.87220283      -1.42108400
C       -0.51588760       1.67697031      -3.47627943      -1.82233481       1.36141945       0.96882745
C       -0.05251822      -2.51809600       1.62935612      -1.81388640       0.44416676      -0.15107976
C        1.59027566      -2.35356882       3.52100179      -1.18284747      -0.80192638       0.59957634
C        0.88854416      -3.30543449       2.42357657       2.78140435       0.85495958       1.78763172
C       -0.57808814      -0.25874113       0.39907577      -3.77037445       3.79911185       0.52615717
C        0.03848239       0.91253613      -0.30003327      -0.40901600       3.65308880       1.56324136
C        0.89453011       1.87976511       0.72093116      -0.89232123      -1.95108580      -0.02079063
C       -0.63141737       2.96874983      -1.42973929      -0.95299072      -1.60103806      -2.01240393
C        1.24297430       3.19187600       0.01943375       3.35982423      -0.47003674       2.26181080
C        0.15320285       3.91053016      -0.58574729      -1.17802328       0.06577172       1.10795757
H        1.91908183       0.18977345       1.30779666      -0.15440556       1.88325720      -0.19214466
H        2.48241939       3.57759197       1.50003356      -1.11537029       1.39101337      -0.83841335
H        1.11893346       5.51114232      -0.50670557      -0.35252910      -0.29508430      -0.98202764
H        2.11748948      -4.06244757       4.52229521       0.18050653       0.03027644       0.09229336
H        3.39992871      -3.11358788       4.10749075      -0.61588864      -0.26695357       0.43619176
H       -1.18645797       2.36764259      -4.00598590      -0.06272050      -0.56993771      -0.36205535
H        0.22798415       1.31364251      -4.11722582       0.90619725      -0.58838534      -0.90683948
H       -1.15380488       0.84150068      -3.06970971       0.97028140       0.88264308       0.11584634
H       -0.62342582      -3.17679623       1.00714762      -0.63543913      -0.42630083      -0.18233785
H       -0.76331601      -2.07167080       2.38593433       0.65027938       0.23508707      -1.24995675
H        0.81897368      -1.76836112       4.10811565       0.44445151      -0.94989456      -0.62530096
H        2.13192882      -1.55584601       3.02269719       0.43523619      -0.24391195      -0.07976694
H        1.71480896      -3.68265059       1.79263816      -0.44559196      -0.25664839       0.37677328
H        0.37820343      -4.12172797       2.95965717       0.22701786       0.23185042      -0.37175000
H       -1.38473544      -0.64274637      -0.18726217      -0.88826369       0.10594206      -0.41416832
H       -1.01295838       0.06228195       1.37989718       0.62849224      -0.35187424      -0.65153268
H        0.66465238       0.55638103      -1.11079519      -0.09405466       0.45364086      -0.47938168
H        0.15925049       2.17877932       1.51889950       0.66751639      -0.55700392      -0.50117365
H       -1.55516539       3.43628318      -1.80872338       0.19811614      -0.25123186       0.22649347
H        2.02452507       3.11124380      -0.68889170       0.70704257      -0.81087876      -0.96363799
H       -0.42716585       4.16923244       0.30962882      -0.75508245       0.25173879      -0.46550827
