17
Properties=species:S:1:pos:R:3:forces:R:3 id=26700 bond=C-S smiles="[H:9][C:3]([H:10])([H:11])[N:2]([H:8])[C:5]([H:14])([H:15])[C:6]([H:16])([H:17])[C:4]([H:12])([H:13])[S:1][H:7]" dataset="DES370K Monomers" energy=-16654.352273710865 pbc="F F F"
S        2.81434072       1.56679776      -0.10743245      -1.85459308      -0.04224655       1.02054805
N        0.15405916      -0.92026058      -0.64136396       0.05821272      -0.06963647       0.89623108
C        0.32988023      -2.36853006      -0.39252755       0.01291764       0.52008004      -1.32876795
C        0.14826845       1.47480127       1.30106786      -2.00319444       0.68310354      -1.05428965
C       -1.00339607      -0.43762389       0.14964330       1.23082963      -0.04988522      -0.54696238
C       -1.04320062       1.03459070       0.39015259       1.86818374       0.59275388       0.56399600
H        3.01315153       0.25815041      -0.38694648      -0.40583740       0.26314735       0.21472162
H        0.08694493      -0.69470593      -1.64617774      -0.13369624      -0.32558302       1.04153217
H        0.66466116      -2.61624887       0.61918243      -0.01039407       0.41706483      -0.18494529
H        1.04278397      -2.77413847      -1.12582991      -0.10055872       0.14077554       0.40779419
H       -0.61834124      -2.85664561      -0.58285276      -0.28470067      -0.59286500       0.15425087
H        0.28627657       0.77352312       2.08916309       1.04518658      -0.71517356       0.20427328
H       -0.13466055       2.43797347       1.75825038       1.32603003       0.10114472      -0.63487178
H       -0.97758458      -0.89837446       1.13664176      -0.01636328      -0.40188001      -0.20789068
H       -1.90016246      -0.66850021      -0.35307452      -1.43222009      -0.81837860      -0.39540294
H       -1.98759116       1.28137753       0.91430249       0.49898591       0.01334209       0.13257302
H       -1.09249735       1.58895013      -0.53443161       0.20116516       0.28190973      -0.28294422
