17
Properties=species:S:1:pos:R:3:forces:R:3 id=26700 bond=C-S smiles="[H:9][C:3]([H:10])([H:11])[N:2]([H:8])[C:5]([H:14])([H:15])[C:6]([H:16])([H:17])[C:4]([H:12])([H:13])[S:1][H:7]" dataset="DES370K Monomers" energy=-16653.449626397356 pbc="F F F"
S        2.99611837       1.57307024      -0.20346656      -1.31963688      -0.12362011       0.70712659
N       -0.02771849      -0.92653306      -0.54532985       0.01942610      -0.02225608       0.92746836
C        0.14810258      -2.37480254      -0.29649344       0.02418631       0.51170170      -1.32219147
C       -0.03350920       1.46852879       1.39710197      -2.93826555       0.69928551      -0.66391281
C       -1.18517372      -0.44389637       0.24567741       1.25536832      -0.07245491      -0.54777356
C       -1.22497827       1.02831822       0.48618670       2.03167564       0.54076375       0.48250748
H        3.19492918       0.26442289      -0.48298059      -0.30727361       0.26607405       0.18240333
H       -0.09483272      -0.70097841      -1.55014363      -0.11794057      -0.31781929       1.03851948
H        0.48288351      -2.62252135       0.71521654      -0.00881863       0.41910711      -0.18756763
H        0.86100632      -2.78041095      -1.02979580      -0.10277385       0.14809639       0.41192038
H       -0.80011889      -2.86291809      -0.48681865      -0.28445096      -0.58816005       0.15168453
H        0.10449892       0.76725064       2.18519720       1.18605504      -0.76154689       0.18103053
H       -0.31643820       2.43170099       1.85428449       1.35530990       0.14724787      -0.64575985
H       -1.15936223      -0.90464694       1.23267587      -0.02058308      -0.40321568      -0.20749890
H       -2.08194011      -0.67477269      -0.25704041      -1.44071071      -0.80826714      -0.38750154
H       -2.16936881       1.27510505       1.01033660       0.48964804       0.06930266       0.16889049
H       -1.27427500       1.58267765      -0.43839750       0.17761108       0.29247928      -0.28974581
