50
Properties=species:S:1:pos:R:3:forces:R:3 id=8919 bond=C-S smiles="[H:27][c:8]1[c:9]([c:14]([c:7]([n:2][c:6]1[H:25])[H:26])/[N:1]=[C:5]([S:3][C:17]([H:33])([H:34])[c:15]2[c:10]([c:12]([c:16]([c:13]([c:11]2[H:30])[H:32])[C:24]([C:20]([H:41])([H:42])[H:43])([C:21]([H:44])([H:45])[H:46])[C:22]([H:47])([H:48])[H:49])[H:31])[H:29])/[S:4][C:23]([H:50])([C:18]([H:35])([H:36])[H:37])[C:19]([H:38])([H:39])[H:40])[H:28]" dataset=PubChem energy=-45834.05043544108 pbc="F F F"
N       -1.84858705       2.43513483      -1.25674538       3.69391907       0.09753267       0.96304979
N       -3.37896658       0.44157135      -3.99544959      -0.59780335      -0.10617267       1.09007758
S        0.21160810       0.72585766      -1.59216552       1.26147202       1.88553066      -2.35139746
S        0.27763536       3.25583333       0.08027698       0.09081405       0.60721260      -0.64223410
C       -0.57736672       2.17363161      -0.99391632      -3.68772158       1.42557080      -0.85713524
C       -4.43782259      -0.06074524      -3.29664140       1.53170559       1.45365025       1.29803324
C       -2.50917149       1.24954302      -3.35587840      -1.15682761      -0.76308285       0.42596069
C       -4.66982819       0.26724170      -1.93659000       0.08075882      -0.50532392      -0.82689830
C       -3.74779297       1.08951503      -1.28263419      -0.82666412      -0.94303862       0.13516396
C        1.65281003      -1.66150512       0.05139086       0.22654983      -0.22364719       1.06478222
C        0.92173269      -0.13273604       1.72508320       0.58699085      -0.23308846       0.54874715
C        2.64057666      -2.12878742       0.91771826      -0.04657972       0.32406561      -0.13396752
C        1.93663579      -0.56520130       2.59604010      -0.03727147      -0.35730738      -1.04150802
C       -2.64062668       1.56389052      -1.97893123      -0.73737552      -0.18798719      -0.88869154
C        0.75397009      -0.70424654       0.47753362      -0.62294053      -0.06528284       0.66243410
C        2.82685762      -1.58576359       2.20763693      -0.88785117       0.08957812       0.25025904
C       -0.41140193      -0.30514904      -0.39220133      -0.61266537      -2.27115050       1.85014487
C       -0.40452100       5.49356288      -1.52688413       0.10095751      -0.74159531      -1.30324212
C       -0.11930449       5.80800027       0.89919845       0.56108904       0.13983678      -0.13985919
C        5.16776353      -2.34332432       2.46576449       0.30985859       0.47804026       1.18871978
C        4.02392273      -1.36827495       4.46996078       0.11528240       0.42419215      -0.13335296
C        3.29524117      -3.55468716       3.66714534      -0.15878626      -0.37336410      -0.78226887
C       -0.62852396       4.85212344      -0.18931161      -0.36973369       0.37683509       0.93428446
C        3.83326345      -2.18975749       3.20581135       0.00080494      -0.34687566      -0.46003838
H       -5.07870318      -0.76141721      -3.77153687      -0.37148199      -0.28538899      -0.62828947
H       -1.69786788       1.61543256      -3.96793513       0.07883129       0.16101845       0.21778309
H       -5.55234648      -0.17308581      -1.42685275       0.82829956       0.47404274      -0.33020688
H       -3.86748529       1.27542299      -0.20123653       0.16428597       0.19505967      -0.81822589
H        1.52386331      -2.08994999      -0.91811004       0.07841193      -0.33827008      -0.43819950
H        0.26008835       0.66115063       2.03307411      -0.13838103       0.01036830       0.12974229
H        3.22938424      -2.94968332       0.52955448       0.24169959       0.08361173       0.32765476
H        1.98581009      -0.12069346       3.57310209       0.15203905       0.05908272       0.12473923
H       -0.86306233      -1.19501986      -0.85301307       0.12038786       0.24460511       0.12773607
H       -1.20003266       0.19249020       0.17494896       0.20350749      -0.19186924      -0.04211524
H       -0.66438032       4.79238862      -2.34424667      -0.04250017       0.50008751       0.37752867
H       -1.00032367       6.40949840      -1.62881951       0.07142905      -0.32075974       0.07784365
H        0.63958387       5.74750871      -1.67080002       0.20441251       0.12594800       0.06515095
H        0.99228649       5.82864922       0.86058931      -0.64898266       0.05310163       0.12287605
H       -0.46019060       6.84396857       0.67453354       0.07404758      -0.79192345       0.35290760
H       -0.42424310       5.47914476       1.89689154       0.02600121       0.27558641      -0.16770412
H        5.94307976      -2.77532496       3.12034688      -0.18601020       0.54166429      -0.07980211
H        5.07388144      -3.04373469       1.68925903      -0.21350288      -0.80827792      -1.20831987
H        5.46114283      -1.38037576       2.03153918       0.21587633      -0.28925599       0.25704144
H        4.39398580      -0.36447855       4.22236642      -0.29533702      -0.13358510       0.24859612
H        4.77918606      -1.85028424       5.08914528      -0.00061211      -0.00847643      -0.00618946
H        3.09808999      -1.33500077       5.05539903       0.24333319       0.25140173      -0.13171230
H        3.21999746      -4.25214161       2.81568775      -0.23782707       0.33754343       0.25427441
H        2.30180364      -3.39312973       4.10258445       0.25924149      -0.32748797      -0.02860373
H        3.95527487      -4.05728449       4.37438116      -0.00521844       0.29757728       0.19917951
H       -1.70431758       4.68802804      -0.07172476       0.35490181      -0.29681005       0.14401027
