31
Properties=species:S:1:pos:R:3:forces:R:3 id=37592 bond=C-N smiles="[H:20][c:9]1[c:8]([c:10]([c:12]([c:13]([c:11]1[H:22])[N:14]([c:4]2[n:2][c:5]([c:7]([c:6]([n:3]2)[C:16]([H:26])([H:27])[H:28])[H:18])[C:15]([H:23])([H:24])[H:25])[C:17]([H:29])([H:30])[H:31])[I:1])[H:21])[H:19]" dataset=PubChem energy=-26288.181330672356 pbc="F F F"
I        3.88709646       1.44990209       3.09493122      -1.11306624       1.18356437      -1.95335492
N       -0.80779928      -0.45138273       0.45668832       2.51034065       0.43953684       1.18208413
N        1.50140250      -0.73369679      -0.23182556       1.85501951       0.71285102       0.88804940
C        0.56938210      -0.10745666       0.53127867      -2.42525753      -0.79112917      -1.97459377
C       -1.11097234      -1.49915227      -0.31539648       0.76383092       0.05011083      -0.21181005
C        1.24949225      -1.72892913      -1.06831351      -6.08873028      -0.34076996       0.06506574
C       -0.14443022      -2.05663118      -1.17042473      -0.01427114      -0.39202183       0.45888642
C        2.90195662       4.37089172      -0.31889736      -0.49857506       0.52816404      -0.92017599
C        1.77703571       3.80018821      -0.97769394       0.70131218      -1.43635585       2.35620238
C        3.57322532       3.65437379       0.68992243      -2.60484064      -1.14636434       1.06723463
C        1.23840818       2.61130324      -0.41330236       1.13304518       2.71719428      -0.22618163
C        2.91494018       2.50012341       1.30357716       0.95101592       1.36547963      -0.00126674
C        1.65545064       2.08080974       0.81616137       0.62552357      -2.33994856      -0.11212998
N        1.01505163       0.92707410       1.35777268      -0.42580047       0.23648551       0.98877993
C       -2.50647754      -2.13550577      -0.13995459       0.22900767       0.55287278      -2.34942356
C        2.13728731      -2.52180299      -1.95575633       3.25861288       0.54265096       3.40069577
C       -0.62575765       1.34678330       3.51107211       0.89781668       1.73650959       0.65545272
H       -0.51816124      -2.83232698      -1.82644441       0.39000088      -0.15287668      -0.05701825
H        3.16166669       5.43420353      -0.63125279       0.24663279      -1.73651923       0.54471267
H        1.26856404       4.25693240      -1.80733039       0.15707307       0.12959128      -0.15567723
H        4.39139538       4.08628717       1.20685539       0.77131870       0.14748962       0.11871587
H        0.42198837       2.23073545      -0.93290987      -1.40638553      -0.98278087      -0.36301198
H       -2.42957491      -3.23514828      -0.34837651      -0.31303167       1.12273450       0.31293801
H       -2.79893011      -1.89864787       0.84607575      -0.37873555      -0.17585587       1.13974416
H       -3.30797976      -1.65134224      -0.81020924       1.34704138      -0.82268919       0.74912236
H        1.84697121      -2.86196432      -2.89070883      -1.57318894      -1.02767289      -1.12407292
H        2.76452189      -3.27937373      -1.33722439      -1.22833422       1.08339582      -1.21908049
H        2.81403881      -1.75877962      -2.21331324       1.77328982       0.75059662      -0.48127377
H        0.08242480       2.02696527       4.09124369      -0.59546952      -1.20861337      -1.37361523
H       -1.53608073       1.86888422       3.22194523       0.43809177      -0.09120780      -0.82169439
H       -0.88098063       0.43907550       4.03548212       0.61301302      -0.64828496      -0.58769548
