31
Properties=species:S:1:pos:R:3:forces:R:3 id=37592 bond=C-N smiles="[H:20][c:9]1[c:8]([c:10]([c:12]([c:13]([c:11]1[H:22])[N:14]([c:4]2[n:2][c:5]([c:7]([c:6]([n:3]2)[C:16]([H:26])([H:27])[H:28])[H:18])[C:15]([H:23])([H:24])[H:25])[C:17]([H:29])([H:30])[H:31])[I:1])[H:21])[H:19]" dataset=PubChem energy=-26290.994169017315 pbc="F F F"
I        3.65364798       1.50961681       3.40129496      -1.06453383       1.16516752      -1.92358090
N       -1.04124776      -0.39166801       0.76305206       2.68378591       0.52937433       1.22014789
N        1.26795402      -0.67398207       0.07453818       1.75025343       0.69873262       0.91374557
C        0.33593362      -0.04774194       0.83764241      -2.11513588      -1.24358899      -2.15193580
C       -1.34442082      -1.43943755      -0.00903274       0.70242021       0.01285048      -0.23606755
C        1.01604377      -1.66921441      -0.76194977      -6.03930277      -0.29232411       0.00627745
C       -0.37787870      -1.99691646      -0.86406099      -0.03376793      -0.35875611       0.49106327
C        2.66850814       4.43060644      -0.01253362      -0.51344278       0.50593851      -0.95496692
C        1.54358723       3.85990293      -0.67133020       0.82887339      -1.34891781       2.38196090
C        3.33977684       3.71408851       0.99628617      -2.63237085      -1.06336259       1.07457033
C        1.00495970       2.67101796      -0.10693862       1.12790232       2.49282797       0.05816091
C        2.68149170       2.55983813       1.60994090       0.78949288       1.26871495      -0.22042574
C        1.42200216       2.14052446       1.12252511       1.31020067      -1.45949587      -0.30763455
N        0.78160315       0.98678882       1.66413642      -2.76635682      -0.19137972       2.68100987
C       -2.73992602      -2.07579105       0.16640915       0.23523661       0.54774726      -2.35233438
C        1.90383883      -2.46208827      -1.64939259       3.25303123       0.54144838       3.39965960
C       -0.39230917       1.28706858       3.20470837       2.80437669       1.56212492      -1.68054280
H       -0.75160972      -2.77261226      -1.52008067       0.38895032      -0.15458771      -0.04901319
H        2.92821821       5.49391825      -0.32488905       0.25556313      -1.74364202       0.53227394
H        1.03511556       4.31664712      -1.50096665       0.14974619       0.12692741      -0.14839857
H        4.15794690       4.14600189       1.51321913       0.76499749       0.16033183       0.11740985
H        0.18853989       2.29045017      -0.62654613      -1.41403045      -0.97791920      -0.37206709
H       -2.66302339      -3.17543356      -0.04201277      -0.31563741       1.12434302       0.31397259
H       -3.03237859      -1.83893315       1.15243949      -0.38121342      -0.17750211       1.13892242
H       -3.54142824      -1.59162752      -0.50384550       1.34929564      -0.82335148       0.75085848
H        1.61352273      -2.80224960      -2.58434509      -1.57219617      -1.02860521      -1.12428072
H        2.53107341      -3.21965901      -1.03086065      -1.22916861       1.08521482      -1.21933466
H        2.58059033      -1.69906490      -1.90694950       1.77100146       0.74909406      -0.47942527
H        0.31587328       1.96725055       3.78487995      -1.04061442      -1.14350873      -0.86487768
H       -1.30263225       1.80916950       2.91558149       0.38886444      -0.08301296      -0.53752625
H       -0.64753215       0.37936078       3.72911838       0.56082646      -0.47797901      -0.46133774
