21
Properties=species:S:1:pos:R:3:forces:R:3 id=47311 bond=C-S smiles="[H:18][C:8]([H:19])([C:6]([H:14])([H:15])[S:3][C:7]([H:16])([H:17])[C:9]([H:20])([H:21])[C:5]([H:12])([H:13])[Cl:2])[C:4]([H:10])([H:11])[Cl:1]" dataset=PubChem energy=-42303.66223086341 pbc="F F F"
Cl       4.59951804      -0.52492744      -2.70893074       0.35801428      -0.06504094       0.17684142
Cl      -2.15171498       3.12253009       2.61694460      -0.46471235      -0.01167420       1.10525736
S        0.59607667      -0.57814736       2.01420384      -0.51324381       1.03926727      -2.30787544
C        3.08015487       0.08225029      -2.07097126      -1.47272580       3.08693180      -0.71687420
C       -1.67764490       1.44210242       3.06103783       2.75914729       0.95234520      -3.94858282
C        1.70642165       0.93025511      -0.02636389       1.33547507       0.30140707      -0.19272091
C       -1.26611799      -0.61519707       1.46456241       2.04073585       0.87741235       1.95556739
C        2.99277208       0.21745788      -0.55119027      -1.69984360      -2.52180370       0.11500801
C       -1.87956422       0.71260058       1.63562530       0.62205248       2.61324439      -1.40217740
H        2.29384075      -0.51933760      -2.48231150      -0.30932443      -0.53757727       0.08066430
H        2.86494229       1.13542917      -2.53426529       0.74093491      -1.80581702       0.68676926
H       -2.22666138       0.85970651       3.66927272      -2.59952768      -0.82382633       2.73299530
H       -0.63308656       1.53771793       3.53056079      -1.51894113      -0.49128859      -1.44521466
H        2.10975836       1.85156744       0.41960914      -0.84930989      -0.61376767       0.98967856
H        1.07161386       1.33829515      -0.83685244      -0.57961845      -1.17057888       0.67418399
H       -1.16642290      -0.79181207       0.44808712      -0.34958955      -1.04495553      -1.67706102
H       -1.93076056      -1.23480619       2.02647620       0.56093830      -1.60056927       0.27215468
H        3.80714319       0.76532086      -0.18968244       1.31396030       0.65344104       0.49596528
H        3.08086799      -0.83020884      -0.15722216      -0.08906916       1.01029811      -0.04125675
H       -2.98852556       0.59705322       1.28365749       1.76557094       0.69990714       1.16021308
H       -1.35558742       1.36260044       0.84174613      -1.05461729      -0.54874081       1.28882690
