21
Properties=species:S:1:pos:R:3:forces:R:3 id=47311 bond=C-S smiles="[H:18][C:8]([H:19])([C:6]([H:14])([H:15])[S:3][C:7]([H:16])([H:17])[C:9]([H:20])([H:21])[C:5]([H:12])([H:13])[Cl:2])[C:4]([H:10])([H:11])[Cl:1]" dataset=PubChem energy=-42286.038849090495 pbc="F F F"
Cl       4.26421584      -0.98043512      -2.09271969       0.43163802      -0.15154146       0.06265145
Cl      -1.81641278       3.57803777       2.00073355      -0.45515931      -0.00525527       1.10961051
S        0.93137887      -0.12263968       1.39799279     -46.50825062     -57.75583405      75.61154718
C        2.74485267      -0.37325739      -1.45476021      -1.26448564       3.24650699      -0.63332035
C       -1.34234270       1.89761010       2.44482678       2.70346503       0.95864373      -4.02342759
C        1.37111945       0.47474743       0.58984716      41.16228268      54.62790063     -72.33401925
C       -0.93081579      -0.15968939       0.84835136       0.74553385       0.00502019       3.51140980
C        2.65746988      -0.23804980       0.06502078       1.85132595      -1.64554525      -2.82162581
C       -1.54426202       1.16810826       1.01941425       0.66811194       2.43531067      -1.32483045
H        1.95853855      -0.97484528      -1.86610045      -0.32423747      -0.57658502       0.07704249
H        2.52964009       0.67992149      -1.91805424       0.74873000      -1.81110028       0.73192800
H       -1.89135918       1.31521419       3.05306167      -2.53629206      -0.84002092       2.73701571
H       -0.29778436       1.99322561       2.91434974      -1.46305137      -0.50438415      -1.37449270
H        1.77445616       1.39605976       1.03582019       1.31775290       2.12889775      -1.62700962
H        0.73631166       0.88278747      -0.22064139       0.98531035       0.10734765      -0.56444203
H       -0.83112070      -0.33630439      -0.16812393      -0.02330105      -1.04719716      -1.89604823
H       -1.59545836      -0.77929851       1.41026515       0.27260150      -1.48455018       0.06560946
H        3.47184099       0.30981318       0.42652861       1.42904640       0.76715094       0.38886031
H        2.74556579      -1.28571652       0.45898889      -0.46397616       1.12114514       0.06103022
H       -2.65322336       1.05256090       0.66744644       1.83222357       0.80419107       1.04549069
H       -1.02028522       1.81810812       0.22553508      -1.10479876      -0.37254501       1.18730966
