21
Properties=species:S:1:pos:R:3:forces:R:3 id=47311 bond=C-S smiles="[H:18][C:8]([H:19])([C:6]([H:14])([H:15])[S:3][C:7]([H:16])([H:17])[C:9]([H:20])([H:21])[C:5]([H:12])([H:13])[Cl:2])[C:4]([H:10])([H:11])[Cl:1]" dataset=PubChem energy=-42288.77693968392 pbc="F F F"
Cl       4.26971260      -0.97296778      -2.10282151       0.42890828      -0.14799026       0.06443416
Cl      -1.82190954       3.57057043       2.01083537      -0.45595686      -0.00561630       1.10866297
S        0.92588211      -0.13010702       1.40809461     -41.27620151     -50.84290285      66.42478299
C        2.75034943      -0.36579005      -1.46486203      -1.26002151       3.23937507      -0.63098787
C       -1.34783946       1.89014276       2.45492860       2.70599158       0.96012502      -4.01778735
C        1.37661621       0.48221477       0.57974534      36.25180861      47.94493028     -63.34360121
C       -0.93631255      -0.16715673       0.85845318       0.85031447       0.06870014       3.40654987
C        2.66296664      -0.23058246       0.05491896       1.63671251      -1.65403000      -2.68972438
C       -1.54975878       1.16064092       1.02951607       0.66509973       2.44573194      -1.32957286
H        1.96403531      -0.96737794      -1.87620227      -0.32372805      -0.57489045       0.07641236
H        2.53513685       0.68738883      -1.92815606       0.74672402      -1.81058717       0.72902275
H       -1.89685594       1.30774685       3.06316349      -2.53931715      -0.83916334       2.73700908
H       -0.30328112       1.98575827       2.92445156      -1.46849273      -0.50478125      -1.37832694
H        1.77995292       1.40352710       1.02571837       1.17381309       1.93822063      -1.54074778
H        0.74180842       0.89025481      -0.23074321       0.90009324       0.03495763      -0.49166498
H       -0.83661746      -0.34377173      -0.15802211      -0.04724037      -1.04668519      -1.88430735
H       -1.60095512      -0.78676585       1.42036697       0.30099432      -1.48989821       0.07886366
H        3.47733775       0.31728052       0.41642679       1.42992519       0.75155596       0.38180371
H        2.75106255      -1.27824918       0.44888707      -0.44017370       1.11938182       0.04977732
H       -2.65872012       1.04509356       0.67754826       1.83081588       0.79803258       1.05084100
H       -1.02578198       1.81064078       0.23563690      -1.10891755      -0.38098393       1.19433529
