21
Properties=species:S:1:pos:R:3:forces:R:3 id=47311 bond=C-S smiles="[H:18][C:8]([H:19])([C:6]([H:14])([H:15])[S:3][C:7]([H:16])([H:17])[C:9]([H:20])([H:21])[C:5]([H:12])([H:13])[Cl:2])[C:4]([H:10])([H:11])[Cl:1]" dataset=PubChem energy=-42303.833984258104 pbc="F F F"
Cl       4.58852453      -0.53986212      -2.68872710       0.35957538      -0.06627349       0.17361727
Cl      -2.14072147       3.13746477       2.59674096      -0.46415053      -0.01262760       1.10525602
S        0.60707018      -0.56321268       1.99400020      -0.46923611       1.09578353      -2.38097909
C        3.06916136       0.06731561      -2.05076762      -1.46687063       3.09033546      -0.70792965
C       -1.66665139       1.45703710       3.04083419       2.75835986       0.95341151      -3.94866494
C        1.69542814       0.91532043      -0.00616025       1.24941365       0.22097867      -0.06271303
C       -1.25512448      -0.60026239       1.44435877       2.03209776       0.87907803       1.94913589
C        2.98177857       0.20252320      -0.53098663      -1.67699974      -2.51822055       0.09823443
C       -1.86857071       0.72753526       1.61542166       0.62377150       2.61275328      -1.40297406
H        2.28284724      -0.53427228      -2.46210786      -0.30951417      -0.53801280       0.08037392
H        2.85394878       1.12049449      -2.51406165       0.74028249      -1.80480442       0.68624192
H       -2.21566787       0.87464119       3.64906908      -2.59913765      -0.82385886       2.73303356
H       -0.62209305       1.55265261       3.51035715      -1.51900694      -0.49133922      -1.44455660
H        2.09876485       1.83663276       0.43981278      -0.84194139      -0.60885140       0.96376148
H        1.06062035       1.32336047      -0.81664880      -0.56843773      -1.16428007       0.67185930
H       -1.15542939      -0.77687739       0.42788348      -0.35066878      -1.04393399      -1.67724736
H       -1.91976705      -1.21987151       2.00627256       0.56536449      -1.60035895       0.27209549
H        3.79614968       0.75038618      -0.16947880       1.31656833       0.65209700       0.48753739
H        3.06987448      -0.84514352      -0.13701852      -0.09291386       1.01431687      -0.04272643
H       -2.97753205       0.61198790       1.26345385       1.76639333       0.70031207       1.15961291
H       -1.34459391       1.37753512       0.82154249      -1.05643133      -0.54784653       1.28927970
