13
Properties=species:S:1:pos:R:3:forces:R:3 id=25321 bond=C-O smiles="[H:12][O:7][C:11]([C:9]([F:1])([F:2])[F:3])([C:10]([F:4])([F:5])[F:6])[O:8][H:13]" dataset=PubChem energy=-23551.83765670145 pbc="F F F"
F       -1.55759287      -0.08588810       1.23490283       0.13568734      -0.70029495       0.94706925
F       -1.05897629      -0.84210397      -0.69615862       0.17529884       0.77998187      -0.15983425
F       -1.22862101       1.34574054      -0.25458065       0.20954130      -0.33769181      -0.98434324
F       -0.04041303       2.01901447       1.98188296       1.00370824      -1.48772738       0.12712459
F        2.16174340       1.72855960       1.99947551      -3.11551935      -2.19610767      -0.85737863
F        0.80886948       0.05104171       2.76463297      -0.15044893       2.15274444      -0.54014490
O        1.17147237      -1.05952812       0.60590614       0.95642488       1.25949281      -1.16427665
O        1.58200501       0.91096517      -0.94475375      -2.55709160      -1.34192713       3.73031721
C       -0.80059529       0.13915791       0.17081687      -1.47446328       0.69950429      -0.84803379
C        0.87536013       1.03287273       1.81462338       2.32965181       1.19885366       1.14177909
C        0.66944339       0.22697147       0.48487873       3.57976750       0.20413695      -2.32538176
H        1.99041342      -1.12528516       0.04905894      -1.04790238       0.21399801       0.74853632
H        1.41551678       1.87019401      -0.93603192      -0.04040984      -0.44776096       0.17641684
