20
Properties=species:S:1:pos:R:3:forces:R:3 id=6052 bond=N-N smiles="[H:16][c:7]1[c:9]([c:8]([c:11]([c:12]([c:10]1[Cl:2])/[N:4]=[N:5]/[N:13]([C:14]([H:18])([H:19])[H:20])[O:6][H:15])[Cl:3])[H:17])[Cl:1]" dataset=PubChem energy=-51447.4086446319 pbc="F F F"
Cl      -2.58623760      -0.43242042       5.49237125       0.44587743       0.79576504      -1.01337193
Cl      -1.49873488       2.96248193       1.19335006       0.21740213      -0.53639496       0.34726704
Cl       1.40010459      -1.71448807       2.19279366      -1.21382605       1.31508290      -0.07740241
N        0.63990224       0.66829913       0.59791865      -1.46965501       2.60455318      -8.18312756
N        0.11903237       1.04327820      -0.52220828       3.70154049      -2.15152471       5.04871159
O        1.75707731      -0.47326562      -3.30755199       2.15831257      -0.05830787       0.05225335
C       -1.91687124       1.28755570       3.30850118       0.65481108      -1.57845116      -0.12616412
C       -0.68479090      -0.77670436       3.61938708       0.73329076      -0.35947812       1.07981651
C       -1.69721955       0.06617232       4.03165071      -0.09537809       1.40966215      -0.81025520
C       -1.14918106       1.51298822       2.10602551      -1.05786267      -0.05417689       1.59774022
C        0.05926665      -0.52191215       2.48408096       0.82060724      -0.84343244       0.92125546
C       -0.14123381       0.61302385       1.70079987      -1.79902724      -0.76674003       2.14544315
N        1.89616314       0.77299854      -2.72092498      -2.91213958       0.71553437       0.99680534
C        3.13878296       1.51641950      -2.88465608      -1.33070305      -0.25901759       0.01773243
H        1.33357165      -1.15469303      -2.73726333      -0.06330237       1.49728471      -0.07980714
H       -2.67543405       1.96398742       3.70563643       0.36720193      -0.01038697      -0.60645261
H       -0.30799749      -1.49847297       4.35534852      -0.51061275      -0.13854945      -0.78881901
H        3.03117392       2.10201797      -3.84054077       0.22607409      -0.27312957       0.93678803
H        3.23293302       2.17014512      -1.97277129      -0.36380061      -0.45694525      -1.15776270
H        3.97091791       0.88103867      -2.92450679       1.49435648      -0.85250387      -0.30506407
