20
Properties=species:S:1:pos:R:3:forces:R:3 id=6052 bond=N-N smiles="[H:16][c:7]1[c:9]([c:8]([c:11]([c:12]([c:10]1[Cl:2])/[N:4]=[N:5]/[N:13]([C:14]([H:18])([H:19])[H:20])[O:6][H:15])[Cl:3])[H:17])[Cl:1]" dataset=PubChem energy=-51450.05556132324 pbc="F F F"
Cl      -2.08137090      -0.50920442       4.86773583       0.43684215       0.78771828      -0.99212300
Cl      -0.99386818       2.88569793       0.56871464       0.18761816      -0.40525382       0.39826415
Cl       1.90497129      -1.79127207       1.56815824      -1.19743729       1.28055691      -0.07755660
N        1.14476894       0.59151513      -0.02671677       1.44055389       1.72745422      -2.36255774
N        0.62389907       0.96649420      -1.14684370      -5.82073579      -1.76668201       8.15539791
O        1.25221061      -0.39648162      -2.68291657      -0.15222160      -0.86259773      -1.74480712
C       -1.41200454       1.21077170       2.68386576       0.64550365      -1.57802702      -0.12436168
C       -0.17992420      -0.85348836       2.99475166       0.75475336      -0.33387642       1.00681258
C       -1.19235285      -0.01061168       3.40701529      -0.12857030       1.44661881      -0.80190595
C       -0.64431436       1.43620422       1.48139009      -1.21271432      -0.14196030       1.67302889
C        0.56413335      -0.59869615       1.85944554       0.88989040      -0.95274409       0.96489890
C        0.36363289       0.53623985       1.07616445      -1.49365617       0.01187320       0.75340436
N        1.39129644       0.84978254      -2.09628956       4.68425103       0.50956641      -5.91530085
C        2.63391626       1.59320350      -2.26002066      -1.06661469       0.82320700       0.39085198
H        0.82870495      -1.07790903      -2.11262791       0.59206860       1.36288130       0.27809354
H       -2.17056735       1.88720342       3.08100101       0.36376607      -0.01470225      -0.60058371
H        0.19686921      -1.57525697       3.73071310      -0.50205458      -0.13812064      -0.79467197
H        2.52630722       2.17880197      -3.21590535       0.37580959      -0.40449037       1.09803284
H        2.72806632       2.24692912      -1.34813587      -0.09233315      -0.49486988      -1.20766671
H        3.46605121       0.95782267      -2.29987137       1.29698484      -0.85836418      -0.09709704
