20
Properties=species:S:1:pos:R:3:forces:R:3 id=6052 bond=N-N smiles="[H:16][c:7]1[c:9]([c:8]([c:11]([c:12]([c:10]1[Cl:2])/[N:4]=[N:5]/[N:13]([C:14]([H:18])([H:19])[H:20])[O:6][H:15])[Cl:3])[H:17])[Cl:1]" dataset=PubChem energy=-51438.928238084474 pbc="F F F"
Cl      -1.98039756      -0.52456121       4.74280874       0.34952455       0.74214212      -0.85422000
Cl      -0.89289484       2.87034114       0.44378755       0.24101254      -0.28682230       0.10129343
Cl       2.00594463      -1.80662886       1.44323115      -1.10351510       1.24373064      -0.14464802
N        1.24574228       0.57615834      -0.15164386       1.42124308       0.93628573       8.61976612
N        0.72487241       0.95113741      -1.27177079     -46.59513445       6.99621889      55.43903824
O        1.15123727      -0.38112483      -2.55798948       1.84926865      -4.05417069      -7.17731016
C       -1.31103120       1.19541491       2.55893867       0.59256118      -1.71486986      -0.13009784
C       -0.07895086      -0.86884515       2.86982457       0.96268551      -0.18023867       0.92632902
C       -1.09137951      -0.02596847       3.28208820      -0.19952293       1.57010773      -0.81604361
C       -0.54334102       1.42084743       1.35646300      -1.22859814      -0.48164692       2.11861141
C        0.66510669      -0.61405294       1.73451845       0.54575938      -1.10455618       1.42559952
C        0.46460623       0.52088306       0.95123736      -0.57371466       0.00225071      -0.37906897
N        1.29032310       0.86513933      -1.97136247      41.32811697      -4.51005115     -56.73881225
C        2.53294292       1.60856029      -2.13509357       1.46247704       1.38786709      -1.18279112
H        0.72773161      -1.06255224      -1.98770082       0.09381502       1.68654156       0.50993287
H       -2.06959401       1.87184663       2.95607392       0.34469994      -0.02320625      -0.58272124
H        0.29784255      -1.59061376       3.60578601      -0.51388197      -0.15040730      -0.78013954
H        2.42533388       2.19415876      -3.09097826       0.22112696      -0.57130630       1.05341340
H        2.62709298       2.26228591      -1.22320878      -0.42409405      -0.70318071      -1.16475648
H        3.36507787       0.97317946      -2.17494428       1.22527415      -0.78421149      -0.24089228
