20
Properties=species:S:1:pos:R:3:forces:R:3 id=6052 bond=N-N smiles="[H:16][c:7]1[c:9]([c:8]([c:11]([c:12]([c:10]1[Cl:2])/[N:4]=[N:5]/[N:13]([C:14]([H:18])([H:19])[H:20])[O:6][H:15])[Cl:3])[H:17])[Cl:1]" dataset=PubChem energy=-51448.20308284592 pbc="F F F"
Cl      -2.39102248      -0.46211023       5.25084555       0.46385005       0.80532332      -1.04519510
Cl      -1.30351976       2.93279212       0.95182436       0.22005591      -0.54770198       0.36578368
Cl       1.59531971      -1.74417788       1.95126796      -1.23942198       1.33136228      -0.06811625
N        0.83511736       0.63860932       0.35639295      -0.97994870       2.19322566      -7.75799707
N        0.31424749       1.01358839      -0.76373398       4.28726864      -2.33686008       4.20000602
O        1.56186219      -0.44357581      -3.06602629       1.12209565      -1.21091306       0.39277163
C       -1.72165612       1.25786589       3.06697548       0.65907034      -1.55862877      -0.13631126
C       -0.48957578      -0.80639417       3.37786138       0.72778354      -0.35120776       1.06487449
C       -1.50200443       0.03648251       3.79012501      -0.11406771       1.39547927      -0.78127567
C       -0.95396594       1.48329841       1.86449981      -1.14029868      -0.01815634       1.61066592
C        0.25448177      -0.55160196       2.24255526       0.93042395      -0.92281128       0.89178466
C        0.05398131       0.58333404       1.45927417      -1.86298346      -0.50464259       1.87920380
N        1.70094802       0.80268835      -2.47939928      -3.70913377       2.36473837       0.28433124
C        2.94356784       1.54610931      -2.64313038      -1.16360950      -0.12594977       0.89981524
H        1.13835653      -1.12500322      -2.49573763       0.42267169       1.23562923      -0.13725164
H       -2.48021893       1.93429761       3.46411073       0.36987790      -0.00937994      -0.60724756
H       -0.11278237      -1.52816278       4.11382282      -0.50602254      -0.13655555      -0.79490138
H        2.83595880       2.13170778      -3.59901507       0.14126276      -0.35738340       1.04121061
H        3.03771790       2.19983493      -1.73124559      -0.18358309      -0.41309183      -1.15078975
H        3.77570279       0.91072848      -2.68298109       1.55648458      -0.83407575      -0.15240040
