17
Properties=species:S:1:pos:R:3:forces:R:3 id=26498 bond=N-O smiles="[H:9][C:3]([H:10])([H:11])[C:6]([C:4]([H:12])([H:13])[H:14])([C:5]([H:15])([H:16])[H:17])[N:2]([H:8])[O:1][H:7]" dataset=PubChem energy=-7865.087725806364 pbc="F F F"
O        0.03259872      -1.45045457       2.18438095      -0.05949779       2.00140409      -0.50000352
N        0.36822536       0.52915346       1.85780929       1.28562966      -0.15906149       2.21915653
C        1.73325396       0.00727602      -0.10380896       1.71520110       1.42245421      -0.79770936
C       -0.58375942       0.73701608      -0.40051450      -0.37891609      -0.32873528      -0.63202956
C        1.02548915       2.43784084       0.42931614       1.32737338       0.55667228      -0.40736451
C        0.69144690       0.94285984       0.46741016      -1.94527080      -2.03542548      -0.98216713
H        0.30435833      -1.78568445       3.09543222      -0.10100106       1.85221886      -1.39968977
H       -0.43083572       1.08652499       2.24896310       0.23985133      -1.60431389      -0.61871407
H        1.62342561      -0.99298367       0.25838370      -0.48237545      -0.52107144      -0.03550164
H        2.81452346       0.29210844       0.14664800      -1.53609384      -0.11112297      -0.49918968
H        1.50459844       0.10913351      -1.19348874       1.05080442      -0.61980558       0.67976098
H       -1.42182493       1.05196586       0.20098234      -0.48359231       0.16885671      -0.01686281
H       -0.72025299      -0.33833298      -0.61174383       0.01855192       0.48513620       0.17853677
H       -0.64198565       1.28123194      -1.38192643       0.47084519      -0.41860549       0.97730723
H        0.71098409       2.98265591      -0.52690532       0.48612737      -1.30348409       1.12130195
H        2.14946556       2.60569992       0.57721565      -1.79624278      -0.06255984       0.13715802
H        0.41016642       2.88479462       1.18947665       0.18817129       0.67737100       0.57426712
