17
Properties=species:S:1:pos:R:3:forces:R:3 id=26498 bond=N-O smiles="[H:9][C:3]([H:10])([H:11])[C:6]([C:4]([H:12])([H:13])[H:14])([C:5]([H:15])([H:16])[H:17])[N:2]([H:8])[O:1][H:7]" dataset=PubChem energy=-7862.592040272147 pbc="F F F"
O        0.11479300      -0.96565260       2.10440422      -6.25013705     -38.96767849       7.20939545
N        0.28603108       0.04435149       1.93778602       5.95857206      37.96646296      -4.98043580
C        1.65105968      -0.47752595      -0.02383223       1.63416530       1.51069022      -0.77335854
C       -0.66595370       0.25221411      -0.32053777      -0.32981870      -0.51123956      -0.53318180
C        0.94329487       1.95303887       0.50929287       1.27895903       0.31155873      -1.00761290
C        0.60925262       0.45805787       0.54738689      -0.93796470       0.43497584      -0.88118500
H        0.38655261      -1.30088248       3.01545549       0.46487388      -0.35281115      -0.96598317
H       -0.51303000       0.60172302       2.32893983       0.21742716       1.47665084      -1.09475757
H        1.54123133      -1.47778564       0.33836043      -0.42803488      -0.61193615      -0.12967348
H        2.73232918      -0.19269353       0.22662473      -1.52112768      -0.10715088      -0.49931429
H        1.42240416      -0.37566846      -1.11351201       1.03047136      -0.66592428       0.72123096
H       -1.50401921       0.56716389       0.28095907      -0.49254725       0.20490903       0.02863331
H       -0.80244727      -0.82313495      -0.53176710      -0.05088257       0.43539365       0.07774696
H       -0.72417993       0.79642997      -1.30194970       0.45774027      -0.45652969       0.99592964
H        0.62878981       2.49785394      -0.44692859       0.57591848      -1.13630874       1.11982552
H        2.06727128       2.12089795       0.65719238      -1.75611832      -0.02455258       0.10485099
H        0.32797214       2.39999265       1.26945338       0.14984507       0.49611595       0.60689902
