17
Properties=species:S:1:pos:R:3:forces:R:3 id=26498 bond=N-O smiles="[H:9][C:3]([H:10])([H:11])[C:6]([C:4]([H:12])([H:13])[H:14])([C:5]([H:15])([H:16])[H:17])[N:2]([H:8])[O:1][H:7]" dataset=PubChem energy=-7863.14069726246 pbc="F F F"
O       -0.02562223      -1.79385596       2.24103114       0.27627284       0.49169952       0.68038344
N        0.42644631       0.87255485       1.80115910       1.15759427       0.66441900       0.43382827
C        1.79147491       0.35067741      -0.16045915       1.70052768       1.40325039      -0.74260014
C       -0.52553847       1.08041747      -0.45716469      -0.71099940      -0.40505087      -0.51179407
C        1.08371010       2.78124223       0.37266595       1.25889065       0.91611133      -0.55839437
C        0.74966785       1.28626123       0.41075997      -1.60806693      -1.69637889      -0.12573204
H        0.24613738      -2.12908584       3.15208241      -0.34352639       1.21652086      -1.52305133
H       -0.37261477       1.42992638       2.19231291       0.26898743      -0.89628179      -0.78101382
H        1.68164656      -0.64958228       0.20173351      -0.49479809      -0.55923985      -0.00230177
H        2.87274441       0.63550983       0.08999781      -1.54809754      -0.11573734      -0.51292485
H        1.56281939       0.45253490      -1.25013893       1.05086102      -0.61657608       0.68128840
H       -1.36360398       1.39536725       0.14433215      -0.51525461       0.15913266      -0.05152512
H       -0.66203204       0.00506841      -0.66839402       0.05021773       0.50530169       0.20640582
H       -0.58376470       1.62463333      -1.43857662       0.55775601      -0.37442649       1.04144549
H        0.76920504       3.32605730      -0.58355551       0.49741759      -1.28854332       1.10143931
H        2.20768651       2.94910131       0.52056546      -1.80726735      -0.10117176       0.12730539
H        0.46838737       3.22819601       1.13282646       0.20949756       0.69772661       0.53735135
