17
Properties=species:S:1:pos:R:3:forces:R:3 id=26498 bond=N-O smiles="[H:9][C:3]([H:10])([H:11])[C:6]([C:4]([H:12])([H:13])[H:14])([C:5]([H:15])([H:16])[H:17])[N:2]([H:8])[O:1][H:7]" dataset=PubChem energy=-7864.338336283835 pbc="F F F"
O        0.01547491      -1.55145498       2.20104277       0.01904137       1.39616879      -0.13508752
N        0.38534917       0.63015387       1.84114747       1.47341473       0.32855231       1.70550948
C        1.75037777       0.10827643      -0.12047078       1.71716727       1.41622239      -0.77452085
C       -0.56663561       0.83801649      -0.41717632      -0.45932815      -0.33372632      -0.61427718
C        1.04261296       2.53884125       0.41265432       1.31168034       0.67418638      -0.40169080
C        0.70857071       1.04386025       0.45074834      -1.96720877      -2.02090483      -0.80402251
H        0.28723452      -1.88668486       3.11209404      -0.18424675       1.65819575      -1.40826957
H       -0.41371191       1.18752540       2.23230128       0.16362253      -1.41327459      -0.69767247
H        1.64054942      -0.89198326       0.24172188      -0.49107025      -0.53238392      -0.01633880
H        2.83164727       0.39310885       0.12998618      -1.53872493      -0.11371760      -0.50282282
H        1.52172225       0.21013392      -1.21015056       1.04985904      -0.61718440       0.67964119
H       -1.40470112       1.15296627       0.18432052      -0.49050297       0.16596919      -0.02630061
H       -0.70312918      -0.23733257      -0.62840565       0.02902472       0.49255685       0.18711915
H       -0.62486184       1.38223235      -1.39858825       0.49216420      -0.40933323       0.99345425
H        0.72810790       3.08365632      -0.54356714       0.48037986      -1.31028458       1.11412676
H        2.16658937       2.70670033       0.56055383      -1.80210035      -0.07728340       0.13608336
H        0.42729023       2.98579503       1.17281483       0.19499309       0.69569413       0.56408202
