24
Properties=species:S:1:pos:R:3:forces:R:3 id=29769 bond=N-N smiles="[H:14][C:5]1([C:6]([C:8]([C:10]([C:9]([C:7]1([H:18])[H:19])([H:22])[H:23])([H:24])[N:3]([C:4]([H:11])([H:12])[H:13])[N:2]=[O:1])([H:20])[H:21])([H:16])[H:17])[H:15]" dataset=PubChem energy=-12519.647299598872 pbc="F F F"
O       -0.29904541       2.53792621       3.00552224       1.91846189      -0.96861013       0.58689862
N        0.72930429       1.91035106       3.33141636      -1.75095093      -0.33486830      -1.91887905
N        1.05955232       0.91653448       2.47088056      -0.98817159       0.09929537       0.39331356
C        2.17351497       0.07382747       2.78121405      -1.91587439      -0.20303807       2.83886159
C       -0.08535074       0.34094102      -1.79875511       0.96966107      -1.28364457       1.93492546
C       -0.06927674       1.67385402      -1.05026145       1.85746612       1.23994481      -1.89316957
C       -0.57169949      -0.75904701      -0.81407482       0.26190624       0.83535693       1.11134325
C        0.95040552       1.68502488       0.15143802      -0.77273821      -3.39558045      -1.78450074
C        0.26333408      -0.77717301       0.62483164      -0.89292925       1.07959109      -1.33195097
C        0.37312200       0.62924679       1.21871679       0.84345384       2.44085290      -1.74236156
H        1.71475101      -0.96439943       2.79646974       1.46017016       0.96152126       0.07576229
H        2.93140281       0.26184085       2.08705061       1.36269409      -0.34790194      -1.00940959
H        2.45881213       0.44008205       3.80776720       0.16802441      -0.91238765      -0.99358780
H       -0.62663935       0.30528032      -2.76468176       0.27659977       0.18623904       0.71284926
H        0.97558445       0.02739516      -1.92481298      -0.50265368       0.60979640      -0.66553891
H       -1.06193148       1.99071064      -0.72845871       0.09278523      -0.02235997       0.02509725
H        0.29825509       2.37803009      -1.87386841      -0.59693553      -0.25635109       1.43000884
H       -0.32282793      -1.69991944      -1.29174454      -0.66749290      -0.39572901       0.21588797
H       -1.66822063      -0.56529102      -0.67516918       0.94791218      -0.76859921       0.25404417
H        1.97225989       1.35506346      -0.19519509      -1.03738899      -0.24595004       0.08209087
H        1.17877884       2.65422037       0.44899561      -0.46576230       1.65315288       1.29370966
H        1.22973288      -1.14868185       0.43068500       1.09736427      -0.83744677      -0.34878058
H       -0.24769878      -1.38927791       1.35272442      -0.13115300      -0.44487121      -0.04534484
H       -0.65141081       0.81030496       1.29795247      -1.53359897       1.31073768       0.78069628
