24
Properties=species:S:1:pos:R:3:forces:R:3 id=29769 bond=N-N smiles="[H:14][C:5]1([C:6]([C:8]([C:10]([C:9]([C:7]1([H:18])[H:19])([H:22])[H:23])([H:24])[N:3]([C:4]([H:11])([H:12])[H:13])[N:2]=[O:1])([H:20])[H:21])([H:16])[H:17])[H:15]" dataset=PubChem energy=-12516.117522705601 pbc="F F F"
O       -0.40126503       2.84553611       3.27187856       7.46358805      -4.66453335       2.14212519
N        0.62708467       2.21796096       3.59777268      -6.66084681       2.18211817      -4.12417934
N        1.16177194       0.60892458       2.20452424      -1.59756619       1.52304376       0.68253345
C        2.27573459      -0.23378243       2.51485773      -2.62575565       0.10428322       2.67484641
C        0.01686888       0.03333112      -2.06511143       0.93639449      -1.28898087       1.93381876
C        0.03294288       1.36624412      -1.31661777       1.88888674       1.22862271      -1.93456484
C       -0.46947987      -1.06665691      -1.08043114       0.29976040       0.76348163       1.12321720
C        1.05262514       1.37741498      -0.11491830      -0.77680865      -3.36168040      -1.92326557
C        0.36555370      -1.08478291       0.35847532      -1.09941844       1.08707786      -1.61691837
C        0.47534162       0.32163689       0.95236047       1.61700650       2.13727472      -0.70311726
H        1.81697063      -1.27200933       2.53011342       1.50090587       0.70955301       0.12961270
H        3.03362243      -0.04576905       1.82069429       1.53729143      -0.33960079      -1.06476894
H        2.56103175       0.13247215       3.54141088       0.28071250      -0.96366951      -0.92676538
H       -0.52441973      -0.00232958      -3.03103808       0.27600698       0.18896748       0.69807613
H        1.07780407      -0.28021474      -2.19116930      -0.50225002       0.61430826      -0.65511507
H       -0.95971186       1.68310074      -0.99481503       0.06606473      -0.03125481       0.00906692
H        0.40047471       2.07042019      -2.14022473      -0.60187036      -0.23935348       1.39787207
H       -0.22060831      -2.00752934      -1.55810086      -0.68711435      -0.40158341       0.17646957
H       -1.56600101      -0.87290092      -0.94152550       0.93008067      -0.76775986       0.23975046
H        2.07447951       1.04745356      -0.46155141      -1.03973287      -0.22711533       0.10404133
H        1.28099846       2.34661047       0.18263929      -0.43728217       1.64479063       1.31111046
H        1.33195250      -1.45629175       0.16432868       1.11468780      -0.80593416      -0.32153885
H       -0.14547916      -1.69688781       1.08636810      -0.12283233      -0.42784967      -0.02356071
H       -0.54919119       0.50269506       1.03159615      -1.75944759       1.33491042       0.67266855
