24
Properties=species:S:1:pos:R:3:forces:R:3 id=29769 bond=N-N smiles="[H:14][C:5]1([C:6]([C:8]([C:10]([C:9]([C:7]1([H:18])[H:19])([H:22])[H:23])([H:24])[N:3]([C:4]([H:11])([H:12])[H:13])[N:2]=[O:1])([H:20])[H:21])([H:16])[H:17])[H:15]" dataset=PubChem energy=-12518.718942215746 pbc="F F F"
O       -0.32787658       2.62468798       3.08064838       4.16752515      -2.69965273       0.96284343
N        0.70047312       1.99711283       3.40654250      -2.91999950      -0.95681730      -3.96134421
N        1.08838349       0.82977271       2.39575442      -1.94434431       1.94610007       1.65814351
C        2.20234614      -0.01293430       2.70608791      -2.20267599       0.10975432       2.88376321
C       -0.05651957       0.25417925      -1.87388125       0.95920578      -1.28183315       1.93380211
C       -0.04044557       1.58709225      -1.12538759       1.88746880       1.25398884      -1.92555537
C       -0.54286832      -0.84580878      -0.88920096       0.27452407       0.82136503       1.11477800
C        0.97923669       1.59826311       0.07631188      -0.82953354      -3.45222088      -1.88377700
C        0.29216525      -0.86393478       0.54970550      -0.99837399       1.06816228      -1.37868645
C        0.40195317       0.54248502       1.14359065       1.12985577       2.73394313      -1.27798671
H        1.74358218      -1.05116120       2.72134360       1.47667374       0.90026484       0.11926836
H        2.96023398       0.17507908       2.01192447       1.43328913      -0.34361921      -0.99719119
H        2.48764330       0.35332028       3.73264106       0.22755180      -0.93270533      -0.92808632
H       -0.59780818       0.21851855      -2.83980790       0.27605462       0.18499482       0.70804889
H        1.00441562      -0.05936661      -1.99993912      -0.50261547       0.61186980      -0.66168519
H       -1.03310031       1.90394887      -0.80358485       0.08001981      -0.02604119       0.01728442
H        0.32708626       2.29126832      -1.94899455      -0.60705083      -0.25104193       1.41218618
H       -0.29399676      -1.78668121      -1.36687068      -0.67152956      -0.39833290       0.20636019
H       -1.63938946      -0.65205279      -0.75029532       0.94277486      -0.76860297       0.25020475
H        2.00109106       1.26830169      -0.27032123      -1.03531486      -0.23144393       0.08847073
H        1.20761001       2.56745860       0.37386947      -0.45370863       1.65451461       1.30457990
H        1.25856405      -1.23544362       0.35555886       1.10400914      -0.81191972      -0.33225440
H       -0.21886761      -1.47603968       1.27759828      -0.12620353      -0.44168741      -0.03848473
H       -0.62257964       0.72354319       1.22282633      -1.66677455       1.30937085       0.72711989
