24
Properties=species:S:1:pos:R:3:forces:R:3 id=29769 bond=N-N smiles="[H:14][C:5]1([C:6]([C:8]([C:10]([C:9]([C:7]1([H:18])[H:19])([H:22])[H:23])([H:24])[N:3]([C:4]([H:11])([H:12])[H:13])[N:2]=[O:1])([H:20])[H:21])([H:16])[H:17])[H:15]" dataset=PubChem energy=-12515.464492846531 pbc="F F F"
O       -0.43271723       2.94018531       3.35383435       7.44697360      -4.58977856       2.22668236
N        0.59563247       2.31261016       3.67972847      -6.99347842       3.12603531      -3.36035893
N        1.19322414       0.51427538       2.12256845      -1.37171058       1.28941231      -0.03056168
C        2.30718679      -0.32843163       2.43290194      -2.77051941      -0.00283461       2.55523857
C        0.04832108      -0.06131808      -2.14706722       0.93742626      -1.29790954       1.93811859
C        0.06439508       1.27159492      -1.39857356       1.82674082       1.17802617      -1.89685404
C       -0.43802767      -1.16130611      -1.16238693       0.30218267       0.72455488       1.12497012
C        1.08407734       1.28276578      -0.19687409      -0.61390917      -3.16420434      -1.85108620
C        0.39700590      -1.17943211       0.27651953      -1.06705415       1.14487555      -1.78157509
C        0.50679382       0.22698769       0.87040468       1.75062342       1.29672097      -0.53496724
H        1.84842283      -1.36665853       2.44815763       1.47631547       0.64740762       0.06635538
H        3.06507463      -0.14041825       1.73873850       1.52931212      -0.35330677      -1.14206811
H        2.59248395       0.03782295       3.45945509       0.26177249      -0.95047620      -0.98640380
H       -0.49296753      -0.09697878      -3.11299387       0.27814074       0.19624895       0.69980512
H        1.10925627      -0.37486394      -2.27312509      -0.50163780       0.61464695      -0.65602397
H       -0.92825966       1.58845154      -1.07677082       0.07435070      -0.02962700       0.00879108
H        0.43192691       1.97577099      -2.22218052      -0.57778952      -0.23849750       1.42115314
H       -0.18915611      -2.10217854      -1.64005665      -0.69727666      -0.39717728       0.16520246
H       -1.53454881      -0.96755012      -1.02348129       0.92740478      -0.76890544       0.23557790
H        2.10593171       0.95280436      -0.54350720      -1.05204902      -0.24047750       0.12218110
H        1.31245066       2.25196127       0.10068350      -0.43401563       1.64182984       1.30090555
H        1.36340470      -1.55094095       0.08237289       1.11172164      -0.82480224      -0.33172643
H       -0.11402696      -1.79153701       1.00441231      -0.12616629      -0.41658415      -0.01658243
H       -0.51773899       0.40804586       0.94964036      -1.71532633       1.41483636       0.72526737
