14
Properties=species:S:1:pos:R:3:forces:R:3 id=12282 bond=C-C smiles="[H:7][C:3]([H:8])([H:9])[C:5]([H:11])([H:12])[C:6]([H:13])([H:14])[C:4]([H:10])([F:1])[F:2]" dataset="DES370K Monomers" energy=-9716.122230572035 pbc="F F F"
F        0.43623880       0.15275642       1.96129450       0.13755998      -0.27082806      -0.28581074
F       -0.65516808      -1.47601515       0.90670153       0.46270979       0.36674379       0.02525891
C        2.98336276       0.25697027      -2.24865206      -0.71561182      -0.57007399       2.21834720
C       -0.30021574      -0.14454958       0.84959867      -1.43467289       0.45485137      -0.12779532
C        1.71975437      -0.55352232      -0.56333080       1.26822703       0.46621124      -1.99762360
C        0.39445737       0.21384287      -0.44376239       1.04339440      -1.01440835       0.09884650
H        2.49351987       0.15582620      -3.20510968      -0.57337242      -0.40496895       0.11810412
H        3.18534549       1.31864793      -2.09387382      -0.44343851      -0.15099767       0.50407222
H        3.96699437      -0.22809872      -2.28988966      -0.59106624      -0.31800484       0.41486165
H       -1.23770317       0.43260759       0.92557939       0.27078635      -0.28847047       0.14861038
H        1.52850500      -1.60849947      -0.84356312       0.33246196       0.81383384      -0.11950815
H        2.27203337      -0.55738333       0.39689091       0.10875272       0.38662375      -0.96936326
H       -0.26650760      -0.03709164      -1.26643303      -0.13312778      -0.02117245      -0.02147070
H        0.50867561       1.28011208      -0.43291739       0.26484331       0.54140405      -0.00830220
