14
Properties=species:S:1:pos:R:3:forces:R:3 id=12282 bond=C-C smiles="[H:7][C:3]([H:8])([H:9])[C:5]([H:11])([H:12])[C:6]([H:13])([H:14])[C:4]([H:10])([F:1])[F:2]" dataset="DES370K Monomers" energy=-9684.878853972681 pbc="F F F"
F        0.84239864       0.41327189       1.41958410       0.15126829      -0.22701364      -0.28081755
F       -0.24900824      -1.21549968       0.36499113       0.47062519       0.42076401       0.00559767
C        2.57720292      -0.00354520      -1.70694166     100.46277633      63.68242736    -131.15675738
C        0.10594410       0.11596589       0.30788827      -1.81281788       0.62854502      -0.29386476
C        2.12591421      -0.29300685      -1.10504120     -98.46232579     -63.83954758     130.80898558
C        0.80061721       0.47435834      -0.98547279      -2.26087045      -1.93917255       2.93229587
H        2.08736003      -0.10468927      -2.66339928       0.77018388       0.97450647      -2.47226304
H        2.77918565       1.05813246      -1.55216342       1.59489768       1.60332032      -1.43990917
H        3.56083453      -0.48861419      -1.74817926       1.26670849       0.45265338      -1.82977100
H       -0.83154333       0.69312306       0.38386899       0.19379719      -0.30222922       0.28391965
H        1.93466484      -1.34798400      -1.38527352      -1.67113273      -1.34081192       2.20764071
H        2.67819321      -0.29686786      -0.14481949      -1.42061507      -0.48064974       1.55529564
H        0.13965224       0.22342383      -1.80814343       0.01744985      -0.18122875      -0.19896939
H        0.91483545       1.54062755      -0.97462779       0.69728684       0.55175141      -0.12795073
