37
Properties=species:S:1:pos:R:3:forces:R:3 id=9878 bond=C-O smiles="[H:24][c:8]1[c:7]([c:9]([c:11]([c:12]([c:10]1[H:26])[O:3][C:17]([H:33])([H:34])[C:19]([H:37])([C:18]([H:35])([H:36])[N:14]([H:27])[H:28])[O:4][H:20])[O:2][C:16]([H:31])([H:32])[N:13]2[C:5](=[C:6]([C:15]([O:1]2)([H:29])[H:30])[H:22])[H:21])[H:25])[H:23]" dataset=PubChem energy=-24941.118687845756 pbc="F F F"
O        0.37153270       3.10850746       1.02829976      -1.50492330      -2.16487880      -1.02428700
O       -1.12437766       0.69379397      -0.79050927      -0.50686753       0.56459551       0.19206689
O        1.13314749       0.40010838       0.61774956       1.34977953      -0.71363732       0.63446340
O        0.65098242      -0.00064400       3.18196663     -55.76730552      53.30775719      23.94888238
C       -1.86353938       3.35238034       1.49035789       2.74529690       2.49058489       4.15302459
C       -1.09273951       4.02046806       2.43819351      -2.93907124      -0.28396136      -0.47769190
C        1.15567954      -0.05985325      -3.63082294       0.19442645       0.93787278      -1.70608917
C        2.36329491      -0.28804277      -2.99115305      -1.63959588       0.03485394       2.85013679
C        0.02508680       0.36684324      -2.92439584       1.76913786      -1.15955191       2.22494433
C        2.38501985      -0.23044716      -1.53288560      -2.21470721       0.50244649      -1.13762779
C        0.03506239       0.37849052      -1.48289661       0.30229397       1.15043168      -1.04668553
C        1.23347421       0.14174987      -0.73387985       0.10246672      -0.10075298      -2.15697520
N       -1.01710813       2.51044066       0.83849943      -0.01343883      -1.20207495      -2.78932913
N       -0.55160932      -2.18466704       3.27581329       0.44104586       0.10748911       0.41859469
C        0.33932253       3.65834887       2.34542329      -2.55974223      -0.37549694      -1.16824106
C       -1.53181653       2.07342393      -0.52672379       1.91651374      -1.40850396       0.24963171
C        2.08120103      -0.18448572       1.57870830       0.48070065      -0.48644756      -0.74496819
C        0.67561622      -1.99297159       2.45723982      -1.45680168      -2.21973307       0.02504264
C        1.28723450      -0.58841293       2.85698003      52.26562121     -50.53796458     -24.59006386
H        0.14803234       0.33421389       2.38136229      -1.49854940       1.05240308       1.02948203
H       -2.93243043       3.38445718       1.40451582      -0.02993535      -0.30449007      -0.20968780
H       -1.48655180       4.52299506       3.30939097      -0.16554461       0.28602565      -0.29014529
H        1.13335152      -0.06653499      -4.78807668      -0.08243428      -0.04181967       2.15311739
H        3.21397455      -0.52393203      -3.58606462       0.64326442      -0.26590805       0.12949898
H       -0.80244605       0.61086627      -3.51802616      -1.40508546       0.31636341      -0.11509310
H        3.24709756      -0.55006795      -1.04793708       1.48341704      -0.13464116       0.82871766
H       -1.37720339      -2.42508976       2.73580713       0.37017564       0.32150965       0.27510438
H       -0.73407166      -1.37742608       3.89863534      -0.01304689      -0.90235385      -0.80977374
H        0.95124025       4.45475991       2.24280245       1.89883874       2.93316134      -0.15618023
H        0.68848871       3.18260843       3.23499127       0.31421147      -1.82950887       0.25857890
H       -2.63791124       2.04459186      -0.54013448       0.75132981       0.06937441       0.76159072
H       -1.24549692       2.63928945      -1.40538340       0.52994686       0.61097213       0.20788803
H        2.94564922       0.33808012       1.89494176       0.55731503       1.96033890      -0.42030967
H        2.48255189      -1.05605201       1.18107272       0.55637699      -1.67343185      -0.98572284
H        1.34742416      -2.85762350       2.50914783       0.06776635       0.22496445       0.36549560
H        0.36289387      -1.95544784       1.44043751      -0.26294078       0.17511440      -1.15951788
H        1.85459764      -0.87717144       3.73180098       3.31608340      -1.24194166       0.28354488
