32
Properties=species:S:1:pos:R:3:forces:R:3 id=19629 bond=C-O smiles="[H:31][C:10]1([C:12]([O:2]1)([C:4]([H:17])([H:18])[H:19])[C:5]([H:20])([H:21])[H:22])[C:7]([H:25])([H:26])[C:9]([H:29])([H:30])[C:11]([H:32])([C:3]([H:14])([H:15])[H:16])[C:8]([H:27])([H:28])[C:6]([H:23])([H:24])[O:1][H:13]" dataset=PubChem energy=-14749.578002880287 pbc="F F F"
O        1.07080826       2.62852423      -1.31777804      63.30497698    -145.11826569    -243.32121000
O        0.96717394      -2.25389195       0.53682468      -2.61387832      -0.44418918       0.37174985
C       -2.77420639       1.53070985      -0.16249257       1.63195794      -0.55957325      -2.01968343
C        3.06029035      -1.58961511      -0.42691448      -0.71276068      -0.73742324      -0.98017565
C        3.05450512      -2.92352487       1.69649646      -0.32858217       0.98562386       1.42049203
C        0.91926844       2.98641490      -0.72359797     -58.78252486     140.17424187     239.23998071
C        0.77090005       0.30303447       1.03683469      -0.99238062      -2.77929811      -4.95641939
C       -0.63819705       2.87818717      -0.43992808      -3.84255570       0.69231616       5.51768323
C       -0.71326028       0.57375969       0.84286854      -1.09929093       0.03407751       0.65753839
C        1.08976553      -1.12391008       1.40548000       3.39465609      -0.38496966      -0.22796348
C       -1.19352864       1.44623386      -0.31750336      -1.29347121       0.22415705      -1.33545688
C        2.29910005      -2.03056289       0.75887725      -0.38251658       2.38840735       1.91997602
H        0.67163068       3.09471159      -2.04296391      -0.87506423      -1.26893374      -5.48229116
H       -3.14367794       2.25370406      -0.88646057      -0.23714263      -0.48520825      -0.52363699
H       -3.06213163       1.97894072       0.72603998      -0.19461869       0.54652865       2.14732110
H       -3.22342800       0.53140370      -0.24245160      -0.03192835       0.45881979      -0.16362898
H        2.29669095      -1.36943329      -1.18752827       0.64786143      -0.06302976      -0.11225854
H        3.72900225      -2.43230535      -0.74279514      -0.41632194       1.09630693       0.02857534
H        3.55762006      -0.68869055      -0.17398658       1.03029951       0.70569935      -0.13436486
H        3.72496415      -2.32925130       2.37671325      -0.77025623      -0.46418955      -0.60116830
H        3.68366576      -3.66872693       1.25814960       0.10740812      -0.50584320      -0.63399325
H        2.25667573      -3.37285257       2.26593134       0.20120924      -0.52950231       0.66379159
H        1.53370626       2.73504995       0.16729177       0.18901560      -0.47852652       3.56213891
H        1.24770499       4.05164574      -0.75490644      -0.03308048       5.30669315       2.16831379
H        1.24874247       0.46481002       0.05368698       0.03137195       0.20617450       0.35720503
H        1.10637076       0.99263244       1.68063972       1.80276755       2.00341198       2.49046854
H       -1.21925448       3.51119613      -1.14412072       0.38568770      -0.25437276       0.03431798
H       -0.81402730       3.18743228       0.59696716      -0.34852175       1.07532999      -0.12602632
H       -1.06940388       1.09594946       1.76919482       0.00739274      -0.62448673      -0.62756249
H       -1.27096378      -0.38757468       0.74245153       0.38213155       0.67949028       0.25296809
H        0.93031908      -1.17411364       2.47995255      -0.16168103      -1.44608027      -0.03238717
H       -1.01935409       0.97078310      -1.30303576       0.00318463      -0.43156506       0.44499537
