32
Properties=species:S:1:pos:R:3:forces:R:3 id=19629 bond=C-O smiles="[H:31][C:10]1([C:12]([O:2]1)([C:4]([H:17])([H:18])[H:19])[C:5]([H:20])([H:21])[H:22])[C:7]([H:25])([H:26])[C:9]([H:29])([H:30])[C:11]([H:32])([C:3]([H:14])([H:15])[H:16])[C:8]([H:27])([H:28])[C:6]([H:23])([H:24])[O:1][H:13]" dataset=PubChem energy=-14794.079214392123 pbc="F F F"
O        1.24530866       2.21640769      -2.00198538       0.00303594       0.81440556       3.56026317
O        0.79267354      -1.84177541       1.22103202      -2.61923988      -0.41017859       0.42539089
C       -2.94870679       1.94282639       0.52171477       1.70525553      -0.33922219      -1.90132698
C        2.88578995      -1.17749857       0.25729286      -0.76767635      -0.73687889      -0.97743722
C        2.88000472      -2.51140833       2.38070380      -0.35503734       0.97689786       1.44885254
C        0.74476804       3.39853144      -0.03939063      -1.42810275       1.18096072       0.70861142
C        0.59639965       0.71515101       1.72104203      -0.92401332      -2.81611629      -5.16539058
C       -0.81269745       3.29030371       0.24427926       1.49179496      -0.95136305      -0.31076433
C       -0.88776068       0.98587623       1.52707588      -1.03521623       0.09499695       0.66709310
C        0.91526513      -0.71179354       2.08968734       3.39464619      -0.40554834      -0.14256946
C       -1.36802904       1.85835040       0.36670398      -1.55781964      -0.31198695      -1.37552482
C        2.12459965      -1.61844635       1.44308459      -0.32378915       2.37286396       1.83515395
H        0.84613108       2.68259505      -2.72717125      -0.50580178       0.81939399      -0.17896908
H       -3.31817834       2.66582060      -0.20225323      -0.26140799      -0.49897653      -0.54932311
H       -3.23663203       2.39105726       1.41024732      -0.28636848       0.53029232       2.18809041
H       -3.39792840       0.94352024       0.44175574       0.04594254       0.51989464      -0.16020280
H        2.12219055      -0.95731675      -0.50332093       0.68790383      -0.01731613      -0.11515926
H        3.55450185      -2.02018881      -0.05858780      -0.41628685       1.09279925       0.04560587
H        3.38311966      -0.27657401       0.51022076       1.01793035       0.70157970      -0.16825550
H        3.55046375      -1.91713476       3.06092059      -0.76691815      -0.46250271      -0.60271659
H        3.50916536      -3.25661039       1.94235694       0.10232914      -0.49411901      -0.63725961
H        2.08217533      -2.96073603       2.95013868       0.20036585      -0.53839944       0.67380250
H        1.35920586       3.14716649       0.85149911      -0.10491845      -1.54182316      -1.30968685
H        1.07320459       4.46376228      -0.07069910      -0.36301658      -0.71874606      -1.67297285
H        1.07424207       0.87692656       0.73789432      -0.04031788       0.21237627       0.38132856
H        0.93187036       1.40474898       2.36484706       1.81400926       2.00586356       2.58691507
H       -1.39375488       3.92331267      -0.45991338       0.45094051      -0.57768160       0.50898103
H       -0.98852770       3.59954882       1.28117450       0.52873429       0.96942055      -0.06558273
H       -1.24390428       1.50806600       2.45340216      -0.03153389      -0.64418436      -0.55193268
H       -1.44546418       0.02454186       1.42665887       0.38615978       0.71800839       0.23797316
H        0.75581868      -0.76199710       3.16415989      -0.16755120      -1.46524788      -0.01987527
H       -1.19385449       1.38289964      -0.61882842       0.12674145      -0.07904751       0.63659542
