17
Properties=species:S:1:pos:R:3:forces:R:3 id=8355 bond=C-O smiles="[H:13][C:10]([H:14])([H:15])[O:6]/[C:8](=[C:9](/[C:12]([F:3])([F:4])[F:5])[O:7][C:11]([H:16])([H:17])[F:2])/[F:1]" dataset=PubChem energy=-22957.14845432273 pbc="F F F"
F       -0.62161601       1.80114695       1.96632429       1.35492973      -1.31303038       0.05716942
F        2.47604339      -1.40161102      -2.01284841       0.25121571      -0.30092295       0.77097172
F        0.06268826       2.00398943      -1.64003007      -0.69813004      -0.32486571       0.26013346
F       -1.24191249       0.23366770      -1.66904513       0.60914769       0.18935136       0.10828699
F       -1.70405352       1.81115827      -0.32011734       1.04100487       0.00105923      -0.11345586
O        1.19006598       0.28521719       2.41354330      -2.14703597       1.36743557      -1.52000518
O        1.25526803      -0.42795381      -0.26962445      -0.64176668       0.57627073      -1.36554404
C        0.26847410       0.87294080       1.51792689       1.05904876      -1.39927205      -2.15177194
C        0.27502184       0.50783946       0.16179736       0.81782113       0.07139187       2.41921439
C        1.01213043       0.72632986       3.75478513      -1.09490712       0.07714067       1.30298045
C        1.46955745      -0.55207972      -1.75518540      -1.11836191       0.46671530       1.04062967
C       -0.65119088       1.14614651      -0.84889297      -0.63311808       0.05056033       0.05713946
H        1.29350650       1.76803574       3.84972699       0.03311530       0.21141518      -0.01476086
H       -0.06690026       0.63141157       4.06891353       1.16067161       0.00291256      -0.27481864
H        1.63424301       0.15502795       4.47006901      -0.27000692      -0.00717804      -0.94264265
H        0.55897545      -0.94733553      -2.21296504       0.24563553       0.03273581       0.24152723
H        1.74097984       0.40799175      -2.16826084       0.00951512       0.30524898       0.13395852
