50
Properties=species:S:1:pos:R:3:forces:R:3 id=17773 bond=C-N smiles="[H:27][c:7]1[c:8]([c:10]([c:12]([c:11]([c:9]1[H:29])[H:31])[C:17]([H:41])([C:6]2=[C:5]([C:4](=[C:3]([O:1]2)[H:24])[H:25])[H:26])[C:19]([H:44])([H:45])[C:18]([H:42])([H:43])[N:13]([H:32])[C:22]3([C:20]([C:16]([O:2][C:23]([C:21]3([H:48])[H:49])([C:14]([H:33])([H:34])[H:35])[C:15]([H:36])([H:37])[H:38])([H:39])[H:40])([H:46])[H:47])[H:50])[H:30])[H:28]" dataset=PubChem energy=-26781.528534922047 pbc="F F F"
O       -1.75337129       1.25568100      -2.52529076      -0.26966025       0.66412096       0.52486959
O        0.67842140      -1.95136784       4.58307012       0.27631765       0.83534838      -0.13051496
C       -2.68652849       1.91411164      -3.28201440       0.94512662       1.46528314      -1.48355362
C       -2.07124310       2.88336900      -4.05096749      -0.30791138      -0.39940171       0.33104858
C       -0.66556125       2.84069398      -3.70742587      -1.13662858      -0.86567967       1.07485165
C       -0.55281799       1.89266136      -2.71134094      -0.50728131       0.97563451      -1.86945728
C        2.80257124       5.13780644      -0.74149660      -0.01133400       0.87326619       0.14485243
C        1.54137213       4.88580516      -0.20695690      -0.59359994      -0.58060943      -0.15107466
C        3.32106275       4.30382445      -1.71382693       0.25818826      -0.34990248       0.43471609
C        0.84279723       3.72106531      -0.57019666       0.05706155      -0.10339755       0.17528855
C        2.65149874       3.13749650      -2.04135874      -0.53734227      -0.39908046      -0.14304781
C        1.41947574       2.80643895      -1.46764354      -0.28735591       0.35004631      -0.76258293
N        1.47842941      -0.90943883       0.63328328      -1.00093516      -3.88353832       1.41915717
C        0.06569013      -4.15135048       4.08932813      -0.08109235       0.80307238      -0.04401560
C       -1.57206001      -2.26278971       3.75373491       0.21196572      -0.03863895       0.10312207
C        0.88821715      -0.54447768       4.30032166      -0.23955788      -0.89893954       0.54021006
C        0.66946616       1.53756383      -1.96101407       0.60691131       0.21721353       1.45728077
C        1.71406240       0.23809042      -0.05486385      -0.19398997       2.81525586      -0.10421223
C        0.43692272       0.61874965      -0.76035801      -1.44608615       0.98461938       0.09688903
C        1.62330875      -0.38218222       3.00601204       0.26769292       0.85642911       0.23736120
C        0.49579914      -2.47175549       2.20369919      -2.11176555       0.64708509      -0.19893115
C        0.75136054      -0.97826873       1.91416129       1.37739882      -0.74410382      -0.96204794
C       -0.10134252      -2.67458771       3.60008367      -0.03986970      -0.56441039       1.64203482
H       -3.75131588       1.72529092      -3.26395253       0.41937694      -0.66285292       0.48320981
H       -2.59268647       3.57355025      -4.74355153       0.55771153      -0.71388741       0.62528715
H        0.14809836       3.43105319      -4.07137278       0.05560827       0.25965135      -0.05412749
H        3.37596578       6.02511027      -0.43640337      -0.44939513      -0.42180140      -0.18029894
H        1.03709627       5.60097983       0.44427637       0.40026677      -0.23840285      -0.03202231
H        4.27982611       4.52351907      -2.15988043      -0.00393408       0.00735651      -0.04522327
H       -0.15296882       3.51801493      -0.13209108       0.71277591       0.18676747      -0.41252101
H        3.05391592       2.46163490      -2.78678087       0.08560366       0.08442392       0.03495892
H        2.26329312      -1.52427886       0.61630465       0.19508465      -0.39799186       0.40598612
H        1.13016979      -4.35395048       4.04163178       0.05712618      -0.33082527      -0.02122234
H       -0.25787874      -4.28468511       5.13467772       0.09473483       0.36227476      -0.44194096
H       -0.49916640      -4.86083506       3.48896178       0.09606569       0.06436070      -0.21972468
H       -2.15008989      -2.89868496       3.10782274      -0.46737435      -0.18878415      -0.27948081
H       -1.75880756      -1.23351250       3.47507509       0.01106803       0.17432917      -0.17380101
H       -1.94142141      -2.38140176       4.78611072       0.43952776      -0.10651753      -0.41294874
H       -0.07313087      -0.03691320       4.20153196      -0.11291401       0.05321992       0.18869499
H        1.40512315      -0.11866651       5.16453870      -0.04856606      -0.25988970      -0.14448104
H        1.32619477       0.98176965      -2.63252691       0.17556499       0.15463061      -0.01076214
H        2.07337899       1.02822533       0.65050572      -0.10086406       0.14357658      -0.88493558
H        2.46556944       0.06639209      -0.80568818       0.50932155      -0.01971468      -0.18106336
H       -0.04125409      -0.28816077      -1.11941210       0.07867763      -0.14747969       0.05905985
H       -0.29745173       1.06310251      -0.02568701       0.73792366      -0.25151618      -0.83204631
H        2.61619100      -0.87019990       3.03611477      -0.56148946       0.03341337      -0.03729002
H        1.81884191       0.70200287       2.83875664      -0.22377617      -0.66890633      -0.04569108
H       -0.21201887      -2.90765141       1.44445976       0.77285820       0.50805667       0.60721718
H        1.41147206      -2.98947380       2.14179917       1.13643864      -0.69741027      -0.04812885
H       -0.23009523      -0.50842057       1.87539299       0.19683120       0.41624993      -0.27975915
