22
Properties=species:S:1:pos:R:3:forces:R:3 id=14524 bond=C-N smiles="[H:16][C:5]([H:17])([H:18])[C:8]1([N:1]([N:2]1[C:7]([H:22])([C:3]([H:10])([H:11])[H:12])[C:4]([H:13])([H:14])[H:15])[H:9])[C:6]([H:19])([H:20])[H:21]" dataset=PubChem energy=-9431.369616873282 pbc="F F F"
N        1.96085328       1.91776100       1.03293919      -0.07722191       0.31793165       0.45954468
N        0.86262459       1.11793453       1.41799032      -1.21055842      -2.49874708      -1.91376524
C       -0.80006839      -1.58247553       0.56283348      -0.17764443       0.88299653       0.19240036
C        1.38091771      -2.07868444       1.53949439       0.74103094       0.62319590       0.51118154
C       -0.08449388       3.41538826       1.10592197       0.22395775       0.28094788       0.22096733
C        0.76403542       2.31686607      -1.07039291      -0.50292959      -0.45055330      -0.16864178
C        0.65975420      -1.16863607       0.56187203      -0.33786351      -0.22176761       1.01589235
C        0.62666248       2.23052577       0.45350613       1.86815854       0.28037883       0.69844878
H        2.52716035       1.42966283       0.33730548      -0.10144254       0.18239989       0.01601836
H       -1.28739991      -1.40987145       1.52897273       0.31029249       0.02403334      -0.05007060
H       -1.36900176      -1.02056347      -0.16259969      -0.21157984      -0.02871372      -0.32044599
H       -0.90079714      -2.66552340       0.36780301       0.20442431       0.43172105      -0.12304229
H        0.94019528      -1.97681175       2.57068955       0.62097750      -0.10425935      -1.02337855
H        1.22364096      -3.12771355       1.19725143       0.04506326       0.61248340       0.22565100
H        2.48567770      -1.90763472       1.54762685      -0.93685575      -0.07811668       0.23950421
H        0.53848105       4.31935492       1.05098265      -0.12763009      -0.23630173      -0.20391890
H       -1.04787022       3.63694683       0.64909336       0.06024165      -0.11145417      -0.25210450
H       -0.28901887       3.26743928       2.17281430       0.26045881      -0.32287716      -0.31982624
H        1.23861712       1.44695345      -1.54741317      -0.36332297      -0.02619647       0.43787605
H       -0.21229654       2.48594919      -1.51771886      -0.01697573      -0.08816757      -0.23292824
H        1.41270536       3.16275802      -1.37052995      -0.40497376      -0.18317951       0.57745040
H        1.09562389      -1.21978234      -0.43162216       0.13372924       0.71366768       0.01354042
