43
Properties=species:S:1:pos:R:3:forces:R:3 id=22838 bond=C-O smiles="[H:29][c:6]1[c:8]([c:14]([c:21]([c:15]([c:9]1[H:32])[H:38])[c:22]2[c:16]([c:12]([c:20]([c:13]([c:17]2[H:40])[H:36])/[C:4](=[C:5]3/[C:25]([c:23]4[c:18]([c:10]([c:7]([c:11]([c:19]4[O:2][C:24]3([H:42])[O:1][H:26])[H:34])[H:30])[H:33])[H:41])([H:43])[O:3][H:27])/[H:28])[H:35])[H:39])[H:37])[H:31]" dataset=PubChem energy=-29267.457703284228 pbc="F F F"
O       -1.84479649       0.53613494       2.49917145      -0.66236726       0.75432745       2.73808669
O       -2.89735449       0.06497223       0.62878638      -0.17250851      -0.83990515      -0.73583813
O       -0.71963156      -3.62288551       1.03491357      -0.32974809       0.24037399       0.09557199
C        0.60519331      -1.13441389       1.14041236      -4.45263261      -0.49952175      -0.17092824
C       -0.81935740      -1.15978270       1.19356081       4.45170196      -0.08940670      -0.08189231
C        5.63475596       5.73500890       0.28337282      -0.41215906      -0.05780641       0.06976096
C       -5.01641572      -2.30426340      -1.24982836       0.82145836       0.25679667       0.41756505
C        5.31379782       5.27230424       1.57369790      -0.38466722      -0.52321754      -1.06790746
C        5.15051066       5.06763619      -0.84716323      -0.38306384      -0.92859765       1.74806869
C       -4.37323726      -3.53723078      -1.03055397      -0.21701472       0.77115517       0.20601903
C       -4.50133384      -1.11776083      -0.68936708       0.02885880      -0.22099705      -0.19696096
C        2.50938319      -0.02092706       0.12849340       1.08361909       1.56055379      -0.69256154
C        1.31088101       1.12304801       1.88785157       0.03663489       0.70368868      -0.29800332
C        4.46058117       4.15552921       1.70720825       0.85794240       0.97827511      -0.50864056
C        4.38901674       3.89104003      -0.67810920       0.76524311       1.43837640       0.00329211
C        3.34888731       1.10057802      -0.05417379      -0.69921726       0.02300025       0.79541556
C        2.11240767       2.23151762       1.71958599       1.09100839       0.28254560      -0.12479196
C       -3.24814428      -3.58878403      -0.23071030       0.37556261       0.96824847       0.05698443
C       -3.33531225      -1.12746470       0.09910986      -0.26438927      -1.53378971      -0.53187189
C        1.49136244       0.02153529       1.06397930      -0.64519034      -0.50204504       0.18393748
C        4.00207507       3.45280427       0.58286122       0.24112627      -0.02279509       0.41747237
C        3.16031777       2.24172074       0.77199990      -0.32737140      -0.63140192      -0.62158925
C       -2.72058857      -2.39048700       0.31676713      -0.43355603      -0.55302809      -0.01239765
C       -1.60811651       0.13222030       1.25007984       0.58086637      -1.07682608      -2.11826931
C       -1.56944049      -2.48064475       1.27004644       1.30503986       0.39829063      -0.22695253
H       -2.66726000       0.09685520       2.74054666       0.09201382       0.21268558       0.44553583
H       -0.26099647      -3.88128834       1.85211596      -0.48637096       0.42704160      -0.49206234
H        1.09622126      -2.08522086       1.01776275      -0.10288993      -0.23962622       0.09478233
H        6.21201168       6.65099592       0.16994891      -0.01537520      -0.30116464       0.02784156
H       -5.88998854      -2.25598197      -1.89042416       0.07854220       0.03671667       0.17421147
H        5.75865876       5.78916997       2.41627058      -0.32877324      -0.18900454       0.08600133
H        5.34366451       5.41181535      -1.83175030       0.26777427       0.28331777      -0.60360081
H       -4.75047791      -4.45470838      -1.43788281      -0.23851256      -0.11504844      -0.25762975
H       -4.98215211      -0.15682023      -0.87999859       0.11448215      -0.34849820       0.06007144
H        2.60916101      -0.84039836      -0.56958702      -0.03825218      -0.20682727       0.26368247
H        0.49883190       1.18800074       2.59482274       0.03566516      -0.32456136       0.07882345
H        4.19031416       3.82402582       2.68701491      -0.08373964      -0.21242863       0.35618618
H        4.12310206       3.40970964      -1.58774009      -0.53715705      -0.61696310      -0.30380726
H        4.12704169       1.08627070      -0.82671884      -0.36384160       0.05427340       0.46616127
H        1.97201358       3.10377569       2.35772166      -0.02859098      -0.19136335      -0.27585199
H       -2.73249639      -4.54312592      -0.06062999      -0.23085619       0.67894456       0.06116497
H       -1.04073453       0.90573478       0.74704582       0.02266706       0.11728559      -0.19924487
H       -1.95008577      -2.58787470       2.26867005      -0.41382101       0.03644277       0.67144526
