45
Properties=species:S:1:pos:R:3:forces:R:3 id=4180 bond=C-C smiles="[H:32][c:11]1[c:9]([c:17]([c:10]([c:12]([c:18]1[C:23]([H:37])([c:19]2[c:13]([c:15]3[c:14]([c:8]([c:16]2[O:4][H:28])[H:29])[O:5][C:21]([O:6]3)([H:35])[H:36])[H:34])[N:20]4[C:26]([C:24]([O:7][C:25]([C:27]4([H:44])[H:45])([H:40])[H:41])([H:38])[H:39])([H:42])[H:43])[H:33])[H:31])[C:22]([F:1])([F:2])[F:3])[H:30]" dataset=PubChem energy=-37846.80869559122 pbc="F F F"
F       -4.89076664       1.25699055       2.68740969      -0.39761929       1.01485737      -0.78021192
F       -4.46905663       3.42204529       2.91461592      -0.37350316      -1.18867827      -1.20787496
F       -4.88748505       2.58976799       0.85649012       0.28231523      -0.41837443       1.94838507
O        3.31789119      -0.90622534      -0.51000680      -0.19027695      -0.04941794       0.44273970
O        1.88017316       0.08394547      -5.02542377      -0.60340291       0.32141569      -1.00718338
O        0.17789964       1.51060258      -4.28813721      -0.57742620       0.04406799      -0.67871157
O        2.31769690      -1.65918559       4.31685930      -0.30717448       0.24229562      -0.10202844
C        2.65357120      -0.47204562      -2.76282717       1.63185098      -1.48693502      -1.26986502
C       -2.49743655       0.82310218       1.27301389       1.22422457       0.20021687      -0.26515150
C       -1.80853322       2.86331731       2.39002495      -0.38488074       0.74657081       0.27326832
C       -1.12473359       0.52597255       1.03642458      -1.38036250       0.37172539       0.48676205
C       -0.45555618       2.57637137       2.18765229      -0.46378902      -0.67083690       0.17028637
C        0.67526386       1.17764430      -1.89833523      -0.93440329       1.14286233       0.49519718
C        1.88103897       0.17984028      -3.68509866      -0.71946245      -0.22459294       1.50812370
C        0.84560479       0.97991179      -3.24912096       1.18773410      -0.53208468       1.55735028
C        2.47036106      -0.29940553      -1.40254463      -0.10128658       0.75137905       1.90352256
C       -2.84350493       2.01648444       1.93119055       1.53665116      -0.23700359      -0.42132092
C       -0.12145593       1.39567787       1.50647181      -0.18749532      -0.01446925      -1.62644686
C        1.47830469       0.56099759      -0.93668629      -0.18362330       0.65064747       1.91266858
N        1.90363834       0.14260954       2.10930746       0.86743453       0.46726800      -0.72885890
C        0.74880103       0.88930498      -5.43541599      -0.10922076       0.39407245      -0.68934027
C       -4.29830887       2.32699615       2.08592885       0.37912275       0.65928968       0.46645943
C        1.31718693       1.14297730       1.14223402       0.08140835      -2.03831081      -0.57741530
C        2.09755609      -2.15365332       2.98826676       0.50975817       0.18430993       0.27244914
C        2.94705173      -0.38585549       4.33793312       0.35544421       0.30936817      -0.48239553
C        1.24831608      -1.19115942       2.17148584       0.28735890       1.10425045       0.78802744
C        2.21878573       0.67875218       3.48605376      -0.55425124      -0.56906288      -0.31695931
H        3.06398613      -0.64368726       0.40921858       0.19877820      -0.04663615      -0.97469650
H        3.42960365      -1.16447760      -3.14615442      -0.48111582       0.52662991       0.55717763
H       -3.26086404       0.15689442       0.85588859       0.30108076       0.34553659       0.35720085
H       -2.03002813       3.82710964       2.88977247      -0.15026599      -0.91110271      -0.34287104
H       -0.89898016      -0.39136583       0.47042763       0.12251332       0.78596120       0.32991867
H        0.33054531       3.22649676       2.62065822      -0.67118932      -0.41345317      -0.59219279
H       -0.07546585       1.91269014      -1.63720704      -0.11365333      -0.14419899       0.36168540
H       -0.01025604       0.32544117      -5.99097896       0.23537454      -0.42925620       0.47480036
H        1.07082541       1.68587576      -6.08468462       0.49401255       0.21503593      -0.26869103
H        1.87501738       2.07380897       1.19859421       0.25928191      -0.29415164      -0.22023476
H        1.62705753      -3.13018721       3.09075051      -0.27450058       0.20706678       0.10412610
H        3.06237003      -2.36230296       2.50979655       0.00666066       0.34540962      -0.07939654
H        3.98895595      -0.49375004       3.99169784      -0.26448999       0.03322978      -0.08808044
H        3.00283334      -0.00567323       5.37596541      -0.25261694      -0.49746718      -0.47143728
H        1.10186687      -1.54395956       1.16717768      -0.00888431      -0.20957734      -0.43367027
H        0.27935704      -1.09112281       2.65852182      -0.24381774      -0.16568416       0.01883594
H        1.30639991       0.97334185       4.03248673      -0.04429874      -0.23542977      -0.31728017
H        2.83438656       1.58511847       3.47078019       0.01753945      -0.28771549      -0.48138676
