45
Properties=species:S:1:pos:R:3:forces:R:3 id=4180 bond=C-C smiles="[H:32][c:11]1[c:9]([c:17]([c:10]([c:12]([c:18]1[C:23]([H:37])([c:19]2[c:13]([c:15]3[c:14]([c:8]([c:16]2[O:4][H:28])[H:29])[O:5][C:21]([O:6]3)([H:35])[H:36])[H:34])[N:20]4[C:26]([C:24]([O:7][C:25]([C:27]4([H:44])[H:45])([H:40])[H:41])([H:38])[H:39])([H:42])[H:43])[H:33])[H:31])[C:22]([F:1])([F:2])[F:3])[H:30]" dataset=PubChem energy=-37845.37468474883 pbc="F F F"
F       -4.85391524       1.12387817       2.21191196      -0.40241976       1.01154525      -0.77425676
F       -4.43220523       3.28893291       2.43911819      -0.37436853      -1.19013490      -1.21483796
F       -4.85063365       2.45665561       0.38099239       0.27013255      -0.41464049       1.94527125
O        3.28103979      -0.77311296      -0.03450907       1.37764234      -0.86350064      -3.32639786
O        1.84332176       0.21705785      -4.54992604      -0.65766415       0.33744303      -1.08888993
O        0.14104824       1.64371496      -3.81263948      -0.54374413       0.00394715      -0.66651066
O        2.35454830      -1.79229797       3.84136157      -0.32880677       0.25453407      -0.05368402
C        2.61671980      -0.33893324      -2.28732944       1.57794435      -1.52571862      -1.53810271
C       -2.46058515       0.68998980       0.79751616       1.34458540       0.14526776      -0.30549905
C       -1.77168182       2.73020493       1.91452722      -0.51303517       0.81585281       0.23188597
C       -1.08788219       0.39286017       0.56092685      -1.43002333       0.26759425       0.74501758
C       -0.41870478       2.44325899       1.71215456      -0.55838575      -0.94856842       0.18185593
C        0.63841246       1.31075668      -1.42283750      -0.79652947       0.99762938      -1.99608849
C        1.84418757       0.31295266      -3.20960093      -0.49831897      -0.39461474       1.52404792
C        0.80875339       1.11302417      -2.77362323       1.05266944      -0.26314224       1.76445178
C        2.43350966      -0.16629315      -0.92704690       0.78030382      -0.08500448       0.81258430
C       -2.80665353       1.88337206       1.45569282       1.54258241      -0.12842178      -0.38421212
C       -0.08460453       1.26256549       1.03097408      -1.10045077       0.91442456       0.99420880
C        1.44145329       0.69410997      -0.46118856       2.32657401      -6.88945161     -22.66847056
N        1.94048974       0.00949716       1.63380973       0.00955187       1.02740061       3.14290766
C        0.71194963       1.02241736      -4.95991826      -0.07617690       0.37506969      -0.70041418
C       -4.26145747       2.19388377       1.61043112       0.40328313       0.66255414       0.47213496
C        1.35403833       1.00986492       0.66673629      -2.23610962       4.98283979      21.78872896
C        2.13440749      -2.28676570       2.51276903       0.59988767       0.18603111       0.26672775
C        2.98390313      -0.51896787       3.86243539       0.32084799       0.31644044      -0.45149216
C        1.28516748      -1.32427180       1.69598811      -0.28020331       0.81532651       0.93810432
C        2.25563713       0.54563980       3.01055603      -0.85546378      -0.66594975      -0.07257239
H        3.02713473      -0.51057488       0.88471631      -0.17313652       0.62139216      -0.09569073
H        3.39275225      -1.03136522      -2.67065669      -0.49391530       0.54689658       0.54644862
H       -3.22401264       0.02378204       0.38039086       0.30851484       0.33551750       0.36785571
H       -1.99317673       3.69399726       2.41427474      -0.17049057      -0.90113310      -0.35316548
H       -0.86212876      -0.52447821      -0.00507010       0.05828303       0.76321189       0.35870238
H        0.36739671       3.09338438       2.14516049      -0.65934065      -0.44053353      -0.59624445
H       -0.11231725       2.04580252      -1.16170931       0.07039459      -0.21204506       0.18664042
H       -0.04710744       0.45855355      -5.51548123       0.23172228      -0.42496539       0.47382688
H        1.03397401       1.81898814      -5.60918689       0.49098289       0.21659782      -0.27115660
H        1.91186878       1.94069659       0.72309648       0.31889889       0.51557987       1.52481081
H        1.66390893      -3.26329959       2.61525278      -0.27976024       0.22462074       0.08190722
H        3.09922143      -2.49541534       2.03429882      -0.02896993       0.33493725      -0.07214467
H        4.02580735      -0.62686242       3.51620011      -0.23848789       0.02068216      -0.08110175
H        3.03968474      -0.13878561       4.90046768      -0.23258163      -0.50191435      -0.48171693
H        1.13871827      -1.67707194       0.69167995       0.00290185      -0.20833658      -0.32610770
H        0.31620844      -1.22423519       2.18302409      -0.15480432      -0.10833324       0.02175775
H        1.34325131       0.84022947       3.55698900      -0.00010807      -0.22407010      -0.31653813
H        2.87123796       1.45200609       2.99528246       0.00398407      -0.29917374      -0.52820387
