13
Properties=species:S:1:pos:R:3:forces:R:3 id=20809 bond=C-S smiles="[H:12][C:5]([H:13])([C:3]([H:8])([H:9])[S:1][H:6])[C:4]([H:10])([H:11])[S:2][H:7]" dataset="DES370K Monomers" energy=-24914.635909725148 pbc="F F F"
S        1.57844660       1.83652004       2.24532954      -2.12434733      -0.08743760      -1.03136087
S       -0.77686539      -1.68588431      -1.67619781      -0.00369936       0.29483017      -0.08485881
C       -0.92427913       1.58904616       0.84286650      -0.38902876      -0.09884706      -0.39925568
C       -0.69670022      -0.64731028      -0.14846846      -1.32220825      -0.03204253      -0.95458237
C       -0.80293834       0.82082240      -0.46172362       1.64424078       0.20538388       0.77996145
H        1.26151249       2.67534359       3.26704804      -0.20211634      -0.29111612      -0.48192531
H       -0.21665241      -0.83701344      -2.60129515      -0.28037309      -0.31108018       0.88707185
H       -1.60569737       1.08888368       1.54079493       0.91733748       0.13095321       0.37046241
H       -1.30340895       2.57299606       0.62856587       0.74416086       0.76020455       0.55664763
H        0.23106894      -0.80823275       0.32660755       0.82834298      -0.41868207       0.73941206
H       -1.55148456      -0.88476415       0.52935823       0.76694318      -0.40237935      -0.70677836
H       -1.64908692       1.03643719      -1.11951689      -0.14653606       0.18329019       0.25834616
H        0.10931006       1.13054887      -0.99963305      -0.43285879       0.07119974       0.06743877
