25
Properties=species:S:1:pos:R:3:forces:R:3 id=12544 bond=N-P smiles="[H:14][C:5]1([C:6]([N:1]1[P:3]([C:9]([H:22])([H:23])[C:10]([H:24])([H:25])[C:4]([H:11])([H:12])[H:13])[N:2]2[C:7]([C:8]2([H:20])[H:21])([H:18])[H:19])([H:16])[H:17])[H:15]" dataset=PubChem energy=-19772.815223668476 pbc="F F F"
N       -1.37111603       0.04242988      -0.23720600       3.20900736       0.60717646      -0.21601740
N        0.50803172       0.73804755       2.88707143      -0.50069907       0.89480745       0.00491852
P        0.49622327       0.36885482       1.14551342      -2.13860386      -2.14458258      -0.73214400
C        3.42438367       0.39589992      -1.97079652      -0.86112553      -2.56086425       0.64250405
C       -2.10064004      -1.14656211       0.12137996      -0.69737220       0.71918037       2.84181188
C       -2.72661970       0.28670352       0.11474819      -0.64357016      -1.88183237      -0.23919995
C        1.50550911       1.66877287       3.39161569      -2.02083740       2.67970223       0.28287743
C       -0.06318387       1.99424999       3.46842938       1.13065748      -1.27543314       1.73776190
C        2.15197041       0.21386182       0.29383525       1.37066870       3.07860335       1.29219017
C        2.08876994       0.35074193      -1.16669494       0.46127622       4.12240318      -1.75636067
H        4.15267804       0.95337110      -1.47182125       1.05274871       1.08317216       0.92450930
H        3.39932301       0.75429816      -2.99743384      -0.57987565      -0.13761439       0.08402454
H        3.79835084      -0.65110869      -1.94897074       0.09024831       0.59302221      -0.42631490
H       -2.34073160      -1.82261396      -0.71610154       0.26518967       0.36222587       0.60665662
H       -1.95638250      -1.58946420       1.17988502      -0.08094705       0.60920519      -2.15445024
H       -3.47823380       0.35837993      -0.68116273       0.73053696       0.80180863      -0.14195834
H       -2.96750353       0.87318416       0.97377543      -0.08263464      -0.29484477       0.73687153
H        2.09679272       1.40148258       4.30549365      -0.85798689       0.11400206      -1.07225523
H        1.89006773       2.50408250       2.76366669       0.33031980      -1.27578728       0.08448258
H       -0.59549746       1.96601253       4.46004968       0.88433219      -0.95667535      -0.93848842
H       -0.64872977       2.71172147       2.90675312       1.03185238       0.12193437      -0.92517887
H        2.89927295       0.98581558       0.73207715      -1.32336665      -1.01529040      -0.60275336
H        2.58085683      -0.70857400       0.46012357       0.52287262      -2.19562681       1.14341326
H        1.61442896       1.33526659      -1.33219641       0.01352705      -0.29039629      -0.18194809
H        1.41281345      -0.31116718      -1.57075637      -1.30588692      -1.75923533      -0.99296238
