25
Properties=species:S:1:pos:R:3:forces:R:3 id=12544 bond=N-P smiles="[H:14][C:5]1([C:6]([N:1]1[P:3]([C:9]([H:22])([H:23])[C:10]([H:24])([H:25])[C:4]([H:11])([H:12])[H:13])[N:2]2[C:7]([C:8]2([H:20])[H:21])([H:18])[H:19])([H:16])[H:17])[H:15]" dataset=PubChem energy=-19773.27320054089 pbc="F F F"
N       -1.31745686       0.05180991      -0.19747268       3.79705547       0.36516122       0.32116980
N        0.45437255       0.72866752       2.84733811      -0.66550571       0.59814230       0.18976461
P        0.44256410       0.35947479       1.10578010      -2.16998480      -0.95314026      -1.17031856
C        3.37072450       0.38651989      -2.01052984      -0.85846419      -2.56554355       0.65470842
C       -2.04698087      -1.13718208       0.16111328      -0.87260009       0.53959113       2.68975712
C       -2.67296053       0.29608355       0.15448151      -0.66410351      -1.80061491      -0.16470120
C        1.45184994       1.65939284       3.35188237      -2.04953740       2.55984660       0.21628753
C       -0.11684304       1.98486996       3.42869606       1.12988803      -1.32144350       1.64131923
C        2.09831124       0.20448179       0.25410193       1.26111884       2.65809292       1.30775639
C        2.03511077       0.34136190      -1.20642826       0.43860188       4.12883626      -1.75862285
H        4.09901887       0.94399107      -1.51155457       1.05682110       1.08424492       0.92372824
H        3.34566384       0.74491813      -3.03716716      -0.58153745      -0.13545556       0.08688199
H        3.74469167      -0.66048872      -1.98870406       0.09178202       0.59431022      -0.42669381
H       -2.28707243      -1.81323393      -0.67636822       0.19798394       0.36617921       0.61889606
H       -1.90272333      -1.58008417       1.21961834      -0.10139469       0.60895869      -2.19234490
H       -3.42457463       0.36775996      -0.64142941       0.76586268       0.76875627      -0.14055241
H       -2.91384436       0.88256419       1.01350875      -0.08560843      -0.28728002       0.71996521
H        2.04313355       1.39210255       4.26576033      -0.84452319       0.10962260      -1.08264546
H        1.83640856       2.49470247       2.72393337       0.32015259      -1.26320445       0.06984557
H       -0.64915663       1.95663250       4.42031636       0.88368961      -0.95947891      -0.93474051
H       -0.70238894       2.70234144       2.86701980       1.03947531       0.13793496      -0.93571070
H        2.84561378       0.97643555       0.69234383      -1.41077968      -1.01733382      -0.55918581
H        2.52719766      -0.71795403       0.42039025       0.61801643      -2.16620465       1.08888942
H        1.56076979       1.32588656      -1.37192973       0.00476363      -0.29502205      -0.17114706
H        1.35915428      -0.32054721      -1.61048969      -1.30140807      -1.75438501      -0.99351699
