25
Properties=species:S:1:pos:R:3:forces:R:3 id=12544 bond=N-P smiles="[H:14][C:5]1([C:6]([N:1]1[P:3]([C:9]([H:22])([H:23])[C:10]([H:24])([H:25])[C:4]([H:11])([H:12])[H:13])[N:2]2[C:7]([C:8]2([H:20])[H:21])([H:18])[H:19])([H:16])[H:17])[H:15]" dataset=PubChem energy=-19752.4093322484 pbc="F F F"
N       -0.85598795       0.13247814       0.14423384     -94.19912439     -18.10520305     -64.96024085
N       -0.00709636       0.64799929       2.50563159      -0.23712941      -0.26088872       0.01137229
P       -0.01890481       0.27880656       0.76407358     102.52435234      23.57942871      67.33728527
C        2.90925559       0.30585166      -2.35223636      -0.90065377      -2.56197294       0.60368314
C       -1.58551196      -1.05651385       0.50281980      -6.04781389      -3.18201573       0.78772710
C       -2.21149162       0.37675178       0.49618803      -3.33618474      -2.15300152      -2.96138426
C        0.99038103       1.57872461       3.01017585      -2.22881825       1.94664349       0.35332121
C       -0.57831195       1.90420173       3.08698954       1.09327181      -1.43286800       1.62298486
C        1.63684233       0.12381356      -0.08760459       1.41385536       2.39355153       2.75050144
C        1.57364186       0.26069367      -1.54813478       0.36917516       4.07344576      -1.52440040
H        3.63754996       0.86332284      -1.85326109       1.02492289       1.07435822       0.93501936
H        2.88419493       0.66424990      -3.37887368      -0.56753871      -0.13309716       0.06795289
H        3.28322276      -0.74115695      -2.33041058       0.09321617       0.59196269      -0.41740163
H       -1.82560352      -1.73256570      -0.33466170      -0.23265997       0.26246326       0.69156421
H       -1.44125442      -1.49941594       1.56132486       0.39475811       0.83076845      -2.03453888
H       -2.96310572       0.44842819      -0.29972289       0.44293881       0.41970652       0.15342112
H       -2.45237545       0.96323242       1.35521527       0.49146380      -0.05308797       0.59821545
H        1.58166464       1.31143432       3.92405381      -0.86021837       0.19615722      -1.03086958
H        1.37493965       2.41403424       2.38222685       0.29341965      -1.31205783      -0.07718709
H       -1.11062554       1.87596427       4.07860984       0.87658311      -0.92629444      -0.89125674
H       -1.16385785       2.62167321       2.52531328       1.03117593       0.22733507      -0.98921609
H        2.38414487       0.89576732       0.35063731      -1.18863129      -1.23077667      -0.64035334
H        2.06572875      -0.79862226       0.07868373       1.08130058      -2.21631812       0.83309759
H        1.09930088       1.24521833      -1.71363625      -0.02753745      -0.21668647      -0.14365453
H        0.89768537      -0.40121544      -1.95219621      -1.30942455      -1.81546176      -1.07944838
