28
Properties=species:S:1:pos:R:3:forces:R:3 id=325 bond=C-N smiles="[H:26][c:14]1[c:19]([c:15]([c:17]([c:18]([c:16]1[Cl:5])[N:21]2[C:13](=[C:11]3[C:12](=[C:8]([C:9](=[C:10]3[O:7][H:23])[F:1])[H:24])[N:20]2[H:28])[H:25])[Cl:6])[H:27])[C:22]([F:2])([F:3])[F:4]" dataset=PubChem energy=-54536.168893053225 pbc="F F F"
F        1.22662518       6.70274319      -1.06088575      -0.04572172      -0.22135145      -0.48352363
F       -0.50178836      -5.40735636       0.84796263       0.30048543       0.55577402      -0.04250967
F        0.81342278      -5.20187531       2.53095163       0.42919094       0.05582721       0.38795453
F       -1.29265331      -4.74049721       2.71926308       0.59788140       0.71255509      -0.07579164
Cl       1.76246883      -1.20731519      -1.62882470      -0.70670805      -0.03001425       1.17715770
Cl      -1.03672694       0.32345341       2.89173199       0.17195335       0.27596429       0.00308897
O        2.20805374       5.42418303       1.35319105       0.40553954       0.20890481      -0.52224434
C        0.23459986       4.41170897      -1.62281104       0.52976730       0.58009767      -0.96417602
C        1.09097865       5.37600769      -0.84949394      -1.16873502      -1.54476956       1.06198414
C        1.52491644       4.79842581       0.32843696      -0.43872720      -0.01987278      -1.70033887
C        1.06653872       3.41443767       0.21096463       2.20052453       0.27672529       3.92915273
C        0.33134032       3.22470798      -0.94569083      -0.67396358      -0.51383530      -0.97333086
C        1.16536602       2.23628440       0.92978800      -0.77211332       0.06738039      -1.37173597
C        0.77698551      -2.85745058       0.29981423      -0.54232709      -0.58622428       0.79474553
C       -0.34147333      -2.15927897       2.31103921      -0.26536802      -1.60893216       0.63729259
C        0.90510724      -1.53739808      -0.10716813       0.03655437       1.05573706      -0.16276855
C       -0.25075881      -0.84975050       1.90583540      -0.27088339       1.35241749      -0.31811224
C        0.33825212      -0.50912163       0.69616174       0.95465737       2.99812685      -2.00398352
C        0.10749571      -3.19111023       1.49277795      -0.21512370       1.18017389       0.01033442
N       -0.03574183       1.86272266      -0.98220595      -0.56276795       0.21990702       0.01949106
N        0.51438947       1.25730111       0.18023274       0.66613464      -3.49996253       1.58982212
C       -0.20788341      -4.61683426       1.91545773      -0.56677834      -0.96560212      -0.75283243
H        2.70934775       6.16889729       0.95312128      -0.64288555      -0.82752215       0.46278776
H       -0.19417539       4.53162923      -2.61600347       0.20808676       0.30620101       0.42255696
H        1.63297525       2.10741820       1.90829733      -0.40216403      -0.46817536      -0.58343448
H        1.17740859      -3.67522059      -0.26386493       0.15721253       0.03221668      -0.53279625
H       -0.80394136      -2.42307959       3.28200698       0.20831760       0.47656518      -0.86520828
H       -0.10416755       1.35333040      -1.86312386       0.40345177      -0.06873508       0.86842225
