28
Properties=species:S:1:pos:R:3:forces:R:3 id=325 bond=C-N smiles="[H:26][c:14]1[c:19]([c:15]([c:17]([c:18]([c:16]1[Cl:5])[N:21]2[C:13](=[C:11]3[C:12](=[C:8]([C:9](=[C:10]3[O:7][H:23])[F:1])[H:24])[N:20]2[H:28])[H:25])[Cl:6])[H:27])[C:22]([F:2])([F:3])[F:4]" dataset=PubChem energy=-54533.22841842454 pbc="F F F"
F        1.26800684       7.11774613      -1.18209798      -0.14978987      -0.31499995      -0.50238270
F       -0.54317002      -5.82235930       0.96917486       0.27146465       0.41379120      -0.07452256
F        0.77204112      -5.61687825       2.65216386       0.47468155      -0.09927803       0.45920839
F       -1.33403497      -5.15550015       2.84047531       0.53068862       0.61036708      -0.01210253
Cl       1.72108717      -1.62231813      -1.50761247      -0.47183253       0.02111469       0.74835797
Cl      -1.07810860      -0.09154953       3.01294422      -0.05866086       0.57237371       0.28701367
O        2.24943540       5.83918597       1.23197882       0.04920956      -0.34002433      -1.13915986
C        0.27598152       4.82671191      -1.74402327       0.85061296       0.33029256      -0.76896783
C        1.13236031       5.79101063      -0.97070617      -0.50317071      -0.75697709       1.35580092
C        1.56629810       5.21342875       0.20722473      -0.01177188       1.27180346      -1.68583548
C        1.10792038       3.82944061       0.08975240       1.46023442      -0.23434771       3.14843458
C        0.37272198       3.63971092      -1.06690306      -0.90749984      -0.35285962      -0.26084476
C        1.20674768       2.65128734       0.80857577      -1.87362180       0.36468156      -1.59673462
C        0.73560385      -3.27245352       0.42102646      -0.45175132      -0.72115377       0.69920871
C       -0.38285499      -2.57428191       2.43225144      -0.39146396      -1.59568826       0.88067575
C        0.86372558      -1.95240102       0.01404410      -0.49615178       1.37120627       0.76577903
C       -0.29214047      -1.26475344       2.02704763       0.32897038       0.76363811      -1.22097231
C        0.29687046      -0.92412457       0.81737397       0.23361343      -1.40660726      -0.25544106
C        0.06611405      -3.60611317       1.61399018      -0.21638248       1.05591932       0.03145059
N        0.00563983       2.27772560      -1.10341818       1.14584744       0.35764568       2.64295068
N        0.55577113       1.67230405       0.05902051       1.25679812      -0.00471593      -2.50383170
C       -0.24926507      -5.03183720       2.03666996      -0.48986994      -0.50428318      -0.87799047
H        2.75072941       6.58390023       0.83190905      -0.65976640      -0.67168877       0.46026165
H       -0.15279373       4.94663217      -2.73721570       0.06455527       0.37298458       0.44702830
H        1.67435691       2.52242114       1.78708510      -0.43379196      -0.53678069      -0.58146628
H        1.13602693      -4.09022353      -0.14265270       0.15880406      -0.04815684      -0.54206457
H       -0.84532302      -2.83808253       3.40321921       0.19790143       0.39931868      -0.81647678
H       -0.06278589       1.76833334      -1.98433609       0.08947664      -0.31968743       0.92379585
