32
Properties=species:S:1:pos:R:3:forces:R:3 id=25855 bond=C-S smiles="[H:25][C:7]1([C:6]([C:10]([C:9]([C:8]([C:12]1([H:32])[C:11]([H:31])([C:4]([H:18])([H:19])[H:20])[C:5]([H:21])([H:22])[S:1][H:13])([H:27])[H:28])([H:29])[S:2][H:14])([H:30])[C:3]([H:15])([H:16])[H:17])([H:23])[H:24])[H:26]" dataset=PubChem energy=-32376.891354924694 pbc="F F F"
S        2.50432102       2.12308987      -3.30410579      -0.12857613       0.55483935       0.44615588
S       -1.89391267       1.65309842       3.27290423       2.21434548      -0.87216999      -2.10021126
C       -1.15300603      -1.63073317       2.07850239       0.91246002      -0.60425226      -0.65020511
C        2.40118234       2.65920600      -0.10455924      -0.27826965      -0.25500276       0.32843951
C        2.56417326       0.94832405      -1.90170195      -0.38263135       1.24799150       0.36268041
C       -0.39624568      -1.00568477      -0.30531355       0.14423011      -0.07277968      -0.48168199
C        1.10268722      -1.06918588      -0.06556600       0.13166057      -0.03380573       0.72657329
C        0.85268763       0.74564892       1.67655227      -1.13955451       0.40529756      -0.04917372
C       -0.67555018       0.78660875       1.37844751       0.46568469      -0.04882988       0.32930118
C       -1.17215355      -0.60565320       0.94962356      -0.60576328       0.54822440       0.65437918
C        1.74285822       1.39089116      -0.68487534       0.66660609       0.32785811       0.43960013
C        1.65714608       0.28919260       0.40822597      -0.19883987      -0.16507396       0.16128628
H        2.54271928       3.28222712      -2.56623366      -0.00410871      -0.86039921      -0.71769908
H       -3.09906399       1.32460679       2.84729297      -0.40273275      -0.21465767      -0.37494963
H       -0.18607195      -1.64065638       2.60022470      -0.47478095      -0.11661509      -0.02023126
H       -1.93579491      -1.36279110       2.73419950      -0.54425514       0.29490421       1.08485476
H       -1.38702686      -2.65812078       1.74481508       0.29169217       0.50712758      -0.14612940
H        1.67923622       3.20489487       0.48439537      -0.08005291       0.32471300       0.11011876
H        2.79611795       3.32157120      -0.86885789      -0.13061374       0.01005345       0.15074344
H        3.23250095       2.42146596       0.55612308       0.06761662      -0.20257352       0.00207909
H        2.16382782       0.05514037      -2.27606991      -0.41030631      -1.22786563      -0.71739536
H        3.59216134       0.78924152      -1.64296463       0.49386055      -0.12690340       0.29376656
H       -0.65058728      -0.33614943      -1.12850263       0.15848800       0.23229958       0.06748824
H       -0.72538872      -1.97302976      -0.65748671      -0.28448946      -0.36522727       0.13162289
H        1.66074644      -1.45932523      -0.91857698      -0.20811716       0.15862829      -0.04623687
H        1.27334575      -1.81537977       0.74125490      -0.00332842       0.48937699      -0.39284499
H        1.03264264       0.08138778       2.51324794       0.14964710      -0.19406440      -0.03576828
H        1.15095623       1.73145291       2.00150785       0.25393175       0.17229469       0.00814265
H       -0.82601138       1.49858805       0.54365778      -0.51080279      -0.05829740       0.97640221
H       -2.21758230      -0.49012086       0.69769010      -0.26458714       0.01185161      -0.39725502
H        0.73798089       1.65310689      -0.99721863      -0.09581644      -0.02393991      -0.29937525
H        2.67632787       0.09665426       0.73389962       0.19738231       0.15522723       0.15755526
