32
Properties=species:S:1:pos:R:3:forces:R:3 id=25855 bond=C-S smiles="[H:25][C:7]1([C:6]([C:10]([C:9]([C:8]([C:12]1([H:32])[C:11]([H:31])([C:4]([H:18])([H:19])[H:20])[C:5]([H:21])([H:22])[S:1][H:13])([H:27])[H:28])([H:29])[S:2][H:14])([H:30])[C:3]([H:15])([H:16])[H:17])([H:23])[H:24])[H:26]" dataset=PubChem energy=-32362.621657191197 pbc="F F F"
S        2.18588537       2.34955876      -2.80896369      -0.12414606       0.55672067       0.44669187
S       -1.57547702       1.42662953       2.77776213     -40.28373778      29.30934746      64.88585485
C       -1.47144168      -1.40426428       2.57364449       0.83636615      -0.50441242      -0.59437000
C        2.08274669       2.88567489       0.39058286      -0.27194274      -0.27728888       0.32527439
C        2.24573761       1.17479294      -1.40655985      -0.35629563       1.24411119       0.37180023
C       -0.71468133      -0.77921588       0.18982855      -0.22520990      -0.56770910      -0.44427900
C        0.78425157      -0.84271699       0.42957610       0.09335184      -0.00427167       0.76464012
C        0.53425198       0.97211781       2.17169437       0.99011422      -0.35177295      -2.01885424
C       -0.99398583       1.01307764       1.87358961      38.97913499     -26.87586968     -60.01050083
C       -1.49058920      -0.37918431       1.44476566       1.56210699      -1.96143283      -2.39075787
C        1.42442257       1.61736005      -0.18973324       0.67778506       0.32475631       0.40829046
C        1.33871043       0.51566149       0.90336807      -0.09269337      -0.05630110       0.34222625
H        2.22428363       3.50869601      -2.07109156      -0.00575533      -0.85951703      -0.71872009
H       -2.78062834       1.09813790       2.35215087      -1.87531805       0.62898394       0.75026425
H       -0.50450760      -1.41418749       3.09536680      -0.48044420      -0.10325679      -0.01413237
H       -2.25423056      -1.13632221       3.22934160      -0.52435069       0.15559709       1.13104297
H       -1.70546251      -2.43165189       2.23995718       0.27275645       0.59132343      -0.21871292
H        1.36080057       3.43136376       0.97953747      -0.09285678       0.33239529       0.11133730
H        2.47768230       3.54804009      -0.37371579      -0.13014368       0.01650330       0.15698290
H        2.91406530       2.64793485       1.05126518       0.07914990      -0.19711207       0.00483006
H        1.84539217       0.28160926      -1.78092781      -0.41492003      -1.22507853      -0.71356707
H        3.27372569       1.01571041      -1.14782253       0.50135970      -0.12880304       0.28296765
H       -0.96902293      -0.10968054      -0.63336053       0.14732065       0.24912047       0.11324061
H       -1.04382437      -1.74656087      -0.16234461      -0.17415201      -0.40972964      -0.00176454
H        1.34231079      -1.23285634      -0.42343488      -0.20484655       0.17441936      -0.03619272
H        0.95491010      -1.58891088       1.23639700       0.00695934       0.47512658      -0.38301082
H        0.71420699       0.30785667       3.00839004      -0.13819278      -0.18941066       0.04135084
H        0.83252058       1.95792180       2.49664995       0.06170867       0.25770674       0.03904786
H       -1.14444703       1.72505694       1.03879988       1.30799712      -0.99275231      -2.17363499
H       -2.53601795      -0.26365197       1.19283220      -0.25383155       0.31723719      -0.33460298
H        0.41954524       1.87957578      -0.50207653      -0.09002792      -0.05702776      -0.24879960
H        2.35789222       0.32312315       1.22904172       0.22539089       0.12230859       0.12732364
