32
Properties=species:S:1:pos:R:3:forces:R:3 id=25855 bond=C-S smiles="[H:25][C:7]1([C:6]([C:10]([C:9]([C:8]([C:12]1([H:32])[C:11]([H:31])([C:4]([H:18])([H:19])[H:20])[C:5]([H:21])([H:22])[S:1][H:13])([H:27])[H:28])([H:29])[S:2][H:14])([H:30])[C:3]([H:15])([H:16])[H:17])([H:23])[H:24])[H:26]" dataset=PubChem energy=-32324.256824330496 pbc="F F F"
S        2.12358274       2.39386789      -2.71208806      -0.12324066       0.55475693       0.45552283
S       -1.51317439       1.38232040       2.68088650    -126.78550172      90.64572721     200.11807829
C       -1.53374431      -1.35995515       2.67052012       0.87086795      -0.26176887      -0.49990793
C        2.02044406       2.92998402       0.48745849      -0.27058950      -0.29425189       0.33151307
C        2.18343498       1.21910207      -1.30968422      -0.32248858       1.23636384       0.37962146
C       -0.77698396      -0.73490675       0.28670418      -0.26403821      -0.73503490      -0.53895219
C        0.72194894      -0.79840786       0.52645173       0.08303774      -0.03191165       0.79118666
C        0.47194935       1.01642694       2.26857000       2.53173864      -0.71221241      -2.99305462
C       -1.05628846       1.05738677       1.97046524     124.25366906     -86.68911539    -190.31599131
C       -1.55289183      -0.33487518       1.54164129       2.45911295      -4.34194666      -4.43386180
C        1.36211994       1.66166918      -0.09285761       0.71211022       0.35170626       0.34509792
C        1.27640780       0.55997062       1.00024370      -0.12082130      -0.02074195       0.24522976
H        2.16198100       3.55300514      -1.97421593      -0.00795990      -0.85958803      -0.72067314
H       -2.71832571       1.05382877       2.25527524      -3.47731193       1.37942761       1.46229093
H       -0.56681023      -1.36987836       3.19224243      -0.48506128      -0.09641448      -0.00710203
H       -2.31653319      -1.09201308       3.32621723      -0.53167882       0.17105033       1.15542427
H       -1.76776514      -2.38734276       2.33683281       0.26074928       0.64892697      -0.28496555
H        1.29849794       3.47567289       1.07641310      -0.10420110       0.34069192       0.10873473
H        2.41537967       3.59234922      -0.27684016      -0.13288426       0.01389929       0.16504303
H        2.85176267       2.69224398       1.14814081       0.09340147      -0.19021326       0.00606707
H        1.78308954       0.32591839      -1.68405218      -0.41707853      -1.22290902      -0.71377193
H        3.21142306       1.06001954      -1.05094690       0.51179376      -0.13331229       0.27359954
H       -1.03132556      -0.06537141      -0.53648490       0.14447604       0.24477827       0.14224035
H       -1.10612700      -1.70225174      -0.06546898      -0.15028710      -0.42618030      -0.04988476
H        1.28000816      -1.18854721      -0.32655925      -0.20220373       0.19101734      -0.02562433
H        0.89260747      -1.54460175       1.33327263       0.01218375       0.46572516      -0.37771224
H        0.65190436       0.35216580       3.10526567      -0.44613719      -0.19319809       0.03092235
H        0.77021795       2.00223093       2.59352558      -0.22146029       0.29985885       0.00680542
H       -1.20674966       1.76936607       1.13567551       2.07111060      -0.88998559      -4.72949245
H       -2.59832058      -0.21934284       1.28970783      -0.07738969       0.52384167      -0.29503629
H        0.35724261       1.92388491      -0.40520090      -0.09356891      -0.08232529      -0.20232984
H        2.29558959       0.36743228       1.32591735       0.22529744       0.11462311       0.17676717
