32
Properties=species:S:1:pos:R:3:forces:R:3 id=25855 bond=C-S smiles="[H:25][C:7]1([C:6]([C:10]([C:9]([C:8]([C:12]1([H:32])[C:11]([H:31])([C:4]([H:18])([H:19])[H:20])[C:5]([H:21])([H:22])[S:1][H:13])([H:27])[H:28])([H:29])[S:2][H:14])([H:30])[C:3]([H:15])([H:16])[H:17])([H:23])[H:24])[H:26]" dataset=PubChem energy=-32375.07656129178 pbc="F F F"
S        2.66353885       2.00985542      -3.55167684      -0.13415764       0.55077688       0.45390643
S       -2.05313050       1.76633287       3.52047528       1.72282924      -0.63701868      -1.48043100
C       -0.99378820      -1.74396762       1.83093134       0.93779142      -0.62106433      -0.62185904
C        2.56040017       2.54597155      -0.35213029      -0.28132820      -0.25135242       0.33784994
C        2.72339109       0.83508960      -2.14927300      -0.37882734       1.24457460       0.36045449
C       -0.23702785      -1.11891922      -0.55288460       0.36106254       0.10225711      -0.62937231
C        1.26190505      -1.18242033      -0.31313705       0.11202730      -0.03391469       0.77375617
C        1.01190546       0.63241447       1.42898122      -1.43800717       0.55645282       0.44542376
C       -0.51633235       0.67337430       1.13087646       1.76831332      -0.97880999      -1.25096934
C       -1.01293572      -0.71888765       0.70205251      -0.99253029       0.69030383       1.20304094
C        1.90207605       1.27765671      -0.93244639       0.66769733       0.34619722       0.43413470
C        1.81636391       0.17595815       0.16065492      -0.22416395      -0.23296356      -0.10761481
H        2.70193711       3.16899267      -2.81380471      -0.00292389      -0.86075669      -0.71896328
H       -3.25828182       1.43784124       3.09486402      -0.44895260      -0.19926481      -0.32906575
H       -0.02685412      -1.75389083       2.35265365      -0.47798648      -0.12067836      -0.02586557
H       -1.77657708      -1.47602555       2.48662845      -0.55758295       0.33298858       1.08304967
H       -1.22780903      -2.77135523       1.49724403       0.29299516       0.51643103      -0.14793747
H        1.83845405       3.09166042       0.23682432      -0.07713690       0.32919686       0.10917262
H        2.95533578       3.20833675      -1.11642894      -0.13508475       0.00258904       0.15515780
H        3.39171878       2.30823151       0.30855203       0.06790351      -0.20116699      -0.00008695
H        2.32304565      -0.05809408      -2.52364096      -0.40786539      -1.22892646      -0.72092044
H        3.75137917       0.67600707      -1.89053568       0.49392221      -0.12838209       0.29640350
H       -0.49136945      -0.44938388      -1.37607368       0.16542589       0.21698743       0.06137004
H       -0.56617089      -2.08626421      -0.90505776      -0.34175575      -0.35064534       0.19063596
H        1.81996427      -1.57255968      -1.16614803      -0.21434047       0.17006089      -0.04649404
H        1.43256358      -1.92861422       0.49368385      -0.00576378       0.49127554      -0.40042637
H        1.19186047      -0.03184667       2.26567689       0.15674121      -0.19472040      -0.06033902
H        1.31017406       1.61821846       1.75393680       0.26330950       0.16467208      -0.01401138
H       -0.66679355       1.38535360       0.29608673      -0.72175777       0.16509618       1.15693335
H       -2.05836447      -0.60335531       0.45011905      -0.24161962       0.00606612      -0.41482784
H        0.89719872       1.53987244      -1.24478968      -0.09838779      -0.02151980      -0.30558076
H        2.83554570      -0.01658019       0.48632857       0.17009548       0.17534246       0.21525780
