32
Properties=species:S:1:pos:R:3:forces:R:3 id=25855 bond=C-S smiles="[H:25][C:7]1([C:6]([C:10]([C:9]([C:8]([C:12]1([H:32])[C:11]([H:31])([C:4]([H:18])([H:19])[H:20])[C:5]([H:21])([H:22])[S:1][H:13])([H:27])[H:28])([H:29])[S:2][H:14])([H:30])[C:3]([H:15])([H:16])[H:17])([H:23])[H:24])[H:26]" dataset=PubChem energy=-32378.09327253002 pbc="F F F"
S        2.40740582       2.19201518      -3.15341037      -0.12525816       0.55725417       0.44133432
S       -1.79699747       1.58417311       3.12220881       1.91845423      -0.59588637      -1.57247012
C       -1.24992123      -1.56180786       2.22919781       0.89404530      -0.59403781      -0.66651674
C        2.30426714       2.72813131       0.04613618      -0.27494928      -0.25934341       0.32329464
C        2.46725806       1.01724936      -1.75100653      -0.38357466       1.24875787       0.36512811
C       -0.49316088      -0.93675946      -0.15461813      -0.01720292      -0.21102784      -0.39405984
C        1.00577202      -1.00026057       0.08512942       0.12693023      -0.02020943       0.71730305
C        0.75577243       0.81457423       1.82724769      -0.88255789       0.24785339      -0.51593771
C       -0.77246538       0.85553406       1.52914293      -0.05567910       0.34165229       0.79255765
C       -1.26906875      -0.53672789       1.10031898      -0.20929534       0.37488857       0.14189860
C        1.64594302       1.45981647      -0.53417992       0.66235286       0.31613821       0.44653770
C        1.56023088       0.35811791       0.55892139      -0.15368658      -0.11691406       0.33276696
H        2.44580408       3.35115243      -2.41553824      -0.00450930      -0.86009007      -0.71732049
H       -3.00214879       1.25568148       2.69659755      -0.39709891      -0.17928322      -0.32724729
H       -0.28298715      -1.57173107       2.75092012      -0.47221065      -0.11487143      -0.01673051
H       -2.03271011      -1.29386579       2.88489492      -0.53696356       0.24130968       1.09142991
H       -1.48394206      -2.58919547       1.89551050       0.28821589       0.50975902      -0.14603358
H        1.58232102       3.27382018       0.63509079      -0.08254461       0.32340079       0.11080588
H        2.69920275       3.39049651      -0.71816247      -0.12828218       0.01486599       0.14911111
H        3.13558575       2.49039127       0.70681850       0.06795158      -0.20294692       0.00340866
H        2.06691262       0.12406568      -2.12537449      -0.41220872      -1.22741138      -0.71501813
H        3.49524614       0.85816683      -1.49226921       0.49393712      -0.12614316       0.29159582
H       -0.74750248      -0.26722412      -0.97780721       0.15251861       0.24359102       0.07689027
H       -0.82230392      -1.90410445      -0.50679129      -0.24293330      -0.38096015       0.08659590
H        1.56383124      -1.39039992      -0.76788156      -0.20480604       0.15501611      -0.04687497
H        1.17643055      -1.74645446       0.89195032      -0.00001544       0.48586036      -0.38859153
H        0.93572744       0.15031309       2.66394336       0.13799791      -0.19869422      -0.01074677
H        1.05404103       1.80037822       2.15220327       0.25249254       0.19242295       0.02536509
H       -0.92292658       1.56751336       0.69435320      -0.23926652      -0.30445157       0.69046246
H       -2.31449750      -0.42119555       0.84838552      -0.29606875       0.02467203      -0.39107929
H        0.64106569       1.72203220      -0.84652321      -0.09425488      -0.02771809      -0.29265004
H        2.57941267       0.16557957       0.88459504       0.21809850       0.14017751       0.11748085
