26
Properties=species:S:1:pos:R:3:forces:R:3 id=9011 bond=C-S smiles="[H:15][C:4]1([C:5]([C:8]([C:10]([C:9]([C:6]1([H:19])[H:20])([H:25])[H:26])([C:7]([H:21])([H:22])[C:3]([H:13])([H:14])[S:1][H:11])[S:2][H:12])([H:23])[H:24])([H:17])[H:18])[H:16]" dataset=PubChem energy=-30233.281567328355 pbc="F F F"
S       -3.12177646      -1.47377316      -0.15074072       0.48988617       1.39091188       0.14069199
S        0.84146248       3.21859987      -0.48491601       0.11826120       0.05707755      -0.49737446
C       -2.02645118       1.74310862      -0.02402977       0.52332892       2.46744008       1.00753396
C        3.14805477       0.35045536       0.74245318      -0.75895725      -0.22870242      -0.00019764
C        2.22073298       0.25915535      -0.48856727       0.06589917       0.41743438      -0.04653541
C        2.95499461       1.66352662       1.50638165       0.15832029      -0.82706593       0.46915360
C       -0.94836778       1.96338262       1.08491733      -0.39536888      -1.20748902      -1.53770258
C        0.75407465       0.47311642      -0.10419009       0.25951764       0.08173933       0.46214692
C        1.48163151       1.92622348       1.85772844      -0.17878497      -0.09198393      -0.18844696
C        0.52115806       1.80759039       0.64402495       0.32779432      -0.76689802      -0.00357062
H       -3.54606283      -1.77881518       1.09780153       0.16642188       0.34262654      -0.21798192
H        1.78225606       2.64213785      -1.26953570      -0.40238954       0.29559539       0.34836337
H       -1.66681511       2.05519911      -1.02855650      -0.30154005      -1.29060571       0.36521796
H       -2.93445785       2.37303730       0.21393289       0.45253471      -1.73879032      -0.19076423
H        4.18252747       0.22989841       0.45918524       0.31119079       0.06308344      -0.19556697
H        2.92930238      -0.51252131       1.39526006      -0.08375445       0.33294907      -0.15020733
H        2.50496977       0.96065064      -1.30574910       0.07822464      -0.48058378       0.64668534
H        2.29631012      -0.73116140      -0.90395323       0.11890165      -0.35891002      -0.29778909
H        3.41453807       2.43917759       0.91428977      -0.26909533       0.56511833      -0.19190859
H        3.55390613       1.61828428       2.42903074      -0.30394662       0.07441362      -0.18966004
H       -1.04879720       2.99471708       1.38769039      -0.48624616       0.49465573       0.27869898
H       -1.18360455       1.33498671       1.93273600       0.09350750      -0.09054118       0.29042432
H        0.10496478       0.43081888      -0.97334019       0.00089079      -0.03675103      -0.09670894
H        0.47266581      -0.37655501       0.53692437      -0.14781736       0.40237866       0.01418385
H        1.13611289       1.23212705       2.63893112       0.21177564      -0.03054567      -0.27024100
H        1.38505851       2.92080398       2.28134759      -0.04707744       0.16040074       0.05330902
