44
Properties=species:S:1:pos:R:3:forces:R:3 id=70 bond=C-S smiles="[H:27][c:11]1[c:12]([c:16]([c:13]([c:15]2[c:14]1[N:1]=[C:6]([S:4]2)[S:5][C:24]([H:44])([C:18]([H:30])([H:31])[H:32])[C:19]([H:33])([H:34])[H:35])[H:29])[N:17]3[C:7](=[C:9]4[C:10](=[C:8]3[O:3][H:26])[C:21]([C:23]([C:22]([C:20]4([H:36])[H:37])([H:40])[H:41])([H:42])[H:43])([H:38])[H:39])[O:2][H:25])[H:28]" dataset=PubChem energy=-47752.76309120257 pbc="F F F"
N        1.31771019       1.61208363       4.18331124       2.11936712      -0.55240201      -0.58878753
O       -2.64639267      -0.63657133      -0.66096637      -0.00866956       0.59789788       0.39954273
O        1.66907814       1.02214421      -2.27326629      -0.04028475      -0.23535187       0.66176643
S        3.26379218       0.55356185       2.71357598      -0.14795913       0.32757985       0.65008595
S        3.74321403       1.85966702       5.38045647      18.47269434      -4.38128981     -25.24327524
C        2.61950317       1.36044051       4.14001180      -0.73424205       0.17068924       0.03025896
C       -1.61198160      -0.21084999      -1.43599103       0.31748667      -1.19588330      -2.85290121
C        0.43312352       0.45766677      -2.18017361      -1.19474518      -1.38508508      -1.97265339
C       -1.55882654      -0.46657781      -2.80310152       0.61350565       0.39676234       0.96915733
C       -0.23108956      -0.06608258      -3.27461145      -1.32874847       0.18682887       0.65792755
C       -0.53196129       1.48176916       2.52103271       0.18550202      -0.33293516       0.23722918
C       -0.92643997       1.13085224       1.23019942       0.64701234       0.63969350       0.16932580
C        1.29836908       0.30986468       0.75629326      -0.00859362      -0.28210544      -0.78703338
C        0.79293260       1.23331417       2.95498850      -1.16632367       0.43017246      -0.43825615
C        1.68269422       0.65976338       2.04830267      -0.41753269      -0.13445118      -0.79378436
C        0.01025298       0.60467733       0.30288633      -0.19852112      -0.46340100       0.51625543
N       -0.37440476       0.28549279      -1.03750370       0.57710235       0.89883813       0.95494733
C        2.54037704       0.74000476       7.05620148      -1.56672790      -0.83472032       0.79641402
C        3.69372882       2.93512985       7.44419529       0.16738481       0.78638024      -0.20366951
C       -2.65022597      -1.03876106      -3.69431064       1.66275606       0.32428127       0.12695674
C        0.14522764      -0.25905143      -4.74558971      -0.02786660       1.33242313       0.91065649
C       -2.08346400      -1.42789976      -5.04949424       0.51755538       0.20749649      -0.98496117
C       -1.11783633      -0.33632885      -5.62143657      -0.04808375      -1.01485362       0.03385898
C        2.93696489       2.06144807       6.43639804     -17.29388185       4.63406277      22.15358938
H       -2.35241065      -0.88007133       0.21195563       0.19915746      -0.10624561       0.38259567
H        1.81061855       1.58384295      -1.51902339       0.21269693       0.41532192       0.39737093
H       -1.21771071       1.97221465       3.22659518       0.28664944      -0.35909738      -0.51046014
H       -1.92300543       1.38586481       0.90989830      -0.06616563      -0.06381012      -0.12314509
H        1.99284949      -0.21826015       0.09266194      -0.28545333       0.38879450       0.26077287
H        1.97546460       0.93194902       7.95614244      -0.07645100      -0.31037380       0.52976332
H        3.42868413       0.12262553       7.23701717      -0.24961411       0.26577619       0.12222578
H        1.86044075       0.18996695       6.37505772       0.52930521       0.32778294       0.31918297
H        3.05140461       3.16779277       8.27044965      -0.28933217       0.36935751       0.31348182
H        4.06253399       3.84749838       6.90516950      -0.31533962      -0.73754955       0.82445878
H        4.52448095       2.36888715       7.84744980       0.34483137       0.00970600      -0.06093588
H       -3.08617481      -1.89993136      -3.25983904      -0.55543422      -0.79199082       0.66756292
H       -3.42137131      -0.31645338      -3.83783052      -0.62279010       0.59847251      -0.04915451
H        0.70034185      -1.17565100      -4.80107352       0.29372100      -0.54677379      -0.29887224
H        0.83282065       0.55400104      -5.03372333      -0.32316719      -0.32671592      -0.13070992
H       -1.55594894      -2.40618269      -5.01751611      -0.21799685       0.62456888       0.11850799
H       -2.91358313      -1.54832833      -5.75374267       0.12072753      -0.08804291       0.09196956
H       -1.64454398       0.61492302      -5.64512012       0.03642263       0.14176173       0.11585397
H       -0.87194476      -0.58769994      -6.67425868       0.02640604       0.12999552       0.65731576
H        2.03419866       2.60760042       6.09385206      -0.15711360      -0.06195516       0.96505238
