44
Properties=species:S:1:pos:R:3:forces:R:3 id=70 bond=C-S smiles="[H:27][c:11]1[c:12]([c:16]([c:13]([c:15]2[c:14]1[N:1]=[C:6]([S:4]2)[S:5][C:24]([H:44])([C:18]([H:30])([H:31])[H:32])[C:19]([H:33])([H:34])[H:35])[H:29])[N:17]3[C:7](=[C:9]4[C:10](=[C:8]3[O:3][H:26])[C:21]([C:23]([C:22]([C:20]4([H:36])[H:37])([H:40])[H:41])([H:42])[H:43])([H:38])[H:39])[O:2][H:25])[H:28]" dataset=PubChem energy=-47756.90932292128 pbc="F F F"
N        1.38352644       1.59561171       4.09711193       2.14366839      -0.53091242      -0.70945581
O       -2.58057642      -0.65304325      -0.74716568      -0.00603107       0.60022750       0.40133360
O        1.73489439       1.00567229      -2.35946560      -0.03897448      -0.23570114       0.66484792
S        3.32960843       0.53708993       2.62737667      -0.12028558       0.33433461       0.67252497
S        3.80903028       1.84319510       5.29425716       5.32440864      -1.22442145      -7.32486184
C        2.68531942       1.34396859       4.05381249      -1.13862716       0.35010638       0.51063609
C       -1.54616535      -0.22732191      -1.52219034       0.30877497      -1.19853343      -2.85667367
C        0.49893977       0.44119485      -2.26637292      -1.19190134      -1.38665277      -1.98099497
C       -1.49301029      -0.48304973      -2.88930083       0.61284117       0.39757934       0.97318455
C       -0.16527331      -0.08255450      -3.36081076      -1.32603114       0.18809792       0.66061138
C       -0.46614504       1.46529724       2.43483340       0.17275794      -0.33273418       0.22491535
C       -0.86062372       1.11438032       1.14400011       0.64722274       0.64853722       0.18856968
C        1.36418533       0.29339276       0.67009395      -0.00003854      -0.28508426      -0.80314774
C        0.85874885       1.21684225       2.86878919      -1.13678233       0.37197664      -0.40444980
C        1.74851047       0.64329146       1.96210336      -0.41571937      -0.13170382      -0.76893038
C        0.07606923       0.58820541       0.21668702      -0.18660969      -0.47004643       0.50569417
N       -0.30858851       0.26902087      -1.12370301       0.58368423       0.90256784       0.96987135
C        2.47456079       0.75647668       7.14240079      -0.97199031      -0.62085967      -0.14103553
C        3.62791257       2.95160177       7.53039460       0.31203718       0.50351150      -0.88905968
C       -2.58440972      -1.05523298      -3.78050995       1.66194444       0.32370429       0.12629242
C        0.21104389      -0.27552335      -4.83178902      -0.02755359       1.33266823       0.90971219
C       -2.01764775      -1.44437168      -5.13569355       0.51801931       0.20716452      -0.98537401
C       -1.05202008      -0.35280077      -5.70763588      -0.04883414      -1.01464344       0.03363712
C        2.87114864       2.07791999       6.52259735      -5.04322530       1.55084554       5.85536539
H       -2.28659440      -0.89654325       0.12575632       0.19693530      -0.10877083       0.38191921
H        1.87643480       1.56737103      -1.60522270       0.21263855       0.41719340       0.39465282
H       -1.15189446       1.95574273       3.14039587       0.28816671      -0.36090135      -0.50960268
H       -1.85718918       1.36939289       0.82369899      -0.06579508      -0.06424714      -0.12280399
H        2.05866574      -0.23473207       0.00646263      -0.28780847       0.38745173       0.25968225
H        1.90964835       0.94842094       8.04234175      -0.01751735      -0.20978086       0.47249081
H        3.36286788       0.13909745       7.32321648      -0.29204824       0.19893328       0.16714595
H        1.79462450       0.20643887       6.46125703       0.49699339       0.25453912       0.32623797
H        2.98558836       3.18426469       8.35664896      -0.31122331       0.37465483       0.29726491
H        3.99671774       3.86397030       6.99136881      -0.29505049      -0.69777349       0.86898096
H        4.45866470       2.38535907       7.93364911       0.35923844       0.04384090      -0.01140219
H       -3.02035856      -1.91640328      -3.34603835      -0.55514828      -0.79154339       0.66771099
H       -3.35555506      -0.33292530      -3.92402983      -0.62216100       0.59848867      -0.04862091
H        0.76615810      -1.19212292      -4.88727283       0.29356731      -0.54650120      -0.29820414
H        0.89863690       0.53752912      -5.11992264      -0.32330813      -0.32695606      -0.13041953
H       -1.49013269      -2.42265461      -5.10371542      -0.21828537       0.62465939       0.11844412
H       -2.84776688      -1.56480025      -5.83994198       0.12111879      -0.08790384       0.09256514
H       -1.57872773       0.59845110      -5.73131943       0.03661203       0.14165608       0.11566163
H       -0.80612851      -0.60417186      -6.76045799       0.02651358       0.13019392       0.65804272
H        1.96838241       2.62407234       6.18005137       0.31722053      -0.25557901       0.46343768
