24
Properties=species:S:1:pos:R:3:forces:R:3 id=34779 bond=C-O smiles="[H:23][C:13]12[C:14]([O:6][C:10]([C:9]([O:5]1)([H:19])[O:1][H:15])([H:20])[O:2][H:16])([O:8][C:12]([C:11]([O:7]2)([H:21])[O:3][H:17])([H:22])[O:4][H:18])[H:24]" dataset=PubChem energy=-22774.293347342184 pbc="F F F"
O       -0.48496262      -0.01441713       3.28211731      -0.62632850      -0.04831428      -1.00851538
O       -1.84299329       1.99945907       2.48680145      -0.40237934      -0.73183522      -0.92494295
O        1.20035996      -1.54329510      -1.20198339       0.42822173      -0.02856584      -0.92925251
O        2.83857330       1.55050134      -1.48766675       8.66428842       5.60902224       0.57149203
O        0.10765788      -0.71912523       1.09347040      -0.60538132       0.75378621       0.78913738
O       -0.03668669       2.12347547       1.20490289       0.49083344      -1.72791316      -1.11645995
O        2.41125294      -0.53952069       0.45058133      -1.19755012       0.45256951       1.08457616
O        0.83242949       1.44444452      -0.85207730      -1.23076843      -0.99788244       1.00066893
C       -0.91401509      -0.11110117       1.91140622       0.40004880       0.30732856       0.63622166
C       -1.22653249       1.29961114       1.38922686       0.94969664       1.72671755       1.77290381
C        2.22450634      -0.62603803      -0.92979985      -0.78628188       0.12663177      -0.12737376
C        1.89541468       0.76863314      -1.54335957      -6.05907281      -5.39996552      -0.31822201
C        1.30231287       0.07656627       1.12445868       1.22228743       0.04874235       0.63959164
C        1.08791935       1.47519480       0.57343094      -1.10791955       1.01465092      -0.47673995
H       -1.02116791       0.70951995       3.67691297       0.59859555      -0.55577141      -0.45391987
H       -1.90734032       2.92549448       2.23219103       0.03220917      -0.13234476       0.02616563
H        0.70587859      -1.68784375      -0.39625352      -0.21022704       0.01305541       0.06602991
H        2.47198470       2.42192030      -1.62238516       0.38547371       0.51413171      -0.16951808
H       -1.84790424      -0.69898267       1.84146840       0.76777220      -0.12160406      -0.15338954
H       -1.89050940       1.27916269       0.53512197       0.23894506       0.10302125      -0.40883213
H        3.16206618      -0.99076231      -1.34014922       0.07421989       0.06205268      -0.08851877
H        1.64860960       0.60385450      -2.59166794      -1.34790377      -0.39090177      -0.06103757
H        1.60696414       0.14498643       2.17277831       0.04643771       0.06442940      -0.31091339
H        1.96876534       2.12853889       0.78475333      -0.72363935      -0.65511604      -0.03759953
