24
Properties=species:S:1:pos:R:3:forces:R:3 id=34779 bond=C-O smiles="[H:23][C:13]12[C:14]([O:6][C:10]([C:9]([O:5]1)([H:19])[O:1][H:15])([H:20])[O:2][H:16])([O:8][C:12]([C:11]([O:7]2)([H:21])[O:3][H:17])([H:22])[O:4][H:18])[H:24]" dataset=PubChem energy=-22771.887742672618 pbc="F F F"
O       -0.43532269       0.02673383       3.28504851      -0.62746227      -0.04635530      -1.00013742
O       -1.79335336       2.04061003       2.48973265      -0.40564844      -0.72697896      -0.91999475
O        1.24999989      -1.50214414      -1.19905219       0.42351846      -0.14077737      -0.87834022
O        2.78893337       1.50935038      -1.49059795      21.69394394      16.38534140       1.43075697
O        0.15729781      -0.67797427       1.09640160      -0.60410928       0.76576767       0.80143131
O        0.01295324       2.16462643       1.20783409       0.49374967      -1.69352240      -1.06233456
O        2.46089287      -0.49836973       0.45351253      -1.15630730       0.49938351       1.11371582
O        0.88206942       1.48559548      -0.84914610      -2.44279224      -0.89880621       1.56002210
C       -0.86437516      -0.06995021       1.91433742       0.40668617       0.30592672       0.62484543
C       -1.17689256       1.34076210       1.39215806       0.95844166       1.72394237       1.76122364
C        2.27414627      -0.58488707      -0.92686865      -1.17125026      -0.30472934      -0.12370178
C        1.94505461       0.80978410      -1.54042837     -17.21664234     -15.80306219      -1.33735863
C        1.35195280       0.11771723       1.12738988       1.21687206       0.03257773       0.63934676
C        1.13755928       1.51634576       0.57636214      -1.20553868       0.98406034      -0.57645953
H       -0.97152798       0.75067091       3.67984417       0.59878950      -0.55666863      -0.45509764
H       -1.85770039       2.96664544       2.23512223       0.03285901      -0.13433221       0.02558457
H        0.75551852      -1.64669279      -0.39332232      -0.19972525      -0.00117746       0.04761340
H        2.42234477       2.38076934      -1.62531636       0.77579287       0.99710746      -0.22708581
H       -1.79826431      -0.65783171       1.84439960       0.76802357      -0.12150344      -0.15332807
H       -1.84086947       1.32031365       0.53805317       0.24189316       0.10256253      -0.40883805
H        3.21170611      -0.94961135      -1.33721802       0.09569427       0.06785615      -0.09974647
H        1.69824953       0.64500546      -2.58873674      -2.01034033      -0.86027166      -0.45256028
H        1.65660407       0.18613739       2.17570951       0.04486853       0.06378860      -0.30799733
H        2.01840527       2.16968985       0.78768453      -0.70976214      -0.63460926       0.00096824
