24
Properties=species:S:1:pos:R:3:forces:R:3 id=34779 bond=C-O smiles="[H:23][C:13]12[C:14]([O:6][C:10]([C:9]([O:5]1)([H:19])[O:1][H:15])([H:20])[O:2][H:16])([O:8][C:12]([C:11]([O:7]2)([H:21])[O:3][H:17])([H:22])[O:4][H:18])[H:24]" dataset=PubChem energy=-22773.438644092534 pbc="F F F"
O       -0.74143558      -0.22703041       3.26697276      -0.61766445      -0.05776585      -1.05793670
O       -2.09946625       1.78684579       2.47165690      -0.37483612      -0.76198628      -0.95892681
O        0.94388700      -1.75590838      -1.21712794       0.47196773       0.31646305      -1.15816516
O        3.09504626       1.76311462      -1.47252220      -2.17915602      -3.58876198       0.01748267
O       -0.14881508      -0.93173851       1.07832585      -0.58297884       0.72292136       0.72724120
O       -0.29315965       1.91086219       1.18975834       0.52222583      -1.82568343      -1.26374424
O        2.15477998      -0.75213397       0.43543678      -1.30836780       0.35345691       0.95844343
O        0.57595653       1.23183124      -0.86722185       1.90158591      -1.17129132      -0.50268827
C       -1.17048805      -0.32371445       1.89626167       0.35617675       0.31819144       0.70645824
C       -1.48300545       1.08699786       1.37408231       0.89261095       1.73053405       1.83737645
C        1.96803338      -0.83865131      -0.94494440       0.41857996       0.57691204       0.33361750
C        1.63894172       0.55601986      -1.55850412       0.12897488       2.45808511       1.21742392
C        1.04583991      -0.13604701       1.10931413       1.22328245       0.05188142       0.63858630
C        0.83144639       1.26258152       0.55828639      -0.92331777       1.13084505       0.06844547
H       -1.27764087       0.49690667       3.66176842       0.59633377      -0.55088892      -0.44548709
H       -2.16381328       2.71288120       2.21704648       0.02558517      -0.12000000       0.02984893
H        0.44940563      -1.90045703      -0.41139807      -0.27186416       0.08059452       0.14606639
H        2.72845766       2.63453358      -1.60724061      -0.72233797       0.08624682      -0.19859948
H       -2.10437720      -0.91159595       1.82632385       0.76908455      -0.12191522      -0.15590851
H       -2.14698236       1.06654941       0.51997742       0.22965082       0.10705391      -0.41291310
H        2.90559322      -1.20337559      -1.35529377       0.00892409       0.07738658      -0.09404403
H        1.39213664       0.39124122      -2.60681249       0.09985616       0.78614080       0.14754618
H        1.35049118      -0.06762685       2.15763376       0.04953827       0.08154881      -0.32419201
H        1.71229238       1.91592561       0.76960878      -0.71318757      -0.68157305      -0.25426567
