16
Properties=species:S:1:pos:R:3:forces:R:3 id=47740 bond=C-S smiles="[H:15][C:9]([C:7](=[S:1])[O:3][H:11])([C:10]([H:16])([C:8](=[S:2])[O:4][H:12])[S:6][H:14])[S:5][H:13]" dataset=PubChem energy=-51691.99031657452 pbc="F F F"
S        0.42246168      -1.13264424      -1.90375566       0.97729444       0.81275657       1.59957164
S        1.06722324       3.31065695       2.62809634      -1.20733242      -1.25071665      -0.59165483
O        2.73005496      -0.51616794      -0.93001270      -1.15470124       0.55032590       1.05156765
O       -0.89967622       1.54243951       2.74356794       1.04675964       0.70204171      -1.08717820
S       -0.52722258      -0.85708834       1.05088399      -4.30752639      -3.25434549       1.51945718
S       -0.95278360       1.83801191      -0.53471291      -0.66888617      -0.42256757      -0.16455695
C        1.38236974      -0.49443311      -0.66055488       0.12071253      -1.19609341      -3.41311826
C        0.10969051       2.09335607       2.00780320       0.36568616       0.59491364       1.66904735
C        0.79944091       0.04283299       0.67990390       4.86981177       1.19223022      -1.20742999
C        0.43121976       1.53946620       0.63002295      -0.03260029       0.04467099      -0.43980341
H        2.84363805      -0.88433141      -1.84170889      -0.45165813       0.37302072       1.01072691
H       -1.26985801       0.75323939       2.29457379       0.27217764       0.43823891       0.21090121
H        0.05671519      -2.01297725       1.40418313       0.03830704       0.19739341       0.00735466
H       -1.55001033       0.57611179      -0.54637491       0.71272793       1.19254497       0.06462558
H        1.55852615      -0.10965574       1.46639991      -0.01322849       0.41270684      -0.44733323
H        1.29205881       2.11800795       0.25060058      -0.56390802      -0.39390383       0.22473746
