49
Properties=species:S:1:pos:R:3:forces:R:3 id=41478 bond=C-P smiles="[H:44][C:29]([H:45])([C:35]([C:38]([C:32]([C:26]([H:41])([F:1])[F:2])([F:7])[F:8])([F:19])[F:20])([F:13])[F:14])[P:25]([C:30]([H:46])([H:47])[C:36]([C:39]([C:33]([C:27]([H:42])([F:3])[F:4])([F:9])[F:10])([F:21])[F:22])([F:15])[F:16])[C:31]([H:48])([H:49])[C:37]([C:40]([C:34]([C:28]([H:43])([F:5])[F:6])([F:11])[F:12])([F:23])[F:24])([F:17])[F:18]" dataset=PubChem energy=-90241.54204571138 pbc="F F F"
F       -5.19647854      -0.52907709       2.95166744       1.27906360      -0.66579125      -0.91630907
F       -5.03600949      -1.27265635       0.78981490       0.28359989      -0.58386536       0.33597255
F        2.14611469       6.82894821      -2.68266400       0.98930838      -0.87940202       0.14647461
F        3.90953682       5.50177689      -3.23673233      -1.24075210      -0.18162420       0.55546790
F        0.29830638      -5.66292396      -0.02398037       0.18030157       1.95382673       0.56032734
F       -0.64564866      -3.64319530       0.43267544       1.51164693      -1.15085669       0.87164121
F       -4.15938538       1.01729208      -0.10429619       0.35268209       0.33803391       2.02167454
F       -4.26406687       1.99810764       2.01825966       0.12043883      -1.93595307      -1.75693193
F        1.91570256       5.82452841      -0.13018999       0.72416695      -0.41454180      -2.43907351
F        3.92049549       5.10802431      -0.21418855      -0.62078770      -0.50400116      -1.72461827
F        0.81191990      -4.94177976       2.59147419       0.41237930       0.32808874      -0.64525011
F        2.69066745      -4.97485271       1.39290978      -2.12508639       0.26141289      -0.61841778
F       -1.64843553       2.58215984       1.07348706      -0.09901587       1.08866659       0.56901247
F       -1.44946688       1.06059345      -0.41949092       0.24286202      -0.22723661       0.92712215
F        3.51309941       2.63625355       0.07279357       1.73778472       0.60527523       1.21748892
F        1.42864715       3.22284670       0.69330739       0.94469652       0.08374036      -0.25877060
F        4.05558473      -2.49190703       1.21572538       2.29265434      -0.74062744       0.92451662
F        2.66701347      -2.33635250      -0.31981467      -0.91701445       0.56950448      -0.10422352
F       -2.49123973       0.32308620       3.00922049       0.16225694       0.78505933      -1.74510679
F       -2.40176838      -0.86364845       1.19805331       0.22631860       0.05175200      -0.37236006
F        2.86849593       3.26391526      -2.52188525      -1.25236728       0.89538517       1.02439563
F        0.81556274       4.01139851      -1.75082168       2.33907479      -0.24130196      -0.09591468
F        2.53359193      -3.01883307       3.19576586      -1.02741305       0.59388499      -2.08722891
F        0.71692173      -2.08031026       2.20738531       1.97338382      -1.42007078      -0.39913644
P        1.48398769       0.54463096       0.59118277      -2.31667159      -9.01041318       8.42952827
C       -5.10726040      -0.22350326       1.59471608      -0.83358637       1.13674541       1.72826544
C        3.25006340       6.15148516      -2.21136221      -0.20741222       0.75806290      -1.11139857
C        0.56120956      -4.32208791       0.34641788      -0.42796744      -0.49918360      -4.74736974
C       -0.04608017       0.85872890       1.59846295      -0.29704192       0.06523319       1.69984558
C        1.83838771       1.38712127      -0.66403541      -1.05480048       6.44629928      -4.66684317
C        2.90872317      -0.56016901       1.25236083      -1.71185176       2.71288991       0.98792550
C       -4.00662249       0.81521880       1.27060212      -0.64969266       1.20559549       0.02939770
C        2.80886267       5.22836323      -1.05496845      -0.16106874       0.08784698       2.74783459
C        1.44058102      -4.36315170       1.54104437       1.76081430       1.85805383       2.51866016
C       -1.38974446       1.30166897       0.94933785      -0.05597633      -2.44635818      -0.55164779
C        2.26224194       2.75456519      -0.30749837      -0.79506802       1.88314569      -1.01764650
C        2.86038500      -2.00566784       0.99222447      -1.56545807      -2.03550419       0.42037837
C       -2.57396310       0.40429400       1.60668625       0.67071333      -0.13154501       0.82188282
C        2.17346380       3.82736178      -1.45517477      -0.11663749      -0.50077986       0.19888171
C        1.88209790      -2.86008683       1.95053495      -1.00002709       0.45745933       1.85285837
H       -6.05193775       0.25222534       1.52609504      -0.84947796       0.73223411      -1.19223111
H        4.02238296       6.84027357      -1.93711266      -0.15799689       0.71178934       1.03132925
H        1.11211431      -3.77619901      -0.53494893      -0.93259500      -1.47422573       1.72388900
H        0.17840275       1.68257078       2.28166927      -0.18962844      -0.04882508      -0.01341142
H       -0.32543349      -0.00055400       2.31347288       1.00876974       1.03783861      -1.53516963
H        2.51167677       0.90082164      -1.23398229       1.91792531      -1.27428754      -2.45867111
H        0.88179325       1.54548378      -1.08614072      -0.92836158      -0.17239243      -1.63123766
H        3.75805860      -0.24742010       0.67646237       0.49466716       0.50284870      -0.14775199
H        3.10467368      -0.32541648       2.33335973      -0.05162556      -0.58772887      -1.09513188
