11
Properties=species:S:1:pos:R:3:forces:R:3 id=15921 bond=C-P smiles="[H:5][C:2]([H:6])([H:7])[P:4](=[S:1])([H:11])[C:3]([H:8])([H:9])[H:10]" dataset=PubChem energy=-22313.85692506398 pbc="F F F"
S        2.82769141       1.92702655       1.04773464      -1.04621253      -0.07379809      -0.27069094
C        0.49293427      -0.65285754      -1.28836157       0.95695928      -0.07278466      -0.32742773
C        0.12764041       1.15145307       2.45203811       0.77549435       0.19591710       0.51981102
P        0.87843673       1.65767036       0.87502708       2.05832830      -1.55013778      -0.60151657
H        0.85387939      -1.61412537      -0.88641055      -0.01345136       0.84212123       0.49410851
H       -0.51938134      -0.76771599      -1.61959602      -0.68033095       0.44413049       0.27985625
H        1.12888533      -0.35532483      -2.14867713      -0.25809752       0.39386532       0.99911317
H        0.83408524       1.35885741       3.29167539      -0.42847846      -0.03164533      -0.88851923
H       -0.02303310       0.08409445       2.41894907      -0.41806027      -0.19063827       0.07570998
H       -0.76821806       1.73083471       2.61150581      -0.46902858      -0.18796583       0.04475648
H        0.24165325       2.82114558       0.49036998      -0.47806727       0.23040960      -0.32473752
