11
Properties=species:S:1:pos:R:3:forces:R:3 id=15921 bond=C-P smiles="[H:5][C:2]([H:6])([H:7])[P:4](=[S:1])([H:11])[C:3]([H:8])([H:9])[H:10]" dataset=PubChem energy=-22317.326524161155 pbc="F F F"
S        2.75897141       1.51514984       0.66208710      -0.62725637       0.09561911      -0.07672156
C        0.56165427      -0.24098083      -0.90271403       0.67295401       1.69488511       1.02414911
C        0.05892041       0.73957636       2.06639057       0.71855009       0.37412362       0.37551151
P        0.80971673       1.24579365       0.48937954       2.20833863      -2.49092202      -1.08513262
H        0.92259939      -1.20224866      -0.50076301      -0.02940046       0.71945855       0.16941662
H       -0.45066134      -0.35583928      -1.23394848      -0.61604777       0.05520110      -0.05887915
H        1.19760533       0.05655188      -1.76302959      -0.37230816      -0.06772055       0.76520261
H        0.76536524       0.94698070       2.90602785      -0.43788268      -0.01994314      -0.93365266
H       -0.09175310      -0.32778226       2.03330153      -0.40724566      -0.22642870       0.06880858
H       -0.83693806       1.31895800       2.22585827      -0.49056745      -0.21722718       0.12157231
H        0.17293325       2.40926887       0.10472244      -0.62022466       0.08170367      -0.36923603
