11
Properties=species:S:1:pos:R:3:forces:R:3 id=15921 bond=C-P smiles="[H:5][C:2]([H:6])([H:7])[P:4](=[S:1])([H:11])[C:3]([H:8])([H:9])[H:10]" dataset=PubChem energy=-22291.794372293574 pbc="F F F"
S        2.69863189       1.15350199       0.32346975       0.82619263       1.03188720       0.94136904
C        0.62199379       0.12066702      -0.56409668     -16.15126917     -91.29123637     -86.09379503
C       -0.00141911       0.37792851       1.72777322       0.98784314       1.37617607       1.23561676
P        0.74937721       0.88414580       0.15076219      17.63777567      90.16381260      85.95836066
H        0.98293891      -0.84060081      -0.16214566      -0.13127808       0.30275316      -1.22481776
H       -0.39032182       0.00580857      -0.89533113      -0.44605197      -0.96066267      -0.66637886
H        1.25794485       0.41819973      -1.42441224      -0.66647488      -0.99642877      -0.00448128
H        0.70502572       0.58533285       2.56741050      -0.68739853      -0.07996048      -0.71458054
H       -0.15209262      -0.68943011       1.69468418      -0.40462384      -0.30574663      -0.00309988
H       -0.89727758       0.95731015       1.88724092      -0.54149455      -0.22824229       0.27238251
H        0.11259373       2.04762102      -0.23389491      -0.42379547       0.98585952       0.29997496
