14
Properties=species:S:1:pos:R:3:forces:R:3 id=32724 bond=C-S smiles="[H:10][C:4]([H:11])([H:12])[N:2]([H:6])[C:5]([H:13])([H:14])[S:1][C:3]([H:7])([H:8])[H:9]" dataset="DES370K Monomers" energy=-15584.077634840158 pbc="F F F"
S       -1.70554122       0.23235416       0.34093625       2.06439919       1.63529969       0.14174648
N        0.67577627      -0.09725743      -1.07237016      -1.83539227       0.56390214      -0.21316639
C       -0.13320530       2.05244107       1.47735583       1.46924560      -2.16732966       1.07711944
C        1.65734473      -0.98681993      -1.64347981      -0.69903416       0.93196261      -1.79367965
C       -0.51246929      -0.83101339      -0.65231367       0.37640041       0.27940988       1.16790121
H        0.33609322       0.58738630      -1.79409145       0.77806710      -0.86233805       1.01423474
H        0.61203783       2.63750464       0.90800875      -1.04823390      -0.70332989      -0.61412174
H       -0.74902514       2.65987212       2.09988402      -1.25727008       0.30689517      -0.35509282
H        0.47154881       1.46435720       2.24661564      -0.99422130       0.04635983      -1.50035842
H        1.90325049      -1.84949500      -1.04801648       0.82204299       0.43613205       0.62800376
H        1.39789918      -1.39349586      -2.60567092      -1.24086131      -0.94847909      -0.57945835
H        2.32007292      -0.27774086      -2.09232389       2.08593747      -0.06247440       0.88018477
H       -0.21802466      -1.61939914       0.03198602       0.35511755       0.01737624       0.18335883
H       -0.94308897      -1.38791699      -1.48953318      -0.87450454       0.52648806      -0.03783238
