14
Properties=species:S:1:pos:R:3:forces:R:3 id=32724 bond=C-S smiles="[H:10][C:4]([H:11])([H:12])[N:2]([H:6])[C:5]([H:13])([H:14])[S:1][C:3]([H:7])([H:8])[H:9]" dataset="DES370K Monomers" energy=-15586.153074141073 pbc="F F F"
S       -1.38945307       0.59824792       0.56939173      -4.36760584      -4.85821563      -4.96863199
N        0.99186442       0.26863633      -0.84391468      -1.96641194       0.54449415      -0.15941230
C       -0.44929345       1.68654731       1.24890035       5.93290654       2.36088051       4.19478029
C        1.97343288      -0.62092617      -1.41502433      -0.65504961       0.97309061      -1.77134670
C       -0.19638114      -0.46511963      -0.42385819       0.29970041       0.12971711       0.90188654
H        0.65218137       0.95328006      -1.56563597       0.78623878      -0.89619716       0.94421460
H        0.29594968       2.27161088       0.67955327      -0.76959156      -0.18230977       0.02030215
H       -1.06511329       2.29397836       1.87142854      -0.44702179       0.82552932       0.20686455
H        0.15546066       1.09846344       2.01816016      -0.05591371       1.18389057      -0.61763735
H        2.21933864      -1.48360124      -0.81956100       0.81556433       0.44114249       0.62691657
H        1.71398733      -1.02760210      -2.37721544      -1.26432976      -0.93656091      -0.56000215
H        2.63616107       0.08815290      -1.86386841       2.10037974      -0.07096476       0.88022861
H        0.09806349      -1.25350538       0.26044150       0.40290244      -0.03224599       0.24489701
H       -0.62700082      -1.02202323      -1.26107770      -0.81300233       0.51427093       0.05378451
