35
Properties=species:S:1:pos:R:3:forces:R:3 id=39964 bond=C-S smiles="[H:23][C:16]([H:24])([H:25])[O:1][c:9]1[c:10]([c:12]([c:14]([c:13]2[c:11]1[S:6][S:4][S:3][S:5][S:7]2)[C:19]([H:32])([H:33])[C:20]([H:34])([H:35])[N:15]([H:21])[H:22])[S:8][C:18]([H:29])([H:30])[H:31])[O:2][C:17]([H:26])([H:27])[H:28]" dataset=PubChem energy=-82265.20650477023 pbc="F F F"
O        0.60221361      -2.79703125      -0.37071366       0.32546849       0.61400854       0.51470888
O        2.45506639      -0.90904316       0.84094273      -0.01358406      -0.64780245      -0.08756324
S       -2.90983967      -0.10498020      -3.20853378      -0.70287176      -0.44996677       0.59260333
S       -1.95222692      -1.97653183      -2.97828985       0.55781878      -0.49559188      -0.26505995
S       -4.27919488      -0.44991729      -1.71255876       0.78446367       1.08246460      -0.01515559
S       -2.06743483      -2.44129833      -1.00435664      -0.31014017       0.39341535      -0.22066839
S       -3.29736476       0.55099875      -0.13487764      -0.07844321       0.29261341       0.40471053
S        2.50736711       2.47356380       2.15763348      -1.86602504      -2.08201492      -0.42025965
C        0.23144183      -1.50616607      -0.02712230       1.81496374      -0.66449948       0.98355960
C        1.14235945      -0.60379812       0.61408500      -0.40149904       1.93805524      -0.05423640
C       -1.07215433      -1.16577968      -0.27870788      -0.26511934       0.60494035       0.16094450
C        0.67108096       0.71627346       0.92519818      -0.05732226      -1.15432106      -0.21167863
C       -1.54120236       0.11364017       0.07430990      -0.13008142      -0.95833004      -0.69552945
C       -0.67032938       1.06465557       0.64287989       0.30081467       1.20226655       0.80935673
N       -0.12246342       3.96073880      -0.62087835      -0.33803512      -0.01781540       0.85635941
C        1.27119894      -3.59083375       0.63402848       0.35709527       1.12890629       0.28102739
C        3.20543308      -0.95272252      -0.37298681      -0.44826134       0.75248754      -1.22096127
C        2.53972158       1.70053251       3.82632643       0.88367882      -0.79817421      -0.53070334
C       -1.24150972       2.46053019       0.98356413       0.04015813      -0.62884392       0.44979057
C       -1.39497309       3.34285918      -0.23416342      -0.50832157       1.06925581      -0.29590866
H        0.61643858       3.27907815      -0.68315757       0.04244847      -0.02810909      -0.25627917
H       -0.21175270       4.49644342      -1.46294071       0.12656780      -0.07160956      -0.30802307
H        0.83671887      -4.57480224       0.64852525      -0.19959928      -0.28692698      -0.23249501
H        2.33396954      -3.62856135       0.38249442      -0.16443726      -0.16375670       0.15097483
H        1.16402383      -3.13794336       1.63569187       0.01749384      -0.18785096      -0.51425234
H        4.23734088      -1.25568101      -0.21902283      -0.21480815      -0.04724038       0.44351267
H        3.18204732       0.04889793      -0.83270658       0.27499640      -0.14115418       0.32118203
H        2.73402925      -1.58417746      -1.13938810       0.10707933      -0.25559255       0.47827875
H        3.28186211       2.21446873       4.45638304      -0.33512847       0.26995818      -0.39190269
H        1.57573935       1.71784319       4.29983121      -0.30970467       0.14642996       0.12574779
H        2.91719088       0.65779771       3.78473645      -0.39817809       0.60479996      -0.22549458
H       -2.18286042       2.33262435       1.52388130      -0.09603262      -0.05712454      -0.39650280
H       -0.62768440       2.96244255       1.71324776       0.60796422       0.03377715       0.07126001
H       -1.82619314       2.75679532      -1.02624727      -0.17519164      -0.39879414      -0.47135942
H       -2.15177207       4.15382877      -0.06430279       0.77281413      -0.59873205       0.17201433
