34
Properties=species:S:1:pos:R:3:forces:R:3 id=4183 bond=C-O smiles="[H:21][c:5]1[c:7]([c:11]([c:15]([c:12]([c:8]1[H:24])[H:28])[C:17]([H:31])([H:32])[O:3][P:19](=[S:1])([O:2][H:20])[S:4][C:18]([H:33])([H:34])[c:16]2[c:13]([c:9]([c:6]([c:10]([c:14]2[H:30])[H:26])[H:22])[H:25])[H:29])[H:27])[H:23]" dataset=PubChem energy=-49832.2844082848 pbc="F F F"
S       -0.84776608       3.00565439      -0.76862103      -0.20143044      -0.19126694      -0.17869234
O       -2.15316037       2.64033132       1.76343280      -1.63509373      -0.39394749      -0.13500964
O        0.15219320       1.36757689       1.49088412      -2.80771544       1.48690830      -0.22169123
S       -2.29100947       0.12068871       0.15813941      -0.49716498      -0.49548802       0.40504237
C        5.63933595       2.56161211       2.11025677      -0.70024481      -0.02249650       1.03775813
C       -2.83964709      -4.50996250      -2.08445710      -0.16119522      -0.10966261      -1.58781560
C        5.01122792       2.17661582       3.31795333      -0.81418025       0.33315822       0.18346289
C        4.88909419       3.27585314       1.18603446      -0.27577869       0.61520919      -0.52441953
C       -2.31352118      -4.29042858      -0.83318847      -0.15085395      -0.38969019       0.34320756
C       -2.79424099      -3.50594014      -3.07267398       0.45977898       0.32125828       0.81322814
C        3.64397176       2.50835334       3.54873155       2.07350206      -1.18162514       0.18266502
C        3.56132659       3.63019918       1.43673454       0.54300804       0.83146525      -1.62376207
C       -1.77432565      -3.06693858      -0.50076562       0.55775979       0.34030043       0.76124205
C       -2.16362981      -2.28817195      -2.75404304      -0.23052641      -0.50803593       0.91338536
C        2.92202790       3.24144386       2.60564123      -2.89178720      -0.76927334      -0.05265248
C       -1.65685180      -2.04001540      -1.45630079      -0.69950554      -0.36082200       0.44585236
C        1.47022530       3.51019762       2.80905245       4.17660594       1.42964478       1.51349517
C       -1.11254958      -0.69996512      -0.98285192       0.67096190       0.27988823      -0.89135221
P       -1.22844270       1.81335371       0.75002115       4.83722367       0.46035844      -0.09465642
H       -2.92077855       2.96361500       1.22188967       1.06143646      -0.17404433       0.82491085
H        6.69879707       2.36749600       1.92675422      -0.49063490      -0.12919639       0.08056953
H       -3.22155909      -5.49713653      -2.34810227      -0.10244214       0.34937802       0.15294769
H        5.57506307       1.61773841       4.08014654      -0.42281570       0.37213069      -0.46709171
H        5.36981519       3.58989380       0.25758671      -0.29901289      -0.04419633       0.30527587
H       -2.35385541      -5.08663744      -0.08969245       0.02638661       0.25056341      -0.19481149
H       -3.24767260      -3.62256259      -4.06458253       0.33279349      -0.15324940       0.53583801
H        3.18055423       2.16044436       4.46288107      -0.07450689       0.04768304      -0.11446585
H        3.01312121       4.26562666       0.71013282       0.40817120      -0.76191355       0.48772961
H       -1.43551354      -2.96299428       0.56119716      -0.19884605       0.35042514      -1.22958979
H       -2.11582164      -1.52912218      -3.50482410       0.07178625       0.44251401      -0.21726199
H        1.23927273       3.44340228       3.87687896      -0.96633841      -1.18074086      -0.57823489
H        1.23096522       4.52033995       2.48207675      -1.17526027      -0.76859143      -1.30829240
H       -0.18012650      -0.85461813      -0.42633826      -0.28289920       0.11784149      -0.20872898
H       -0.91426305      -0.01975906      -1.83792990      -0.13997423      -0.39883750       0.63063621
