34
Properties=species:S:1:pos:R:3:forces:R:3 id=4183 bond=C-O smiles="[H:21][c:5]1[c:7]([c:11]([c:15]([c:12]([c:8]1[H:24])[H:28])[C:17]([H:31])([H:32])[O:3][P:19](=[S:1])([O:2][H:20])[S:4][C:18]([H:33])([H:34])[c:16]2[c:13]([c:9]([c:6]([c:10]([c:14]2[H:30])[H:26])[H:22])[H:25])[H:29])[H:27])[H:23]" dataset=PubChem energy=-49835.4781693882 pbc="F F F"
S       -0.48331023       3.59812148      -0.40412751      -0.02554591      -0.65435713       0.43793824
O       -1.78870452       3.23279841       2.12792632      -0.98478205      -0.75173764       0.02365793
O        0.51664905       1.96004398       1.85537764      -6.66965118      -5.35234550      -4.05894910
S       -1.92655362       0.71315580       0.52263293      -0.06000209      -0.22915794       0.73543976
C        5.27488010       1.96914502       1.74576325      -0.60506916      -0.08713426       1.05787764
C       -2.47519124      -3.91749541      -1.71996358      -0.14413580      -0.09510366      -1.57993566
C        4.64677207       1.58414873       2.95345981      -0.48225739       0.23221820      -0.28617137
C        4.52463834       2.68338605       0.82154094       0.02280612       0.29284043      -0.31914371
C       -1.94906533      -3.69796149      -0.46869495      -0.15488083      -0.39931413       0.35596865
C       -2.42978514      -2.91347305      -2.70818046       0.45761494       0.33110804       0.81242643
C        3.27951591       1.91588625       3.18423803       1.52389218      -0.37931729      -0.47285139
C        3.19687074       3.03773209       1.07224102      -0.00913307       0.54868810      -0.70242792
C       -1.40986980      -2.47447149      -0.13627210       0.55729447       0.37166928       0.77329895
C       -1.79917396      -1.69570486      -2.38954952      -0.23800802      -0.46203421       0.89793980
C        2.55757205       2.64897677       2.24114771       1.49349744       0.10783025       0.56795458
C       -1.29239595      -1.44754831      -1.09180727      -0.74286953      -0.44171486       0.45634298
C        1.10576945       2.91773053       2.44455893       4.50704431       4.86289157       4.54529482
C       -0.74809373      -0.10749803      -0.61835840       0.76270908       0.23628115      -1.00159890
P       -0.86398685       2.40582080       1.11451467       0.77373971       0.87595615      -2.85623545
H       -2.55632270       3.55608209       1.58638319       1.06844225      -0.14785130       0.78388613
H        6.33434122       1.77502891       1.56226070      -0.46911560      -0.09456007       0.09777296
H       -2.85710324      -4.90466944      -1.98360875      -0.09937066       0.35964964       0.15672155
H        5.21060722       1.02527132       3.71565302      -0.38007314       0.34304478      -0.45073577
H        5.00535934       2.99742671      -0.10690681      -0.25337876      -0.02958754       0.27616373
H       -1.98939956      -4.49417035       0.27480107       0.03094672       0.26031406      -0.20067113
H       -2.88321675      -3.03009550      -3.70008901       0.34169137      -0.14904697       0.54238301
H        2.81609838       1.56797727       4.09838755      -0.07163408       0.12999959      -0.02218122
H        2.64866536       3.67315957       0.34563930       0.39961814      -0.67001283       0.50497166
H       -1.07105769      -2.37052719       0.92569068      -0.19288678       0.32878137      -1.22080303
H       -1.75136579      -0.93665509      -3.14033058       0.07348085       0.43436925      -0.22715133
H        0.87481688       2.85093519       3.51238544       0.16903661       0.45784943       0.23054269
H        0.86650937       3.92787286       2.11758323      -0.16267225       0.07334480      -0.28068627
H        0.18432935      -0.26215104      -0.06184474      -0.27975688       0.08594778      -0.22554487
H       -0.54980720       0.57270803      -1.47343638      -0.14982041      -0.39443910       0.63991612
