20
Properties=species:S:1:pos:R:3:forces:R:3 id=32105 bond=C-S smiles="[H:10]/[C:4](=[C:3](/[H:9])[S:1][S:2][C:5]([H:11])([H:12])[H:13])/[C:8]([H:20])([C:6]([H:14])([H:15])[H:16])[C:7]([H:17])([H:18])[H:19]" dataset=PubChem energy=-28094.617306037504 pbc="F F F"
S        0.80603069       3.45554736       1.10693460      -0.38664031       1.23948562       1.23782259
S        1.88714856       2.65096787       2.59974228       0.42563648       0.69438510       1.23481792
C        0.33020252       1.96545912       0.44041005      -2.31015214      -3.47553295      -0.32012004
C       -0.38365068       0.89978815       0.95174118       1.39305359       2.09413472       0.25723079
C        3.37785190       2.21522156       1.74223517      -1.86007751      -2.73114114      -2.40783208
C        0.56372205      -1.01746856      -0.53492719       0.64841623      -0.99909092       1.14317295
C       -1.89577379      -0.79380940      -0.22076929      -0.77162678      -0.14222418      -0.01543494
C       -0.57271113      -0.54894375       0.40573099       0.29563679       0.89697022       1.06767604
H        0.76539793       1.96754504      -0.50207681       0.39846494      -0.87221030      -1.93942325
H       -0.69335522       1.16727627       1.98972528      -0.21583708      -0.86945818      -0.76677628
H        3.30524105       1.16645339       1.28397786      -0.15761499       1.39586713       0.49846786
H        3.64998764       2.86520437       0.95388733       0.02049016       0.93961220      -0.61260357
H        4.14151853       2.14161995       2.39536189       2.50819125       0.00368510       2.39834865
H        0.32275326      -1.31594085      -1.59157330      -0.09157460       0.64467516       1.16097675
H        1.21725575      -0.15749257      -0.46016700       0.81155695      -0.45301916      -0.78199471
H        1.05889372      -1.92346477      -0.03154082      -0.47509871       1.37135119      -0.94539364
H       -2.03308715      -0.19567620      -1.10211558      -0.15859144       0.16154562      -0.50330112
H       -2.72989477      -0.62373291       0.46572461       0.08923311      -0.10384160      -0.16625322
H       -1.80153383      -1.84197138      -0.47347910      -0.82047507      -0.25790858      -0.36810163
H       -0.64051237      -1.20512020       1.29350936       0.65862265       0.46171016      -0.17503346
