20
Properties=species:S:1:pos:R:3:forces:R:3 id=32105 bond=C-S smiles="[H:10]/[C:4](=[C:3](/[H:9])[S:1][S:2][C:5]([H:11])([H:12])[H:13])/[C:8]([H:20])([C:6]([H:14])([H:15])[H:16])[C:7]([H:17])([H:18])[H:19]" dataset=PubChem energy=-28094.534419345942 pbc="F F F"
S        0.84056661       3.56369893       1.15531138      -1.44906915      -2.48527284      -0.61286859
S        1.92168448       2.75911944       2.64811906       0.15088315       0.58145249       0.76588692
C        0.29566660       1.85730755       0.39203327      -1.42552777      -0.66034564       1.48916126
C       -0.41818660       0.79163658       0.90336440       1.63944523       2.59928613       0.49784243
C        3.41238782       2.32337313       1.79061195      -1.83122615      -2.73214467      -2.37635721
C        0.52918613      -1.12562013      -0.58330397       0.64963184      -0.99409641       1.13754603
C       -1.93030971      -0.90196097      -0.26914607      -0.76464150      -0.12845779      -0.00918934
C       -0.60724705      -0.65709532       0.35735421       0.28445523       0.82310376       1.00668879
H        0.73086201       1.85939347      -0.55045359       0.61053535      -0.32136843      -1.67117448
H       -0.72789114       1.05912470       1.94134850      -0.24291354      -0.86631560      -0.76802174
H        3.33977697       1.27460496       1.33235464      -0.17112049       1.40557394       0.51082782
H        3.68452356       2.97335594       1.00226411       0.00705490       0.93472131      -0.61024183
H        4.17605445       2.24977152       2.44373867       2.51750723       0.00221325       2.40437708
H        0.28821734      -1.42409242      -1.63995008      -0.09281581       0.64440811       1.16214155
H        1.18271983      -0.26564414      -0.50854378       0.81586763      -0.45711383      -0.77922198
H        1.02435780      -2.03161634      -0.07991760      -0.47527207       1.37472199      -0.94511555
H       -2.06762307      -0.30382777      -1.15049236      -0.15867269       0.16007854      -0.50308314
H       -2.76443069      -0.73188448       0.41734783       0.08945307      -0.10388182      -0.16650042
H       -1.83606975      -1.95012295      -0.52185588      -0.81527494      -0.25738691      -0.36585518
H       -0.67504829      -1.31327177       1.24513258       0.66268695       0.47883522      -0.17056684
