25
Properties=species:S:1:pos:R:3:forces:R:3 id=33632 bond=C-S smiles="[H:24][c:12]1[c:8]([c:14]([c:9]([c:13]([c:19]1[S:7]/[N:5]=[N:6]/[c:18]2[c:11]([c:16]([c:15]([c:10]([c:17]2[Cl:4])[H:22])[Cl:2])[Cl:3])[H:23])[H:25])[H:21])[Cl:1])[H:20]" dataset=PubChem energy=-76463.44854653152 pbc="F F F"
Cl       5.89676080       1.63673472       1.87403392       0.08311565       0.03834577       0.08694650
Cl      -4.72062951       3.60685186      -0.23049832       0.66742751      -0.48430013      -0.32865997
Cl      -4.16204529       1.96156112       2.33289843      -0.22915180      -0.12205454       0.46664812
Cl      -0.55966395       1.09872721      -2.68524439      -0.41599169      -0.08581491       0.28323891
N        0.06252826      -0.93878575       0.92200994      -3.04992892       2.85401296      -2.20880218
N       -0.41935938      -0.43312748      -0.16420311       3.18661468      -3.44623142       1.65120584
S        1.30504978      -2.09445877       0.67006496      -8.23311478      -7.52725188      -2.72384181
C        3.88288627       0.74461571       0.33629978      -2.03962221       0.05509092      -1.42041618
C        4.29764209      -0.51043928       2.34561513       0.02895793      -0.35523142       0.80409236
C       -2.61711865       2.20796804      -1.33342177      -0.52688665       0.29127881      -0.68933445
C       -2.19784718       0.75156772       0.98808979       0.42372752      -1.04075138       0.13795102
C        2.78738175      -0.09728807       0.02992894       1.66523404      -0.14395426       1.42022790
C        3.19651018      -1.34868395       2.09630977       1.91272159       1.33191762       0.13492074
C        4.58502946       0.57282532       1.50665503       0.20014707      -1.05104388       0.44202688
C       -3.44205886       2.40827135      -0.21802879       0.07418473       0.23666449      -0.58315655
C       -3.22183805       1.65756194       0.93625229      -0.08526567       0.60710931      -0.07662080
C       -1.64132291       1.22767852      -1.32514781       0.46386705       0.08464987       0.73565024
C       -1.41196376       0.48608555      -0.14632482      -1.33673751       1.44650166       0.73836924
C        2.46382151      -1.16509533       0.93198310       7.68130485       6.86079409       1.17465937
H        4.06542669       1.55926585      -0.37697030       0.28721966      -0.35689932       0.62138184
H        4.90383754      -0.72928607       3.24653422      -0.38439366       0.51389391      -0.74074437
H       -2.71704846       2.77133087      -2.27469951      -0.22906546      -0.13068884       0.84592845
H       -2.01801973       0.17284111       1.90989655      -0.06495783       0.43260386      -0.70580586
H        2.23297594       0.03513340      -0.89248992       0.01568022      -0.07657719       0.22740622
H        2.95970140      -2.12689233       2.81344806      -0.09985292       0.06721505      -0.29592990
