30
Properties=species:S:1:pos:R:3:forces:R:3 id=28598 bond=C-S smiles="[H:21][c:9]1[c:11]([c:15]([c:19]([c:16]([c:12]1[H:24])[H:28])[O:3][C:7](=[S:1])[S:5][S:6][C:8](=[S:2])[O:4][c:20]2[c:17]([c:13]([c:10]([c:14]([c:18]2[H:30])[H:26])[H:22])[H:25])[H:29])[H:27])[H:23]" dataset=PubChem energy=-62129.5293499986 pbc="F F F"
S        0.29712706       0.76584665       0.93567058      -2.03196344       0.25155617      -1.67077180
S        2.30264502      -2.02409169      -2.78333933      -0.47259994       0.33682218       0.76808582
O       -1.40264846       2.08036567      -0.69828677      -0.48663416      -2.58530206      -0.30717663
O        0.58835995      -2.13709756      -0.61869592       0.99083060      -0.35658299      -0.40249009
S       -1.47547889      -0.57570838      -1.06955385      -1.97146809       0.87863527       0.29047345
S        0.03138267      -0.84613906      -2.42339385     -20.09300216      17.73687449     -14.88741425
C       -0.91267599       0.89074649      -0.24747742       2.54672968       0.87988961       1.74989762
C        0.95105385      -1.58831045      -1.84356649      20.07839002     -17.93146039      13.17398706
C       -1.26029242       5.58726813       1.59584212       0.06022580      -0.33694949       0.71007232
C        3.58708864      -3.14600345       2.06220918      -0.84199415       0.80272719      -0.93029669
C       -1.57260752       4.37861706       2.21817624       0.07278977      -0.36442873      -0.57334500
C       -0.99913896       5.58210731       0.25037038      -0.55773589      -1.05293986      -0.64417644
C        3.55316549      -1.86810228       1.46313708       0.07858939       0.00335459      -0.04811048
C        2.58253293      -4.06784841       1.72114818       0.96528858      -0.63289283       0.16303633
C       -1.63297916       3.19185950       1.47215855      -0.10510363       0.11852023       0.83284014
C       -1.12086905       4.39627577      -0.49797929       0.48332202       0.39542383       0.15822175
C        2.57500368      -1.52200290       0.52263972       0.38412643      -0.19035279       1.08651919
C        1.61704891      -3.74425718       0.76665919       0.05900527       0.40456518       0.50579593
C       -1.38186169       3.17337300       0.10192447       0.17864394       2.45745595       1.30671924
C        1.60046869      -2.46509334       0.23016973       1.10266660      -0.35094324       0.33053214
H       -1.19091524       6.50073839       2.17160773       0.01473503      -0.06611021      -0.03152721
H        4.38499122      -3.38060448       2.74686830      -0.07976512      -0.15326635       0.11525993
H       -1.71934534       4.32623125       3.29544842      -0.09698789       0.02686783      -0.33574487
H       -0.73941828       6.48394132      -0.25295329       0.10450751       0.44804503      -0.31369513
H        4.29008775      -1.09377834       1.71481781      -0.25022339      -0.57999785      -0.01951717
H        2.66318946      -5.09522220       2.14558225      -0.37193541       0.98529404      -0.40377302
H       -1.84339166       2.30295898       2.04377484      -0.01785149      -0.21820893      -0.26541522
H       -0.94150592       4.43566776      -1.55423725       0.07610744      -0.08347796      -0.32385054
H        2.52701001      -0.50137076       0.13784988       0.10156844      -0.62832985      -0.07344572
H        0.83101013      -4.41822216       0.46653712       0.07139165      -0.18710103       0.04140439
