30
Properties=species:S:1:pos:R:3:forces:R:3 id=28598 bond=C-S smiles="[H:21][c:9]1[c:11]([c:15]([c:19]([c:16]([c:12]1[H:24])[H:28])[O:3][C:7](=[S:1])[S:5][S:6][C:8](=[S:2])[O:4][c:20]2[c:17]([c:13]([c:10]([c:14]([c:18]2[H:30])[H:26])[H:22])[H:25])[H:29])[H:27])[H:23]" dataset=PubChem energy=-62131.954019474804 pbc="F F F"
S       -0.12438889       1.10600854       0.66991637      -1.86414460       0.06287949      -1.73939885
S        2.72416097      -2.36425358      -2.51758512      -3.15247799       1.39986427       2.00478339
O       -1.82416441       2.42052756      -0.96404098      -0.49976990      -2.59512754      -0.22745195
O        1.00987590      -2.47725945      -0.35294171      -0.83613520       2.17217225      -3.64772801
S       -1.89699484      -0.23554649      -1.33530806       0.37794383       0.02757514      -0.99775421
S       -0.39013328      -0.50597717      -2.68914806       1.17403041      -1.52682884       1.94788994
C       -1.33419194       1.23090838      -0.51323163       2.58069790       1.05201233       1.92588032
C        1.37256980      -1.92847234      -1.57781228       0.76982448      -1.62005215      -0.85642159
C       -1.68180837       5.92743002       1.33008791       0.05996528      -0.33534110       0.71571964
C        4.00860459      -3.48616534       2.32796339      -0.83618287       0.78320258      -0.94449483
C       -1.99412347       4.71877895       1.95242203       0.07322846      -0.36053473      -0.57398176
C       -1.42065491       5.92226920      -0.01538383      -0.55839839      -1.05385506      -0.64695185
C        3.97468144      -2.20826417       1.72889129       0.06277956      -0.00643163      -0.06037338
C        3.00404888      -4.40801030       1.98690239       1.01029962      -0.60156678       0.14854723
C       -2.05449511       3.53202139       1.20640434      -0.10844052       0.12142091       0.83534778
C       -1.54238500       4.73643766      -0.76373350       0.48011408       0.40624604       0.16074432
C        2.99651963      -1.86216479       0.78839393       0.22171765      -0.10944253       1.13371322
C        2.03856486      -4.08441907       1.03241340      -0.05425744       0.39245335       0.42684994
C       -1.80337764       3.51353489      -0.16382974       0.19193646       2.43411211       1.26924547
C        2.02198464      -2.80525523       0.49592394       1.49775585      -0.31205811       0.69308638
H       -1.61243119       6.84090028       1.90585352       0.01496078      -0.06426015      -0.03049887
H        4.80650717      -3.72076637       3.01262251      -0.08620763      -0.15104518       0.11743736
H       -2.14086129       4.66639314       3.02969421      -0.09700939       0.02741728      -0.33410679
H       -1.16093423       6.82410321      -0.51870750       0.10498826       0.44959460      -0.31389032
H        4.71160370      -1.43394023       1.98057202      -0.26466172      -0.57716986      -0.01739165
H        3.08470541      -5.43538409       2.41133646      -0.38180710       0.99040732      -0.41073259
H       -2.26490761       2.64312087       1.77802063      -0.01409797      -0.21791524      -0.27069556
H       -1.36302187       4.77582965      -1.81999146       0.07809716      -0.08769384      -0.32211081
H        2.94852596      -0.84153265       0.40360409      -0.01175748      -0.51008325      -0.03996317
H        1.25252608      -4.75838405       0.73229133       0.06593810      -0.19083660       0.05550543
