30
Properties=species:S:1:pos:R:3:forces:R:3 id=28598 bond=C-S smiles="[H:21][c:9]1[c:11]([c:15]([c:19]([c:16]([c:12]1[H:24])[H:28])[O:3][C:7](=[S:1])[S:5][S:6][C:8](=[S:2])[O:4][c:20]2[c:17]([c:13]([c:10]([c:14]([c:18]2[H:30])[H:26])[H:22])[H:25])[H:29])[H:27])[H:23]" dataset=PubChem energy=-62132.82486697066 pbc="F F F"
S       -0.02858981       1.02869902       0.73031505      -1.85132606       0.09180921      -1.72890364
S        2.62836189      -2.28694406      -2.57798380      -2.93949521       1.31164098       1.94690258
O       -1.72836533       2.34321804      -0.90364230      -0.50136968      -2.60384612      -0.22670408
O        0.91407682      -2.39994993      -0.41334039      -0.77615038       2.08213070      -3.44404991
S       -1.80119576      -0.31285601      -1.27490938       0.15741998       0.03000325      -0.79881973
S       -0.29433420      -0.58328669      -2.62874938       1.67518226      -1.76099159       1.92775721
C       -1.23839286       1.15359886      -0.45283295       2.59455546       1.04526640       1.91516181
C        1.27677072      -1.85116282      -1.63821096       0.23042986      -1.21042107      -1.12313968
C       -1.58600929       5.85012050       1.39048659       0.05982564      -0.33560476       0.71502027
C        3.91280551      -3.40885582       2.26756471      -0.83631701       0.78262176      -0.94443129
C       -1.89832439       4.64146943       2.01282071       0.07317160      -0.36071408      -0.57348314
C       -1.32485583       5.84495968       0.04501485      -0.55767982      -1.05388933      -0.64709395
C        3.87888236      -2.13095465       1.66849261       0.05683399      -0.00420999      -0.06078428
C        2.90824980      -4.33070078       1.92650371       1.00425242      -0.60452453       0.15113201
C       -1.95869603       3.45471187       1.26680302      -0.10727390       0.12033962       0.83406619
C       -1.44658592       4.65912814      -0.70333482       0.48039008       0.40471057       0.15992531
C        2.90072055      -1.78485527       0.72799525       0.22806130      -0.10721043       1.13792121
C        1.94276578      -4.00710955       0.97201472      -0.03416781       0.39994224       0.43426031
C       -1.70757856       3.43622537      -0.10343106       0.18979117       2.44022045       1.27439305
C        1.92618556      -2.72794571       0.43552526       1.43877306      -0.32354453       0.62307218
H       -1.51663211       6.76359076       1.96625220       0.01485897      -0.06464222      -0.03073272
H        4.71070809      -3.64345685       2.95222383      -0.08523223      -0.15167293       0.11710626
H       -2.04506221       4.58908362       3.09009289      -0.09693478       0.02731303      -0.33450988
H       -1.06513515       6.74679369      -0.45830882       0.10494844       0.44919098      -0.31382462
H        4.61580462      -1.35663071       1.92017334      -0.26360075      -0.57697853      -0.01724411
H        2.98890633      -5.35807457       2.35093778      -0.38063583       0.99017801      -0.40916652
H       -2.16910853       2.56581135       1.83841931      -0.01460451      -0.21829452      -0.26985760
H       -1.26722279       4.69852013      -1.75959278       0.07773810      -0.08687114      -0.32236437
H        2.85272688      -0.76422313       0.34320541      -0.00976543      -0.51628994      -0.04159353
H        1.15672700      -4.68107453       0.67189265       0.06696411      -0.19035708       0.05332786
