34
Properties=species:S:1:pos:R:3:forces:R:3 id=23517 bond=C-N smiles="[H:17][C:6]([H:18])([H:19])[C:12]([C:7]([H:20])([H:21])[H:22])([C:8]([H:23])([H:24])[H:25])/[N:1]=[C:2]/1[N:3]([N:4]1[C:13]([C:9]([H:26])([H:27])[H:28])([C:10]([H:29])([H:30])[H:31])[C:11]([H:32])([H:33])[H:34])[C:5]([H:14])([H:15])[H:16]" dataset=PubChem energy=-15185.122452958607 pbc="F F F"
N       -0.04394447       1.04339850      -0.56526003       4.76777541      -0.15739210       1.70187365
C        0.90903268       0.80793804       0.33812770      -6.58092993       1.72190132      -3.11312962
N        1.18676126       0.27630904       1.52435639      -0.19611697      -1.27137492       2.46695821
N        2.15955448       1.09103727       0.76694056      -0.54688629       1.41516499       0.03600723
C       -0.21627180       1.03232609       3.55785419       0.70869740      -1.42836116       0.37395984
C       -1.93204522       0.76860481      -2.05423519       1.80461937       1.97403646       0.30387834
C       -1.27854919      -1.06526309      -0.40764836      -2.04160781       0.55782905       1.31568432
C       -2.25255227       1.05364925       0.47443131       0.12166727       1.89321405      -1.00374803
C        2.76201188      -0.97255569      -0.50235590       0.44421629       1.00731019       2.02534196
C        3.72003603       1.40669137      -0.96321151      -1.32266572      -0.30794167      -2.11517807
C        4.35510731       0.30849225       1.22900429       1.10581767      -0.03538459      -2.17430484
C       -1.37960314       0.47141116      -0.63974455       1.29247199      -1.19799109       0.30829597
C        3.28790760       0.44808239       0.10906711       1.22828778      -3.18307735       0.48440453
H        0.39890618       1.19189886       4.44119145       0.57314555       0.12151136      -0.70968706
H       -0.84366425       1.81097458       3.28568460      -0.31666806       1.91274647      -1.11720470
H       -0.89742609       0.21723603       3.75107981       0.48327618      -0.94105852      -0.59765560
H       -1.93302488       1.89757008      -2.13388440      -0.67165868      -1.24507342      -0.02637336
H       -1.39063501       0.43993248      -2.97637555       0.08405633      -0.17736530       1.31168182
H       -2.85610175       0.29304369      -2.02621529      -2.06840520      -0.22988135      -0.51312534
H       -0.58656692      -1.25917488       0.42664912      -0.55538266      -0.11435401      -0.25811823
H       -0.97918725      -1.59791953      -1.26465818       0.63172636      -0.47681106      -1.08439174
H       -2.34290098      -1.42333168      -0.17674440       1.54837812       0.23603292      -0.06141584
H       -3.27275180       1.18748700       0.21043974      -1.02886180      -0.22015623      -0.72908599
H       -1.96071529       2.07995075       0.73329022       0.33129015      -0.31186804      -0.06490093
H       -2.29147529       0.48277660       1.34549430       0.46108469      -1.07753000       1.40854961
H        3.40429211      -1.56579071      -1.10467908       1.13090197       0.17906961      -0.65132899
H        2.51693535      -1.65319020       0.33015376      -0.15545520       0.54103880      -0.16698925
H        1.87696803      -0.77682382      -1.06674585      -0.55190451       0.05348462      -0.37399297
H        2.71897483       1.59744460      -1.50280199       1.86846680       0.13881885       0.19699584
H        4.08941388       2.31332451      -0.53768930      -0.01926652       0.69664666       0.32771492
H        4.52024412       1.06046265      -1.68587289      -1.15807432      -0.07711365       0.92265054
H        4.64694858       1.31712311       1.44197371       0.61294183       0.68555043      -0.11118301
H        5.28064346      -0.27609748       0.88976815      -1.52965447       0.65107922       0.74717338
H        3.92424798       0.04683593       2.15194061      -0.45477120      -1.33298493       0.94198092
