34
Properties=species:S:1:pos:R:3:forces:R:3 id=23517 bond=C-N smiles="[H:17][C:6]([H:18])([H:19])[C:12]([C:7]([H:20])([H:21])[H:22])([C:8]([H:23])([H:24])[H:25])/[N:1]=[C:2]/1[N:3]([N:4]1[C:13]([C:9]([H:26])([H:27])[H:28])([C:10]([H:29])([H:30])[H:31])[C:11]([H:32])([H:33])[H:34])[C:5]([H:14])([H:15])[H:16]" dataset=PubChem energy=-15184.960744749227 pbc="F F F"
N       -0.02580180       1.03362241      -0.59155526       4.74902919      -0.16145721       1.68901750
C        0.92717535       0.79816195       0.31183247      -6.57726706       1.70583208      -3.07138231
N        1.20490393       0.26653295       1.49806116      -0.09663149      -1.20492074       2.31268031
N        2.17769715       1.08126118       0.74064533      -0.55606534       1.32958165       0.04928911
C       -0.23441447       1.04210218       3.58414942       0.60390738      -1.41215140       0.51019467
C       -1.91390255       0.75882872      -2.08053042       1.80560190       1.97389949       0.30313886
C       -1.26040652      -1.07503918      -0.43394359      -2.03835229       0.55485440       1.31555756
C       -2.23440960       1.04387316       0.44813608       0.12355719       1.89297854      -1.00053532
C        2.78015455      -0.98233178      -0.52865113       0.43839597       1.01035436       2.02421089
C        3.73817870       1.39691528      -0.98950674      -1.31895796      -0.30993386      -2.11795869
C        4.37324998       0.29871616       1.20270906       1.10539110      -0.03614976      -2.17274532
C       -1.36146047       0.46163507      -0.66603978       1.28764678      -1.19377794       0.30664305
C        3.30605027       0.43830630       0.08277188       1.24856972      -3.16356798       0.47307239
H        0.38076351       1.20167495       4.46748668       0.58128693       0.12116388      -0.70977872
H       -0.86180692       1.82075067       3.31197983      -0.31479295       1.91564323      -1.12943077
H       -0.91556876       0.22701212       3.77737504       0.48024577      -0.94573137      -0.59742772
H       -1.91488221       1.88779399      -2.16017963      -0.67206373      -1.24526892      -0.02634130
H       -1.37249234       0.43015639      -3.00267078       0.08394781      -0.17747919       1.31121990
H       -2.83795908       0.28326760      -2.05251052      -2.06797331      -0.22968533      -0.51279435
H       -0.56842425      -1.26895097       0.40035389      -0.55690504      -0.11398936      -0.25758999
H       -0.96104458      -1.60769562      -1.29095341       0.63156889      -0.47701109      -1.08498386
H       -2.32475831      -1.43310777      -0.20303963       1.54909067       0.23734580      -0.06156112
H       -3.25460913       1.17771091       0.18414451      -1.02832575      -0.22036718      -0.73156433
H       -1.94257262       2.07017466       0.70699499       0.33190722      -0.31279081      -0.06316708
H       -2.27333262       0.47300051       1.31919907       0.46364918      -1.07558898       1.40932722
H        3.42243478      -1.57556680      -1.13097431       1.13126774       0.18084530      -0.65141293
H        2.53507802      -1.66296629       0.30385853      -0.15584505       0.54140903      -0.16450340
H        1.89511070      -0.78659991      -1.09304108      -0.55227454       0.05242113      -0.37439526
H        2.73711750       1.58766851      -1.52909722       1.86888143       0.13865099       0.19649019
H        4.10755655       2.30354842      -0.56398453      -0.01878202       0.69656638       0.32744498
H        4.53838679       1.05068656      -1.71216812      -1.15789853      -0.07594334       0.92254076
H        4.66509125       1.30734702       1.41567848       0.61300341       0.68497351      -0.11115396
H        5.29878613      -0.28587357       0.86347292      -1.52994164       0.65136027       0.74668079
H        3.94239065       0.03705984       2.12564538      -0.45471422      -1.33243752       0.94211082
