34
Properties=species:S:1:pos:R:3:forces:R:3 id=23517 bond=C-N smiles="[H:17][C:6]([H:18])([H:19])[C:12]([C:7]([H:20])([H:21])[H:22])([C:8]([H:23])([H:24])[H:25])/[N:1]=[C:2]/1[N:3]([N:4]1[C:13]([C:9]([H:26])([H:27])[H:28])([C:10]([H:29])([H:30])[H:31])[C:11]([H:32])([H:33])[H:34])[C:5]([H:14])([H:15])[H:16]" dataset=PubChem energy=-15187.758420179927 pbc="F F F"
N       -0.24956138       1.15419410      -0.26724742       4.91124644       0.01835699       1.89403531
C        0.70341577       0.91873364       0.63614031      -6.44297786       1.40003393      -3.64242741
N        0.98114435       0.38710464       1.82236900      -1.76618813      -1.75240999       4.11288624
N        1.95393757       1.20183287       1.06495317      -0.11439276       2.54052634      -0.03657268
C       -0.01065489       0.92153049       3.25984158       2.43385987      -1.82197202      -1.68659636
C       -2.13766213       0.87940041      -1.75622258       1.79940051       1.97559776       0.30987047
C       -1.48416610      -0.95446749      -0.10963575      -2.09190809       0.58742169       1.30916639
C       -2.45816918       1.16444485       0.77244392       0.09521426       1.89691489      -1.05749728
C        2.55639497      -0.86176009      -0.20434329       0.50783586       0.97097855       2.03112162
C        3.51441912       1.51748697      -0.66519890      -1.37057164      -0.28409786      -2.07849356
C        4.14949040       0.41928785       1.52701690       1.10283527      -0.02133314      -2.19874830
C       -1.58522005       0.58220676      -0.34173194       1.33116837      -1.28164947       0.31006748
C        3.08229069       0.55887799       0.40707972       0.94436112      -3.41881881       0.57063098
H        0.60452309       1.08110326       4.14317884       0.27836147       0.15354827      -0.55858654
H       -0.63804734       1.70017898       2.98767199      -0.45425646       1.90147708      -0.73631037
H       -0.69180918       0.10644043       3.45306720       0.39764924      -0.72402194      -0.35479901
H       -2.13864179       2.00836568      -1.83587179      -0.66677599      -1.24404467      -0.02526864
H       -1.59625192       0.55072808      -2.67836294       0.08476072      -0.17639680       1.31498601
H       -3.06171866       0.40383929      -1.72820268      -2.07019278      -0.23159469      -0.51593193
H       -0.79218383      -1.14837928       0.72466173      -0.53705929      -0.12767623      -0.26769699
H       -1.18480416      -1.48712393      -0.96664557       0.63608844      -0.47548447      -1.07504480
H       -2.54851789      -1.31253608       0.12126821       1.54603735       0.22230821      -0.05705317
H       -3.47836871       1.29828260       0.50845235      -1.03328219      -0.22041384      -0.70512184
H       -2.16633220       2.19074635       1.03130283       0.31640770      -0.30562916      -0.08375260
H       -2.49709220       0.59357220       1.64350691       0.42980636      -1.09082578       1.40249053
H        3.19867520      -1.45499511      -0.80666647       1.12721256       0.16288514      -0.65034719
H        2.31131844      -1.54239460       0.62816637      -0.15108149       0.53655596      -0.19697675
H        1.67135112      -0.66602822      -0.76873324      -0.54991617       0.06096190      -0.36956942
H        2.51335792       1.70824020      -1.20478938       1.86237589       0.14203045       0.19957547
H        3.88379697       2.42412011      -0.23967669      -0.02371285       0.69751394       0.32797619
H        4.31462721       1.17125825      -1.38786028      -1.16410860      -0.08793192       0.92820429
H        4.44133167       1.42791871       1.73998632       0.61046480       0.69006374      -0.10993608
H        5.07502655      -0.16530188       1.18778076      -1.52829300       0.64658558       0.75332618
H        3.71863107       0.15763153       2.44995322      -0.45102666      -1.33927669       0.94436708
