35
Properties=species:S:1:pos:R:3:forces:R:3 id=18252 bond=C-S smiles="[H:18][C:7]([H:19])([H:20])[C:12]([H:31])([H:32])[N:5]([C:4](=[S:1])[S:2][C:11]([H:30])([C:6]([H:15])([H:16])[H:17])[S:3][C:14]([H:35])([C:9]([H:24])([H:25])[H:26])[C:10]([H:27])([H:28])[H:29])[C:13]([H:33])([H:34])[C:8]([H:21])([H:22])[H:23]" dataset=PubChem energy=-44717.86603406058 pbc="F F F"
S       -2.34064233       2.49386094      -1.64539342       0.39686224      -1.24655684       0.07633120
S       -2.19309174      -0.15990426      -0.29147219       1.12837146       0.10593853       1.89802779
S        0.60209017      -0.58860678       2.01559148      -0.15916248      -1.50744844      -1.25389146
C       -1.49556088       1.04183189      -1.41469007       1.90913286       2.95417017      -0.44797669
N       -0.20852410       0.93632107      -1.96571820      -0.48426889      -2.72119092       1.90379282
C       -1.08107455       1.53643006       2.39281020      -0.84709867       1.08614482      -0.78515394
C        1.10594702       3.03322814      -1.54848653       1.87981712      -0.25912688      -0.32482544
C       -0.09283429      -1.30750276      -3.07202332      -2.59109361       2.12051330      -0.24246483
C        3.23567668      -0.86290175       3.23875973      -0.95505917       1.40918870      -3.81877951
C        1.33544407      -0.08412290       4.74584625      -0.07739870       2.23301478       0.02726233
C       -1.14271672       0.14690891       1.95143387       1.56617059      -1.57094439       1.28884451
C        0.66095311       2.00951646      -2.50873153      -1.67690374      -1.40846134      -1.90524602
C        0.37093012      -0.44900502      -1.91587203       1.30243211      -0.29691460      -0.87156183
C        1.85060147      -0.00268841       3.29869435       0.37506868      -2.38574747       1.40619400
H       -0.28205677       2.01913446       1.81082497      -1.09629164       0.67089882      -0.26695512
H       -0.76169606       1.73173898       3.40873406       0.12713111      -0.84118446       0.53392150
H       -2.14326628       1.85299175       2.39336846       0.83550834       0.96982533      -0.62503972
H        1.95981086       2.72412370      -0.96306091       0.49499411      -0.07912781      -0.10288838
H        0.40955790       3.30336498      -0.84575527      -2.11333266       0.52971520       1.36428171
H        1.31774468       3.90224693      -2.13314336       0.52834800       0.70283046      -0.07942026
H        0.47593281      -1.03560592      -3.94447082      -0.42374984       0.27030440      -0.73111321
H       -1.24977755      -1.17410554      -3.16171210       2.14975561      -0.30510122      -0.35060199
H        0.10449520      -2.30994059      -2.90652793       0.33706178      -2.02172145       0.55795050
H        3.66683976      -1.04118675       4.16041133       0.18416269      -0.39358125       2.14699546
H        4.09647671      -0.35201317       2.66042671      -1.74674013      -0.50713866       0.54746663
H        3.02660553      -1.79589528       2.71709332       0.18900436      -0.12766243       0.18173559
H        0.58797064       0.71301703       4.89136503      -0.13892449      -0.47633177      -0.09891190
H        0.91445265      -1.00272519       5.13007829       0.21928037      -0.36517882      -0.41383497
H        2.13765136       0.28548315       5.40146348      -0.02586831      -0.53399272      -0.07367453
H       -1.79197939      -0.44261963       2.65206239       0.15560992       0.07540069      -1.65171338
H        0.08694452       2.50195168      -3.31052058       0.08854591      -0.15161413       0.31369553
H        1.47521997       1.47240673      -3.04449385      -0.41129377       0.47615515       0.65782333
H        0.17307009      -0.98511912      -1.03341096      -0.89215798       0.06237965       1.33182961
H        1.47953451      -0.58459951      -1.93009060      -0.52989641       1.45863788      -0.04330452
H        2.10703663       0.95913234       3.02423451       0.30191680       2.07494640      -0.14703055
