35
Properties=species:S:1:pos:R:3:forces:R:3 id=18252 bond=C-S smiles="[H:18][C:7]([H:19])([H:20])[C:12]([H:31])([H:32])[N:5]([C:4](=[S:1])[S:2][C:11]([H:30])([C:6]([H:15])([H:16])[H:17])[S:3][C:14]([H:35])([C:9]([H:24])([H:25])[H:26])[C:10]([H:27])([H:28])[H:29])[C:13]([H:33])([H:34])[C:8]([H:21])([H:22])[H:23]" dataset=PubChem energy=-44716.024588521446 pbc="F F F"
S       -2.49646720       2.44834471      -1.97813223       0.26549172      -1.05141480       0.00194172
S       -2.34891661      -0.20542049      -0.62421100       0.88608013       0.54263216       0.43117183
S        0.75791504      -0.54309055       2.34833029      -0.85707410      -1.54193451      -1.14383921
C       -1.65138575       0.99631566      -1.74742888       1.74899021       2.21227245      -0.11211286
N       -0.36434897       0.89080484      -2.29845701      -0.41967724      -2.65467998       1.75517578
C       -0.92524968       1.58194629       2.72554901      -0.86128820       0.77611856      -1.10104835
C        0.95012215       2.98771191      -1.88122534       1.88370224      -0.25146678      -0.33960890
C       -0.24865916      -1.35301899      -3.40476213      -2.59829818       2.10392715      -0.23725468
C        3.39150155      -0.81738552       3.57149854      -0.93425612       1.39620057      -3.84823304
C        1.49126894      -0.03860667       5.07858506      -0.16750028       2.20810906      -0.01348262
C       -0.98689185       0.19242514       2.28417268       2.85838853      -1.27942244       2.98458510
C        0.50512824       1.96400023      -2.84147034      -1.69931909      -1.43156969      -1.88402318
C        0.21510525      -0.49452125      -2.24861084       1.27397463      -0.21939223      -0.87381114
C        2.00642634       0.04282782       3.63143316       0.57989815      -2.19163434       1.34656986
H       -0.12623190       2.06465069       2.14356378      -1.08938628       0.68264946      -0.22130796
H       -0.60587119       1.77725521       3.74147287       0.11477848      -0.77383803       0.63668143
H       -1.98744141       1.89850798       2.72610727       0.80451918       0.96039315      -0.58317199
H        1.80398599       2.67860747      -1.29579972       0.50145846      -0.07511619      -0.09612704
H        0.25373303       3.25784875      -1.17849408      -2.11608165       0.52558650       1.36950489
H        1.16191981       3.85673070      -2.46588217       0.53392942       0.70820737      -0.07905671
H        0.32010794      -1.08112215      -4.27720963      -0.41126158       0.27381778      -0.72496920
H       -1.40560242      -1.21962177      -3.49445091       2.15842425      -0.30044673      -0.33247169
H       -0.05132967      -2.35545682      -3.23926674       0.33375015      -2.02892159       0.55277947
H        3.82266463      -0.99567052       4.49315014       0.17099759      -0.39175492       2.14913230
H        4.25230158      -0.30649694       2.99316552      -1.75740152      -0.50905942       0.54713188
H        3.18243040      -1.75037905       3.04983213       0.19575673      -0.13022123       0.18334097
H        0.74379551       0.75853326       5.22410384      -0.13953826      -0.47177817      -0.08903778
H        1.07027752      -0.95720896       5.46281710       0.22038979      -0.36290606      -0.41091138
H        2.29347623       0.33099938       5.73420229      -0.02276302      -0.53333098      -0.10556392
H       -1.63615452      -0.39710340       2.98480120      -0.04254599      -0.11156446      -1.87555380
H       -0.06888035       2.45643545      -3.64325939       0.10190887      -0.14964540       0.31179461
H        1.31939510       1.42689050      -3.37723266      -0.40452816       0.48209703       0.65098998
H        0.01724522      -1.03063535      -1.36614977      -0.93125646       0.04533485       1.35051166
H        1.32370964      -0.63011574      -2.26282941      -0.50609542       1.45914787      -0.06835760
H        2.26286150       1.00464857       3.35697332       0.32681608       2.08245632      -0.13059535
