35
Properties=species:S:1:pos:R:3:forces:R:3 id=18252 bond=C-S smiles="[H:18][C:7]([H:19])([H:20])[C:12]([H:31])([H:32])[N:5]([C:4](=[S:1])[S:2][C:11]([H:30])([C:6]([H:15])([H:16])[H:17])[S:3][C:14]([H:35])([C:9]([H:24])([H:25])[H:26])[C:10]([H:27])([H:28])[H:29])[C:13]([H:33])([H:34])[C:8]([H:21])([H:22])[H:23]" dataset=PubChem energy=-44719.52444969843 pbc="F F F"
S       -2.16750359       2.54443454      -1.27568363       0.45677904      -1.44180858       0.11065817
S       -2.01995300      -0.10933066       0.07823760      -1.70167268      -1.57630863      -3.29368329
S        0.42895143      -0.63918038       1.64588169       0.91488663      -1.23049479      -0.06788800
C       -1.32242214       1.09240549      -1.04498028       2.16556398       3.56754531      -0.98930411
N       -0.03538536       0.98689467      -1.59600841      -0.59943756      -2.76807629       2.05864146
C       -1.25421329       1.48585646       2.02310041      -0.36415272       1.64838336       0.86013902
C        1.27908576       3.08380174      -1.17877674       1.87814284      -0.27418820      -0.31451319
C        0.08030445      -1.25692916      -2.70231353      -2.56226042       2.18455568      -0.31153767
C        3.06253794      -0.91347535       2.86904994      -0.93687801       1.44902074      -3.73688812
C        1.16230533      -0.13469650       4.37613646      -0.02609282       2.25759062       0.06003646
C       -1.31585546       0.09633531       1.58172408       2.29153511      -0.92111840       3.97321257
C        0.83409185       2.06009006      -2.13902174      -1.66455240      -1.38364790      -1.92209229
C        0.54406886      -0.39843142      -1.54616224       1.15295317      -0.45773472      -1.11616104
C        1.67746273      -0.05326201       2.92898456       0.28774352      -2.79342621       1.34742044
H       -0.45519551       1.96856086       1.44111518      -1.12512643       0.58891985      -0.30382279
H       -0.93483480       1.68116538       3.03902427       0.14594785      -0.72193249       0.42425630
H       -2.31640502       1.80241815       2.02365867       0.88063467       0.93948065      -0.69048818
H        2.13294960       2.77469730      -0.59335112       0.49060423      -0.07839089      -0.10786804
H        0.58269664       3.35393858      -0.47604548      -2.11092039       0.53949115       1.35973414
H        1.49088342       3.95282053      -1.76343357       0.52454353       0.69851263      -0.07730973
H        0.64907155      -0.98503232      -3.57476103      -0.43753266       0.25227861      -0.75870778
H       -1.07663881      -1.12353194      -2.79200231       2.14152013      -0.30910215      -0.36289195
H        0.27763394      -2.25936699      -2.53681814       0.34187603      -2.01419854       0.57184901
H        3.49370102      -1.09176035       3.79070154       0.21877145      -0.40198116       2.13914815
H        3.92333797      -0.40258677       2.29071692      -1.72284799      -0.50831656       0.54970721
H        2.85346679      -1.84646888       2.34738353       0.18515226      -0.12307136       0.18521057
H        0.41483190       0.66244343       4.52165524      -0.13970055      -0.48250496      -0.11179113
H        0.74131391      -1.05329879       4.76036850       0.21974929      -0.36793917      -0.41208571
H        1.96451262       0.23490955       5.03175369      -0.02669016      -0.53531237      -0.04764458
H       -1.96511813      -0.49319323       2.28235260       0.56332022       0.30073342      -0.80016225
H        0.26008326       2.55252528      -2.94081079       0.07651948      -0.15320927       0.31396235
H        1.64835871       1.52298033      -2.67478406      -0.42060901       0.46997538       0.66350451
H        0.34620883      -0.93454552      -0.66370117      -0.81734943       0.13848608       0.95288765
H        1.65267325      -0.53402591      -1.56038081      -0.54302577       1.43925762       0.03032016
H        1.93389789       0.90855874       2.65452472       0.26131101       2.07162101      -0.18160985
