22
Properties=species:S:1:pos:R:3:forces:R:3 id=23526 bond=N-P smiles="[H:11][C:6]([H:12])([H:13])[N:4]([C:7]([H:14])([H:15])[H:16])[P:10]([N:5]([C:8]([H:17])([H:18])[H:19])[C:9]([H:20])([H:21])[H:22])([F:1])([F:2])[F:3]" dataset=PubChem energy=-24776.84320649663 pbc="F F F"
F       -0.66626618       0.55590915      -1.71758496       0.05063894      -0.73231754       0.82709614
F        0.51834649       2.08077195      -0.80143045       0.63233874      -0.35526139       0.18535182
F       -1.51783058       0.01604143       0.29879448       0.90402715       0.16182008      -1.11759053
N        1.16604169      -0.48547575      -0.05526763      -1.69618886       2.01378782      -0.03026511
N       -0.08512811       1.42483468       1.40925715       0.69424273      -0.42932504      -0.11034599
C        0.73860333      -1.72014972       0.63601845      -0.29429623       0.03857250      -0.21481296
C        1.99194529      -0.58688613      -1.24772107      -0.74829823      -1.03974412      -0.70674185
C        1.22673549       1.63047613       2.07522050      -0.67647218      -0.33133615      -0.04455121
C       -1.03202579       2.52290560       1.61171917      -0.04007682      -0.19309743      -0.30263068
P       -0.10292838       0.70857866      -0.19067275       0.17403465      -0.22398590       1.67412727
H        0.44189415      -1.42808029       1.67847157      -0.13751009      -0.48440411      -1.14377229
H        1.59075036      -2.42307207       0.73315436      -0.41731879       0.54991424      -0.26664768
H       -0.08289180      -2.19851872       0.02370275       0.74706482       0.16978839       1.15044291
H        2.82799008      -1.25796708      -1.05903148      -0.01571267       0.10880042       0.05885171
H        2.35092308       0.37347737      -1.56005060       0.28747694       0.51392976       0.14119297
H        1.40764740      -0.97100016      -2.10655319       0.36219035      -0.10194334       0.28066983
H        1.71651544       0.67685976       2.19763413       0.14171597      -0.25521018      -0.22017326
H        1.91627433       2.30154325       1.58725027       0.11117140       0.37153427      -0.44588703
H        1.09699740       1.99594355       3.09461585      -0.45948987       0.14666130      -0.13317943
H       -2.02468965       2.29576029       1.19574264       0.40634836      -0.14084706       0.16848112
H       -0.69946430       3.45531178       1.14850716       0.08370259       0.07969990       0.06364021
H       -1.13766728       2.66956879       2.67880598      -0.11021019       0.14264887       0.17712490
