22
Properties=species:S:1:pos:R:3:forces:R:3 id=23526 bond=N-P smiles="[H:11][C:6]([H:12])([H:13])[N:4]([C:7]([H:14])([H:15])[H:16])[P:10]([N:5]([C:8]([H:17])([H:18])[H:19])[C:9]([H:20])([H:21])[H:22])([F:1])([F:2])[F:3]" dataset=PubChem energy=-24740.76213918595 pbc="F F F"
F       -0.66229535       0.71568934      -1.36067752      -0.01169774      -0.67745500       0.71044457
F        0.52231732       2.24055214      -0.44452301       2.99125218       2.37980085      -5.64873066
F       -1.51385975       0.17582162       0.65570192      -4.38106120      -4.64899193      -2.71439619
N        1.17001252      -0.32569556       0.30163981      -1.04695970      -0.89342994      -3.29199074
N       -0.08909894       1.26505449       1.05234971       5.88931804      76.68478468     166.06802265
C        0.74257416      -1.56036953       0.99292589      -0.14276618       0.17243116      -0.68959503
C        1.99591612      -0.42710594      -0.89081363      -0.78292415      -1.47930697      -0.47157447
C        1.22276466       1.47069594       1.71831306       0.96797695       1.26595237       4.52475457
C       -1.03599662       2.36312541       1.25481173      -2.01225700       2.38925802       2.58911278
P       -0.09895755       0.86835885       0.16623469      -1.91989457     -76.40365165    -161.65725304
H        0.44586498      -1.26830010       2.03537901      -0.17989884      -0.49882629      -1.02022647
H        1.59472119      -2.26329188       1.09006180      -0.40673268       0.48481621      -0.22194568
H       -0.07892097      -2.03873853       0.38061019       0.68765345       0.17202232       1.23179005
H        2.83196091      -1.09818689      -0.70212404       0.07410082       0.05148380      -0.04357085
H        2.35489391       0.53325756      -1.20314316       0.26402580       0.56366453       0.13288987
H        1.41161823      -0.81121997      -1.74964575       0.39756505      -0.08639534       0.19155014
H        1.71254461       0.51707957       1.84072669      -0.22198356       0.58739380       0.17912221
H        1.91230350       2.14176306       1.23034283      -0.40142231       0.06970744      -0.52406749
H        1.09302657       1.83616336       2.73770841      -0.58431376       0.49218831      -0.08534239
H       -2.02866048       2.13598010       0.83883520       0.74631193      -0.08229396       0.23587532
H       -0.70343513       3.29553159       0.79159972       0.31220752      -0.55179287       0.35763012
H       -1.14163811       2.50978860       2.32189854      -0.21886101       0.02581807       0.13208715
