22
Properties=species:S:1:pos:R:3:forces:R:3 id=23526 bond=N-P smiles="[H:11][C:6]([H:12])([H:13])[N:4]([C:7]([H:14])([H:15])[H:16])[P:10]([N:5]([C:8]([H:17])([H:18])[H:19])[C:9]([H:20])([H:21])[H:22])([F:1])([F:2])[F:3]" dataset=PubChem energy=-24772.07638981974 pbc="F F F"
F       -0.67420785       0.23634877      -2.43139984       0.14833907      -0.87227783       0.80052020
F        0.51040482       1.76121157      -1.51524533       0.73321594      -0.13405893       1.26251932
F       -1.52577225      -0.30351895      -0.41502040       1.28243537       0.42620236       0.34072816
N        1.15810002      -0.80503613      -0.76908251      -1.67878566       1.76678076       0.25113013
N       -0.07718644       1.74439506       2.12307203      -0.05161150      -0.68488582       0.33241786
C        0.73066166      -2.03971010      -0.07779643      -0.34457155       0.00519277      -0.09548305
C        1.98400362      -0.90644651      -1.96153595      -0.61437345      -0.89918622      -0.79191549
C        1.23467716       1.95003651       2.78903538      -1.20520371      -0.36256193      -0.54417433
C       -1.02408412       2.84246598       2.32553405       0.61563034      -0.51274884      -1.20261586
P       -0.11087005       0.38901828      -0.90448763      -0.19697740      -0.14403718      -0.68788088
H        0.43395248      -1.74764067       0.96465669      -0.10672700      -0.50061409      -1.14107333
H        1.58280869      -2.74263245       0.01933948      -0.42277270       0.57348009      -0.25142687
H       -0.09083347      -2.51807910      -0.69011213       0.76106824       0.18192284       1.12190408
H        2.82004841      -1.57752746      -1.77284636      -0.01214684       0.12475846       0.08929419
H        2.34298141       0.05391699      -2.27386548       0.30129728       0.50719708       0.13218400
H        1.39970573      -1.29056054      -2.82036807       0.32358424      -0.08524144       0.32788198
H        1.72445711       0.99642014       2.91144901       0.12351680      -0.37138167      -0.31369669
H        1.92421600       2.62110363       2.30106515       0.14967200       0.45649207      -0.38992749
H        1.10493907       2.31550393       3.80843073      -0.37016787       0.31772079       0.05923288
H       -2.01674798       2.61532067       1.90955752       0.46151867      -0.20911462       0.09867862
H       -0.69152263       3.77487216       1.86232204       0.05061473       0.25295457       0.16787716
H       -1.12972561       2.98912917       3.39262086       0.04020278       0.17134037       0.43314399
