23
Properties=species:S:1:pos:R:3:forces:R:3 id=12713 bond=C-C smiles="[H:15][C:5]([H:16])([H:17])[C:8]([C:6]([H:18])([H:19])[H:20])([C:7]([H:21])([H:22])[H:23])[S:1][N:2]([C:3]([H:9])([H:10])[H:11])[C:4]([H:12])([H:13])[H:14]" dataset=PubChem energy=-18797.04421142681 pbc="F F F"
S       -0.67351522       1.30293237       0.07258123       0.96965745       0.85909509      -0.45265288
N       -0.75052406       0.31236391       1.40019488      -0.02598061      -0.62199075       0.49580426
C       -0.64426549       1.08466540       2.64937353      -0.23140280      -1.10596596       0.20538567
C       -1.75725080      -0.77933802       1.31963986       0.34154020       0.87646886       0.44984653
C        1.36491917       1.96755134      -1.62171447       1.14800839       0.36545332       0.79536041
C        0.88087003      -0.46832920      -1.20606375      -0.29005400      -0.20024495       1.04552750
C        2.46778757       0.79823252       0.86622981      -1.58085230       0.00271424      -1.64577987
C        1.00810461       0.91674526      -0.56783366       1.43811134      -0.64239862       1.46370485
H       -1.54661025       1.67563628       2.81186890       0.04806834       0.25032505       0.11014485
H       -0.54877056       0.37850476       3.48707079      -0.01751600       0.18233696      -0.17165781
H        0.24921387       1.71657799       2.63859462      -0.35406005      -0.15996364      -0.16511830
H       -1.78587915      -1.12883879       0.29180051       0.00518806      -0.02484595       0.09753211
H       -2.74795796      -0.39505662       1.59284114      -0.02251380      -0.21591221      -0.02626932
H       -1.49742068      -1.61306144       1.98213315       0.03202053       0.27194223      -0.07527730
H        1.38706420       2.98850296      -1.21641243      -0.31406251      -0.31949196       0.02478682
H        2.38908551       1.83133672      -2.01808930      -0.55721109      -0.32963406       0.13537659
H        0.66917656       1.92751323      -2.44471622      -0.26572931      -0.00856757      -0.28315051
H        0.57728348      -1.24926616      -0.47141797       0.22644728       0.68623770      -0.43576014
H        0.14105062      -0.45817150      -2.01025462       0.04727740       0.13156930       0.11138406
H        1.81781075      -0.74925579      -1.61347986       0.98001105      -0.44299855      -0.46462500
H        2.67532796       1.78849834       1.27934353      -0.48765471      -0.03479354      -0.20380023
H        3.42598993       0.45450395       0.42181395      -0.93263028       0.01858275      -0.19150291
H        2.17128652       0.10414329       1.68014221      -0.15450244       0.45893906      -0.81678164
