15
Properties=species:S:1:pos:R:3:forces:R:3 id=12878 bond=C-C smiles="[H:6][C:1](=[C:2]([C:4]([H:10])([H:11])[H:12])[C:5]([H:13])([H:14])[H:15])[C:3]([H:7])([H:8])[H:9]" dataset="DES370K Monomers" energy=-5346.412573011994 pbc="F F F"
C       -0.67621068       0.35131264      -0.49909599       2.80802761      -1.18820712       1.15115789
C       -0.58809210      -0.64744395       0.47101672       3.00220844       5.44064317      -3.66650528
C        1.25901476       1.51986986      -1.59042446      -0.82582322      -1.96190006       0.32936755
C        0.68559619      -1.11478168       1.11302243       0.11377144       0.08521473      -0.76938719
C       -1.84863345      -1.06314856       0.92688821      -1.04209598      -2.83820034       3.00230376
H       -1.66175691       0.69048804      -0.79493601       0.40468050       0.41483457      -0.52145276
H        1.59215013       1.00930947      -2.56172340      -1.00671882       0.80348070       1.65493068
H        1.02827207       2.55680257      -1.60445969      -1.29928467       0.62707887      -0.87819195
H        2.05155734       1.59483355      -0.86654185       0.30998816      -1.22154442       0.54424207
H        1.19596561      -0.21817045       1.60835831      -0.26385220      -1.54532725      -1.03577913
H        0.39614364      -1.83278018       1.87777404       0.40519370      -0.05319018       0.09594020
H        1.22157021      -1.66905767       0.28076382       0.17176401       0.93933227       1.39935839
H       -1.69383780      -1.47809440       1.99541931      -0.96526771       0.89336337      -1.43204265
H       -2.08695118      -1.90921396       0.31991017      -0.82124566      -0.85286004      -0.18373017
H       -2.57814638      -0.30782956       0.81480204      -0.99121182       0.45725564       0.31021718
