15
Properties=species:S:1:pos:R:3:forces:R:3 id=12878 bond=C-C smiles="[H:6][C:1](=[C:2]([C:4]([H:10])([H:11])[H:12])[C:5]([H:13])([H:14])[H:15])[C:3]([H:7])([H:8])[H:9]" dataset="DES370K Monomers" energy=-5344.970454480932 pbc="F F F"
C       -0.85375429       0.24410555      -0.39897411       1.77105809      -1.93202314       1.87267967
C       -0.76563571      -0.75465104       0.57113860       3.26115163       5.47699971      -3.72189730
C        1.43655837       1.62707695      -1.69054634       0.26155574      -1.28509472      -0.29107505
C        0.50805258      -1.22198877       1.21314431       0.13160879       0.05959390      -0.74099899
C       -2.02617706      -1.17035565       1.02701009      -1.12131837      -2.78558124       2.93870795
H       -1.83930052       0.58328095      -0.69481413       0.40786286       0.53912215      -0.64104727
H        1.76969374       1.11651656      -2.66184528      -1.07934930       0.71945909       1.65090259
H        1.20581568       2.66400966      -1.70458157      -1.42307436       0.62027360      -0.83365884
H        2.22910095       1.70204064      -0.96666373       0.26204163      -1.28531421       0.62474565
H        1.01842200      -0.32537754       1.70848019      -0.27190867      -1.54276684      -1.04743600
H        0.21860003      -1.93998727       1.97789592       0.39922028      -0.05461717       0.09470422
H        1.04402660      -1.77626476       0.38088570       0.16436501       0.94768507       1.39705960
H       -1.87138141      -1.58530149       2.09554119      -0.94260972       0.91052372      -1.43175588
H       -2.26449479      -2.01642105       0.42003205      -0.81141518      -0.84202771      -0.18895846
H       -2.75568999      -0.41503665       0.91492392      -1.00893895       0.45356961       0.31828624
