41
Properties=species:S:1:pos:R:3:forces:R:3 id=20344 bond=C-N smiles="[H:41][C:14]1([C:13]([C:15]([C:11]1([H:38])[O:1][H:16])([C:9]([H:32])([H:33])[H:34])[C:10]([H:35])([H:36])[H:37])([H:40])[N:3]([C:6]([H:23])([H:24])[H:25])[C:7]([H:26])([H:27])[H:28])[C:12]([H:39])([C:8]([H:29])([H:30])[H:31])[N:2]([C:4]([H:17])([H:18])[H:19])[C:5]([H:20])([H:21])[H:22]" dataset=PubChem energy=-17900.28314304709 pbc="F F F"
O        2.48962388      -0.25069872       2.26175955       0.45298280       0.75896290       0.09814386
N       -1.58730843       1.73215017       1.58412245       0.88450392       2.94631014      -2.10804356
N        0.29701490       0.17850438      -1.40873918      -1.17959667      -0.44561009       2.69716166
C       -2.31380417       0.88605572       2.46476677      -0.59554903      -0.22327946      -0.07027057
C       -2.29148557       2.35753926       0.38966819      -0.66152191      -0.89565491       0.50282917
C       -0.31464111      -2.00866370      -0.76370858       0.15263320       0.72473899      -1.70156836
C        0.41801918       0.50209802      -2.83082314       0.90248742      -1.27585339       1.17844564
C        0.27678678       2.33171150       3.27214888       0.06970265       0.66341046      -2.73492911
C        3.38181517      -0.52199605      -0.46254953      -1.60251459       0.68286769       1.24834336
C        3.53131077       1.94621512      -0.50042816      -0.47626762      -0.40137940      -1.74566486
C        2.11443767       0.91105386       1.49846927       1.85993389      -0.78686855       0.05418087
C       -0.16651579       2.06927272       1.72690323       0.72504938      -0.66894464       1.02779819
C        1.03788406       0.98099322      -0.39168438       0.21568389      -2.06077887      -0.24849057
C        0.67091983       0.88611838       1.15979603      -0.40707500       1.29817368      -1.73234901
C        2.59283719       0.75046035      -0.03600281       0.70565072       2.14217786       0.25763928
H        3.45296404      -0.17245296       2.28608505      -0.32044470      -0.43698371       0.27624481
H       -1.91125753       0.86351304       3.49774054      -0.14912683       0.13639402      -0.69569058
H       -2.43123271      -0.16195265       2.11317495       0.27525018       0.25136884       0.12841186
H       -3.33205869       1.29237803       2.48384336      -0.02540274      -0.18945818       0.41251803
H       -1.73504021       3.09208569      -0.25787654       0.11259722      -0.85877876       1.29195780
H       -3.20121481       2.90554377       0.75675581       0.61656967      -0.52371811      -0.34550997
H       -2.62264898       1.56774053      -0.34480854       0.20702670       0.62667277       0.78614241
H       -0.26283150      -2.61993150      -1.69574522       0.26836195       1.03832832       0.45337057
H        0.27486628      -2.52681236       0.00421352       0.06021399       1.05441101      -0.07542807
H       -1.37776702      -1.86420850      -0.52456950       0.77287361       0.56521802       0.12404246
H        0.97278399       1.46494999      -2.89811465      -0.04761911      -0.91418235      -0.33842452
H       -0.54598656       0.60629239      -3.29026624      -0.66590382       0.25144363      -0.13104161
H        0.87263132      -0.38630834      -3.30690523       0.43515616       0.92153261      -0.38204406
H        1.17188266       2.99069008       3.37055138      -0.80868258      -0.45123550      -0.29988920
H       -0.58122935       2.83219417       3.66302946      -0.34554591       0.04637100       0.94431119
H        0.53640106       1.38086888       3.66038564      -0.14448181      -0.72625546       0.99949679
H        4.13886949      -0.87536517       0.21242293       0.40423366       0.34260298       0.52805063
H        3.80974648      -0.39701942      -1.40799853       0.78719963       0.57430491      -1.39829628
H        2.74137065      -1.34323397      -0.59060820      -1.16813972      -1.15758018       0.01838382
H        3.34337303       2.96044430      -0.10051533      -0.50858402      -0.54038528      -0.48989745
H        3.74303839       1.93512115      -1.65506288      -1.12706008       0.32837892       1.91487471
H        4.51721141       1.73518059      -0.18910071       1.23448531      -0.41592879       0.88011645
H        2.38718686       1.83988723       2.08781484       0.19728760      -0.91543821      -1.11979878
H        0.09088418       3.03029856       1.20088295      -0.60455271      -1.06726631       0.17632924
H        0.96449373       2.04009756      -0.64375791      -0.25522357      -0.09065173      -0.51494454
H        0.22968850      -0.06140539       1.41307727      -0.24899892      -0.31055191       0.13533647
