41
Properties=species:S:1:pos:R:3:forces:R:3 id=20344 bond=C-N smiles="[H:41][C:14]1([C:13]([C:15]([C:11]1([H:38])[O:1][H:16])([C:9]([H:32])([H:33])[H:34])[C:10]([H:35])([H:36])[H:37])([H:40])[N:3]([C:6]([H:23])([H:24])[H:25])[C:7]([H:26])([H:27])[H:28])[C:12]([H:39])([C:8]([H:29])([H:30])[H:31])[N:2]([C:4]([H:17])([H:18])[H:19])[C:5]([H:20])([H:21])[H:22]" dataset=PubChem energy=-17900.118053474092 pbc="F F F"
O        2.49539422      -0.23006506       2.25567436       0.45373526       0.76053510       0.09722075
N       -1.58153809       1.75278383       1.57803726       0.88523498       2.94766274      -2.10804771
N        0.30278524       0.19913804      -1.41482437      -1.22234102      -0.27839345       2.64141245
C       -2.30803383       0.90668938       2.45868158      -0.59556084      -0.22448760      -0.07039799
C       -2.28571523       2.37817292       0.38358300      -0.66202916      -0.89672287       0.50236611
C       -0.32041145      -2.02929736      -0.75762339       0.12862463       0.53259129      -1.63678412
C        0.42378952       0.52273168      -2.83690833       0.93745599      -1.25828061       1.18833192
C        0.28255712       2.35234516       3.26606369       0.07025231       0.66343369      -2.73512229
C        3.38758551      -0.50136239      -0.46863472      -1.60379753       0.68185390       1.24641588
C        3.53708111       1.96684878      -0.50651335      -0.47464729      -0.40096759      -1.74582190
C        2.12020801       0.93168752       1.49238408       1.85780842      -0.78855651       0.05543976
C       -0.16074545       2.08990638       1.72081804       0.72418484      -0.66914427       1.02680693
C        1.04365440       1.00162688      -0.39776957       0.23863754      -2.09212560      -0.25132635
C        0.67669017       0.90675204       1.15371084      -0.40788067       1.29400631      -1.73201987
C        2.59860753       0.77109401      -0.04208800       0.71113093       2.14872082       0.25898345
H        3.45873438      -0.15181930       2.27999986      -0.32033989      -0.43693180       0.27649262
H       -1.90548719       0.88414670       3.49165535      -0.14906950       0.13659988      -0.69560461
H       -2.42546237      -0.14131899       2.10708976       0.27559836       0.25207595       0.12824457
H       -3.32628835       1.31301169       2.47775817      -0.02537541      -0.18916749       0.41253473
H       -1.72926987       3.11271935      -0.26396173       0.11260318      -0.85811476       1.29198549
H       -3.19544447       2.92617743       0.75067062       0.61670526      -0.52337035      -0.34548448
H       -2.61687864       1.58837419      -0.35089373       0.20735194       0.62655209       0.78668880
H       -0.26860184      -2.64056516      -1.68966003       0.27573762       1.04907571       0.44552687
H        0.26909594      -2.54744602       0.01029871       0.06028624       1.05138037      -0.07305645
H       -1.38353736      -1.88484216      -0.51848431       0.77142731       0.59744546       0.12105579
H        0.97855433       1.48558365      -2.90419984      -0.03842462      -0.91083687      -0.34821032
H       -0.54021622       0.62692605      -3.29635143      -0.66964713       0.24199049      -0.12133847
H        0.87840166      -0.36567468      -3.31299042       0.43346246       0.92022876      -0.37770006
H        1.17765300       3.01132374       3.36446619      -0.80857972      -0.45117201      -0.29977576
H       -0.57545901       2.85282783       3.65694427      -0.34551240       0.04631287       0.94410109
H        0.54217140       1.40150254       3.65430045      -0.14455364      -0.72622985       0.99933750
H        4.14463983      -0.85473151       0.20633774       0.40374116       0.34373959       0.52859210
H        3.81551682      -0.37638576      -1.41408372       0.78767276       0.57478683      -1.39831932
H        2.74714099      -1.32260031      -0.59669339      -1.16996501      -1.15766472       0.01925432
H        3.34914337       2.98107796      -0.10660052      -0.50871781      -0.54022254      -0.48974700
H        3.74880873       1.95575481      -1.66114807      -1.12700013       0.32827033       1.91517572
H        4.52298175       1.75581425      -0.19518590       1.23424080      -0.41597988       0.88000123
H        2.39295720       1.86052089       2.08172965       0.19810991      -0.91509372      -1.12020711
H        0.09665452       3.05093222       1.19479776      -0.60473977      -1.06594968       0.17653598
H        0.97026407       2.06073122      -0.64984310      -0.25839987      -0.08890908      -0.52382409
H        0.23545884      -0.04077173       1.40699208      -0.24987601      -0.31205080       0.13193526
