41
Properties=species:S:1:pos:R:3:forces:R:3 id=20344 bond=C-N smiles="[H:41][C:14]1([C:13]([C:15]([C:11]1([H:38])[O:1][H:16])([C:9]([H:32])([H:33])[H:34])[C:10]([H:35])([H:36])[H:37])([H:40])[N:3]([C:6]([H:23])([H:24])[H:25])[C:7]([H:26])([H:27])[H:28])[C:12]([H:39])([C:8]([H:29])([H:30])[H:31])[N:2]([C:4]([H:17])([H:18])[H:19])[C:5]([H:20])([H:21])[H:22]" dataset=PubChem energy=-17891.9474396298 pbc="F F F"
O        2.30785818      -0.90065905       2.45344317       0.42155975       0.83522323      -0.00209372
N       -1.76907413       1.08218984       1.77580607       0.97613539       2.93768790      -2.19722412
N        0.11524920      -0.47145595      -1.21705556      24.37810818      67.51332216     -19.03834549
C       -2.49556987       0.23609539       2.65645039      -0.66451128      -0.35230108      -0.01819519
C       -2.47325127       1.70757893       0.58135181      -0.62192210      -0.87337849       0.50475338
C       -0.13287541      -1.35870337      -0.95539220     -20.18308776     -63.38338001      16.92995721
C        0.23625348      -0.14786231      -2.63913952       1.20133236       2.01364490       1.04764189
C        0.09502108       1.68175117       3.46383250       0.08717356       0.64508988      -2.74085719
C        3.20004947      -1.17195638      -0.27086591      -1.52971400       0.56415128       1.17747374
C        3.34954507       1.29625479      -0.30874454      -0.55797207      -0.37610991      -1.81623947
C        1.93267197       0.26109353       1.69015289       1.81788098      -0.81198144       0.06008596
C       -0.34828149       1.41931239       1.91858685       0.65844515      -0.60678761       1.03294094
C        0.85611836       0.33103289      -0.20000076       0.49562293       1.41320982      -0.14972660
C        0.48915413       0.23615805       1.35147965      -0.53792876       1.26682292      -1.63433873
C        2.41107149       0.10050002       0.15568081       0.59093681       1.84942674       0.16130916
H        3.27119834      -0.82241329       2.47776867      -0.31052463      -0.43901255       0.29478751
H       -2.09302323       0.21355271       3.68942416      -0.14933552       0.15343994      -0.69594393
H       -2.61299841      -0.81191298       2.30485857       0.29001407       0.30915375       0.12749494
H       -3.51382439       0.64241770       2.67552698      -0.01689508      -0.17998455       0.41656607
H       -1.91680591       2.44212536      -0.06619292       0.11719607      -0.82501450       1.30054274
H       -3.38298051       2.25558344       0.94843943       0.62117197      -0.54104418      -0.37386055
H       -2.80441468       0.91778020      -0.15312492       0.15698289       0.59859466       0.78875428
H       -0.08106580      -1.96997117      -1.88742884      -0.73150853      -2.43380836       0.78105371
H        0.45663198      -1.87685203      -0.18747010      -0.37114434      -1.07605034       0.67752928
H       -1.19600132      -1.21424817      -0.71625312      -3.21277811      -3.66134452       1.87454316
H        0.79101829       0.81498966      -2.70643103      -0.26147048      -0.80524655      -0.57958860
H       -0.72775226      -0.04366794      -3.09858262      -0.81357617       0.17296538      -0.16695420
H        0.69086562      -1.03626867      -3.11522161       0.37006453       0.55364013       0.02793294
H        0.99011696       2.34072975       3.56223500      -0.80766697      -0.44755576      -0.30147364
H       -0.76299505       2.18223384       3.85471308      -0.34025917       0.03927386       0.93671087
H        0.35463536       0.73090855       3.85206926      -0.15015967      -0.72378157       1.00512462
H        3.95710379      -1.52532550       0.40410655       0.39445969       0.34211294       0.51734152
H        3.62798078      -1.04697975      -1.21631491       0.80071850       0.58746360      -1.39355440
H        2.55960495      -1.99319430      -0.39892458      -1.01602029      -1.16101096       0.04750340
H        3.16160733       2.31048397       0.09116829      -0.51684962      -0.55821433      -0.49041406
H        3.56127269       1.28516082      -1.46337926      -1.12184837       0.32910347       1.92576474
H        4.33544571       1.08522026       0.00258291       1.20604276      -0.45987922       0.88927968
H        2.20542116       1.18992690       2.27949846       0.18723353      -0.92367664      -1.14776448
H       -0.09088152       2.38033823       1.39256657      -0.59686872      -1.07431660       0.17413009
H        0.78272803       1.39013723      -0.45207429      -0.03259259      -0.10365687      -0.18598039
H        0.04792280      -0.71136572       1.60476089      -0.22560872      -0.30725657       0.23340710
