38
Properties=species:S:1:pos:R:3:forces:R:3 id=26778 bond=C-S smiles="[H:38][C@@:16]12[C@@:15]([C@@:13]3([C:9]([C@:14]1([C@:12]([C:8]3([H:26])[H:27])([H:34])/[N:1]=[C:3](/[N:4]([C:5]([H:18])([H:19])[H:20])[C:6]([H:21])([H:22])[H:23])[S:2][H:17])[H:36])([H:28])[H:29])[H:35])([C:10]([C:7]([C:11]2([H:32])[H:33])([H:24])[H:25])([H:30])[H:31])[H:37]" dataset=PubChem energy=-27667.81382772188 pbc="F F F"
N       -0.49873783       1.28918883      -0.29558621       0.19734610       2.69944187      -0.01137137
S       -0.44119501       3.89599575       0.51553689       0.27003370       0.38571308       0.12650093
C       -1.17260732       2.41724041      -0.08352534       0.97207323      -3.70424750      -1.10627117
N       -2.50644125       2.38049045      -0.36617224      -1.26432816       0.39306603       0.03876957
C       -3.10094799       1.08634910      -0.81331114       0.33422226       0.82394486       0.19204119
C       -3.28722085       3.63482919      -0.49853842      -0.43942198      -1.23891524       0.85299547
C        2.28282808      -2.36109289       2.70069476       0.80767781      -1.68099916      -0.15308378
C        1.68334197       0.36170280      -1.17652885       0.26280696       0.09384941      -0.17050751
C        3.01022278       0.80557400       0.80415715       0.50489542      -0.91735840      -0.57290348
C        3.03964244      -2.24684033       1.34967579       0.59208193       0.50469242       1.63464247
C        1.55652033      -1.08383426       2.89466567      -0.34243488       1.96954052      -0.00113957
C        0.99314226       1.36190250      -0.23943858      -1.42426203      -0.03408174       0.90517475
C        2.74199473      -0.28234926      -0.25721477       1.23627111       0.17116902      -1.37837459
C        1.56638478       0.92369371       1.13700731      -0.93577603       1.01696129       1.27547566
C        2.09862386      -1.36036524       0.55718547      -0.58768367      -0.56814792      -0.93789782
C        1.16725884      -0.53488526       1.48489828      -0.31803986      -0.55591649       0.33186073
H       -1.58801299       4.48263825       0.86484683       0.17798107       0.07474369       0.00746530
H       -2.72298802       0.84034756      -1.80607252       0.11141121      -0.22754284       0.15125679
H       -2.87617148       0.28152225      -0.10299735       0.14194206       0.34627258      -0.31259492
H       -4.18290175       1.19135174      -0.88178698       0.09785585       0.21086000       0.12182860
H       -2.83851303       4.32723585      -1.19423454       0.15822052       0.19406537      -0.14985546
H       -4.30792416       3.38950768      -0.84146647       0.62876974       0.06389921       0.16054261
H       -3.38261522       4.09351053       0.50480450      -0.16674022       0.02821532      -0.62273511
H        2.93749987      -2.60144147       3.56838389      -0.46292913      -0.03375564      -0.64552551
H        1.53899966      -3.16315374       2.57555862       0.27051404       0.05967069       0.26082296
H        2.14486073       0.83178887      -2.05160241      -0.10785336       0.08144867       0.25191725
H        0.97734316      -0.36947259      -1.55850248      -0.09391843      -0.06881834       0.09813945
H        3.65061317       0.48413346       1.61215134       0.04952495      -0.28059604       0.24632806
H        3.45469247       1.68338731       0.39247114       0.15586634       0.75005284      -0.36406050
H        4.04111443      -1.78842339       1.55904754      -0.82969955      -0.15129819      -0.44418503
H        3.22392641      -3.21859249       0.89326121      -0.07134456       0.11924047      -0.03977501
H        2.20339702      -0.33515433       3.37689085      -0.16509270      -0.20722363       0.00867923
H        0.70215060      -1.24857077       3.53405161      -0.28813680       0.26915300       0.20323108
H        1.35500108       2.38227168      -0.47205285      -0.16319063      -0.38523198       0.20908647
H        3.61965667      -0.57840082      -0.84078078      -0.08990630      -0.20683244       0.25312586
H        1.36067008       1.64583579       1.94217284      -0.22792110      -0.27320313      -0.28275058
H        1.45368730      -2.01949867      -0.02551935       0.21112623       0.06512812      -0.35870731
H        0.09561990      -0.72384879       1.25174226       0.79868253       0.21106981       0.21971155
