35
Properties=species:S:1:pos:R:3:forces:R:3 id=37460 bond=C-O smiles="[H:33][C@:14]1([C@@:11]([C:9]([C@:12]([O:6][C@@:16]1([H:35])[C@@:15]([H:34])([C@@:13]([H:32])([C:10]([H:29])([H:30])[O:1][H:17])[O:4][H:20])[O:5][H:21])([C:8]([H:24])([H:25])[H:26])[O:3][H:19])([H:27])[H:28])([H:31])[O:2][H:18])[N:7]([H:22])[H:23]" dataset=PubChem energy=-23428.025378812785 pbc="F F F"
O       -1.67842733       3.95088138      -1.63159256       0.16678679      -0.62037937       0.22126451
O        2.10241378      -0.10804650       4.01629705       0.76390971       0.58067623      -0.11525127
O        2.53002918       0.37508907      -0.16545563       1.15992867      -0.05138558       0.83009816
O       -0.87675746       1.11050810      -2.18431416      -1.62936410       1.17245147       2.74378251
O       -2.12614142      -0.25921575       0.63642843       1.12894019      -0.42170307       0.35202025
O        0.44943740      -0.36536750       0.22005357      -0.73297978      -0.67569558       0.18866051
N        0.37242314       2.12050953       3.06598492      -0.73937704      -0.65446423       0.06044393
C        2.11746657      -1.99188289      -0.46832125      -0.32639517      -0.45950066      -0.32122910
C        2.16279710      -0.99720821       1.80517347      -0.36279543       0.73999145      -0.29432470
C       -1.65626775       3.34762588      -0.32669454       1.39121923      -0.92962521      -2.16119585
C        1.88983072       0.26466339       2.62619931       0.83227037      -1.23475012      -0.31819363
C        1.82356668      -0.73677477       0.33269910       0.15217648       0.41380994       0.03791629
C       -1.88740789       1.83020046      -0.50619881      -0.03535772      -0.61891951       0.92945479
C        0.47077271       0.78509122       2.40455813       0.79111952       0.59455360       0.96913526
C       -1.46017575       1.00963118       0.74696285      -0.49438846      -0.70165327      -1.29420476
C        0.05829744       0.83849817       0.89729854       0.91545020      -0.31066354       1.13921284
H       -1.24097513       3.27687326      -2.19289522      -0.41536206       0.60734939       0.15262677
H        3.06794585      -0.27154079       4.17887158      -1.56354471       0.35682208      -0.49499973
H        2.14750314       0.64267519      -0.99543862      -0.30242476      -0.10450523      -0.46041666
H       -1.14625510       0.17500604      -2.32026091      -0.13301100       1.05684457       0.66932843
H       -1.43076276      -0.94487748       0.47937156      -0.75356639       0.96618861       0.09470683
H        0.53617040       2.00363126       4.08079142       0.01009437       0.21412887      -1.11169308
H        1.03648890       2.78588476       2.67278190      -0.09252081      -0.39914466       0.26211467
H        1.67406691      -2.83872757       0.07005538       0.03545155       0.09881868      -0.34316337
H        3.20998467      -2.20099744      -0.56071298      -0.90759909       0.52189225       0.13897132
H        1.65790022      -1.91986022      -1.46516828       0.26579079      -0.08115467       0.28426858
H        3.19855178      -1.31062434       1.92116530       0.05272993       0.04237507      -0.11342845
H        1.52356685      -1.82013759       2.16671927       0.21621154       0.41789919      -0.18674742
H       -2.42657839       3.81559816       0.30135868       0.23501755      -0.43718399      -0.14867347
H       -0.64476358       3.48026457       0.08440973      -0.42381087       0.21781138       0.33024631
H        2.56954802       1.06397143       2.30997152       0.07084758      -0.19249901       0.21346617
H       -2.96905958       1.63461199      -0.63271015       0.90661154      -0.28184907      -0.97878466
H       -0.15831720       0.08244982       2.94367594      -0.45995745       0.07602389      -0.03669498
H       -1.86984574       1.50876822       1.67429514       0.47970627      -0.11265537      -1.10355038
H        0.60418454       1.66623392       0.45533724      -0.20239713       0.20942162      -0.13041729
