35
Properties=species:S:1:pos:R:3:forces:R:3 id=37460 bond=C-O smiles="[H:33][C@:14]1([C@@:11]([C:9]([C@:12]([O:6][C@@:16]1([H:35])[C@@:15]([H:34])([C@@:13]([H:32])([C:10]([H:29])([H:30])[O:1][H:17])[O:4][H:20])[O:5][H:21])([C:8]([H:24])([H:25])[H:26])[O:3][H:19])([H:27])[H:28])([H:31])[O:2][H:18])[N:7]([H:22])[H:23]" dataset=PubChem energy=-23419.89352210925 pbc="F F F"
O       -1.40232180       3.75426440      -2.09004675       0.23859806      -0.90846590       0.16146818
O        2.37851931      -0.30466348       3.55784286       0.78728954       0.55451677      -0.13416357
O        2.80613471       0.17847209      -0.62390982       1.17353671      -0.02317411       0.75885920
O       -1.15286299       1.30712508      -1.72585997      34.09165873     -25.68748139     -58.20845089
O       -1.85003589      -0.45583273       0.17797424       1.23017200      -0.63531869      -0.75867844
O        0.72554293      -0.56198448      -0.23840062      -0.54231530      -0.80014168      -0.08127457
N        0.64852867       1.92389255       2.60753073      -0.66036359      -0.69621387       0.07236316
C        2.39357210      -2.18849987      -0.92677544      -0.29560900      -0.45150673      -0.30309775
C        2.43890263      -1.19382519       1.34671928      -0.36787008       0.74031662      -0.28866591
C       -1.38016222       3.15100890      -0.78514873      -0.04880666       1.03009926       0.36329696
C        2.16593625       0.06804641       2.16774512       0.82011029      -1.18872380      -0.28767692
C        2.09967221      -0.93339175      -0.12575509       0.13518632       0.30763107       0.06233793
C       -1.61130236       1.63358348      -0.96465300     -32.19167777      23.84692481      54.38561686
C        0.74687824       0.58847424       1.94610394       0.79998483       0.64503199       0.97090386
C       -1.18407022       0.81301420       0.28850866      -1.48003806       0.71797555       3.83116003
C        0.33440297       0.64188119       0.43884435       0.46742086      -0.15508272       1.17846233
H       -0.96486960       3.08025628      -2.65134941      -0.40703716       0.81405634       0.18129214
H        3.34405138      -0.46815777       3.72041739      -1.56237427       0.35916134      -0.48857411
H        2.42360867       0.44605821      -1.45389281      -0.20970444      -0.12109239      -0.38988583
H       -1.42236063       0.37162302      -1.86180672       1.21243775      -0.35093373      -1.25078362
H       -1.15465723      -1.14149446       0.02091737      -0.79582321       0.85385698       0.26394594
H        0.81227593       1.80701428       3.62233723       0.00780356       0.21049392      -1.11575240
H        1.31259443       2.58926778       2.21432771      -0.10498020      -0.39045423       0.25692474
H        1.95017244      -3.03534455      -0.38839881       0.03511087       0.10534672      -0.34844082
H        3.48609020      -2.39761442      -1.01916717      -0.90933559       0.51625955       0.13375787
H        1.93400575      -2.11647720      -1.92362247       0.26331294      -0.09528167       0.26915905
H        3.47465731      -1.50724132       1.46271111       0.05381469       0.03471100      -0.12251706
H        1.79967238      -2.01675457       1.70826508       0.21393540       0.41754436      -0.19029310
H       -2.15047286       3.61898118      -0.15709551       0.45748277      -0.11882936      -0.22895980
H       -0.36865805       3.28364759      -0.37404446      -0.24932377       0.17456434       0.24418865
H        2.84565355       0.86735445       1.85151733       0.07862774      -0.19481636       0.21703508
H       -2.69295405       1.43799501      -1.09116434      -2.28201744       0.77930498       1.77342722
H        0.11778833      -0.11416716       2.48522175      -0.46279676       0.08909643      -0.06286859
H       -1.59374021       1.31215124       1.21584095       0.63757049      -0.61773531      -0.71604769
H        0.88029007       1.46961694      -0.00311695      -0.13334441       0.24130066      -0.14590898
