12
Properties=species:S:1:pos:R:3:forces:R:3 id=39874 bond=C-O smiles="[H:12][C:10]([C:9]([F:2])([F:3])[F:4])([O:7][C:8]([H:11])([F:1])[Cl:6])[F:5]" dataset=PubChem energy=-31310.103854905596 pbc="F F F"
F       -0.28186051       0.79280125      -1.87710055      -1.18244873       0.55088107       1.01022034
F        2.14132979       0.53856538       2.73024547      -1.53661025       1.15139262      -0.84081400
F        0.65683460       2.21892281       2.81344974       1.00445419      -0.72027274      -0.79747045
F        2.23225536       2.10125061       1.21929538      -1.44617466      -0.36999206       0.78590960
F       -0.48976633      -0.47265063       1.56202019       1.83169142       3.01153613       0.04218974
Cl       0.64006344      -1.41157237      -2.17716702       0.61647262      -1.03857254      -0.13778616
O        0.94538370       0.11421808      -0.15037048      -0.06509467       1.25314229       2.80113561
C       -0.00930904      -0.25187454      -1.04019912      -0.02874805      -1.47985000      -0.85820967
C        1.35738590       1.39924236       1.98726583       0.70963497      -1.56085504       0.23479972
C        0.28648613       0.66596382       1.04746348       0.73525064      -2.20922514      -1.56502754
H       -0.81766079      -0.81911031      -0.49735137       0.06712492       1.52019694      -1.06657633
H       -0.35723684       1.45664575       0.68949385      -0.70002465      -0.08609989       0.39652519
