12
Properties=species:S:1:pos:R:3:forces:R:3 id=39874 bond=C-O smiles="[H:12][C:10]([C:9]([F:2])([F:3])[F:4])([O:7][C:8]([H:11])([F:1])[Cl:6])[F:5]" dataset=PubChem energy=-31305.83711672172 pbc="F F F"
F       -0.69101453       0.63590442      -2.25845568      -0.06430929      -0.59089846       2.98173340
F        2.55048381       0.69546221       3.11160060      -1.42004307       1.14118107      -0.72557615
F        1.06598862       2.37581964       3.19480487       1.02478704      -0.52974928      -0.57815214
F        2.64140938       2.25814744       1.60065051      -1.31638121      -0.24566476       0.84618415
F       -0.08061231      -0.31575380       1.94337532       1.40619418       2.70764865       0.17184560
Cl       0.23090942      -1.56846920      -2.55852215       0.58801228       0.15508574       1.44398055
O        1.35453772       0.27111491       0.23098465      -2.71753698       0.74028593       1.24649895
C       -0.41846306      -0.40877137      -1.42155425       0.65655782      -0.45090940      -2.72541899
C        1.76653992       1.55613919       2.36862096       0.44398789      -1.72976146       0.03655734
C        0.69564015       0.82286065       1.42881861       1.30561132      -2.90934890      -3.57849209
H       -1.22681481      -0.97600714      -0.87870650       0.80314392       1.74509684       0.35687669
H        0.05191718       1.61354258       1.07084898      -0.71795198      -0.03866572       0.50547851
