12
Properties=species:S:1:pos:R:3:forces:R:3 id=39874 bond=C-O smiles="[H:12][C:10]([C:9]([F:2])([F:3])[F:4])([O:7][C:8]([H:11])([F:1])[Cl:6])[F:5]" dataset=PubChem energy=-31309.346431300102 pbc="F F F"
F       -0.38793748       0.75212430      -1.97597040      -0.56363445      -0.05079571       2.08285332
F        2.24740676       0.57924233       2.82911532      -1.48680820       1.14467112      -0.79830372
F        0.76291157       2.25959976       2.91231959       1.01830492      -0.66363314      -0.72317927
F        2.33833233       2.14192756       1.31816523      -1.39018625      -0.31991030       0.80546039
F       -0.38368936      -0.43197368       1.66089004       1.62801800       2.85700318       0.05366365
Cl       0.53398647      -1.45224932      -2.27603687       0.65678999      -0.49278246       0.60919309
O        1.05146067       0.15489503      -0.05150063      -3.38437237      -0.03897428      -0.46623909
C       -0.11538601      -0.29255149      -1.13906897       2.37961194       0.02628569       0.74442674
C        1.46346287       1.43991931       2.08613568       0.61427057      -1.63777437       0.13560633
C        0.39256310       0.70664077       1.14633333       0.74329740      -2.47620199      -2.52237621
H       -0.92373776      -0.85978726      -0.59622122       0.53527051       1.71588454      -0.40862601
H       -0.25115987       1.49732270       0.78836370      -0.72876842      -0.06008347       0.48398160
