38
Properties=species:S:1:pos:R:3:forces:R:3 id=49258 bond=C-N smiles="[H:17][C:4]1=[C:3]([N:5]([C:2](=[S:1])[N:6]([C:16]1([C:8]([H:22])([H:23])[H:24])[C:9]([H:25])([H:26])[H:27])[H:18])[C:15]2([C:13]([C:11]([C:10]([C:12]([C:14]2([H:36])[H:37])([H:32])[H:33])([H:28])[H:29])([H:30])[H:31])([H:34])[H:35])[H:38])[C:7]([H:19])([H:20])[H:21]" dataset=PubChem energy=-27666.401281671737 pbc="F F F"
S        3.23121427      -0.35276634       1.28262176       2.17024239      -1.43952002      -1.35220680
C        1.63165949      -0.23773533       1.60900314       2.21578120       2.08491568       2.44549920
C       -0.38440575       1.02421974       1.27724065      -1.45748401       1.31417874       2.87189278
C       -0.72908141       0.83567526       2.61834092       0.36715019      -0.77368222      -2.36084993
N        0.76323116       0.34285198       0.73618452      -2.83969367      -0.12064054       3.10575134
N        1.46956216      -0.17453814       2.97109695      -4.28432601       0.33329547      -1.24043679
C       -1.21829309       2.19241255       0.56568257       0.71155499      -1.08353102       2.25694279
C       -0.37135519      -1.69058842       3.61261649      -0.20105333       1.58505140       0.17257670
C        0.18414665       0.62965222       4.87647815      -0.31519881      -3.90997746       0.54267907
C        1.22548032       1.14072244      -3.52468577       1.16920755      -0.42821873       0.12543295
C        0.58578215      -0.23022659      -3.08026281      -1.07330074       2.40562299      -0.07988101
C        2.18618590       1.92136144      -2.50187341      -0.53186284      -3.38621207      -0.62401203
C        0.04047638      -0.15390803      -1.64339939      -1.43067720      -0.91234420       1.10025385
C        1.79192382       1.63126622      -1.03384820      -0.26468080       0.76965733       0.04507571
C        1.13433832       0.29212380      -0.59295657       0.56859518      -0.53070083      -4.95241235
C        0.07110457      -0.15175432       3.47997804       0.43660898       0.70518128       1.57665249
H       -1.57603194       1.41199380       3.11253281       1.35030611      -0.93155206      -1.00542845
H        2.09886978      -0.65458411       3.57064672       0.75763114      -0.24236611      -0.21862640
H       -2.16537739       2.32643419       1.17220922       1.09298310      -0.39357507      -1.02963081
H       -0.71894492       3.16184264       0.56087737       0.31115038      -0.26865100       0.10543000
H       -1.37407805       1.90156739      -0.42558758      -0.76258487      -0.10708298      -1.38098295
H        0.36754181      -2.26541204       4.17635865       0.20621301       0.30859903      -0.19134073
H       -1.29098584      -1.81095070       4.16762157      -0.40102689       0.19003003       0.03446054
H       -0.50693358      -2.14262504       2.63581653       0.10626539       0.08173648      -0.14639818
H        0.28031875      -0.17163301       5.70912452      -0.27843482       1.58133888      -1.06203149
H       -0.60333265       1.31509470       5.05743165      -1.18282305       0.07580150       0.25931995
H        1.03218453       1.23855668       4.89487453       1.58893166       0.62798063      -0.21258925
H        0.49016258       1.81042288      -3.82949630      -1.92863788       1.14795935       0.08475926
H        1.67642718       1.00337951      -4.51842776       0.61856553      -0.25449264       0.49499793
H       -0.25356704      -0.47651018      -3.82261363       1.34403373       0.11213595       1.14783956
H        1.33915478      -0.96694554      -3.06694356       0.78997857      -1.06059474      -0.36778021
H        2.13556618       2.98909710      -2.63107625       0.23153662       0.18236500      -0.41476922
H        3.20714837       1.50518255      -2.68259230      -0.64526456       0.72426121       0.18961949
H       -0.33133441      -1.20754672      -1.37837950       0.57851838       1.40979066      -0.10246469
H       -0.88498193       0.47009065      -1.56765023       0.87046162      -0.32567564      -0.31828689
H        2.71493274       1.77132045      -0.47982851      -0.24152242       0.03100201       0.50188589
H        1.08342141       2.44127046      -0.75768784       0.39123411      -0.53339956       0.12242055
H        1.83518010      -0.56808759      -0.65048376      -0.04241524       1.03190672      -0.12458226
