38
Properties=species:S:1:pos:R:3:forces:R:3 id=49258 bond=C-N smiles="[H:17][C:4]1=[C:3]([N:5]([C:2](=[S:1])[N:6]([C:16]1([C:8]([H:22])([H:23])[H:24])[C:9]([H:25])([H:26])[H:27])[H:18])[C:15]2([C:13]([C:11]([C:10]([C:12]([C:14]2([H:36])[H:37])([H:32])[H:33])([H:28])[H:29])([H:30])[H:31])([H:34])[H:35])[H:38])[C:7]([H:19])([H:20])[H:21]" dataset=PubChem energy=-27663.841075536177 pbc="F F F"
S        3.26114227      -0.35685732       1.17543296       2.09461557      -1.52308146      -1.29662827
C        1.66158749      -0.24182631       1.50181434       2.28961376       1.90066009       3.77116396
C       -0.35447775       1.02012876       1.17005185      -1.72001320       1.51206974       3.41756572
C       -0.69915341       0.83158428       2.51115212       0.37117768      -0.76732839      -2.39100035
N        0.79315916       0.33876100       0.62899572      -7.64518050       0.15185716      20.83123372
N        1.49949016      -0.17862912       2.86390815      -4.20457312       0.36817184      -1.15066967
C       -1.18836509       2.18832157       0.45849377       0.63610972      -0.99374362       2.27941183
C       -0.34142719      -1.69467940       3.50542769      -0.21074087       1.58425571       0.16922399
C        0.21407465       0.62556124       4.76928935      -0.31734207      -3.90304690       0.54325452
C        1.19555232       1.14481342      -3.41749697       1.16997408      -0.43527072       0.16260611
C        0.55585415      -0.22613561      -2.97307401      -1.18973169       2.35800393      -0.11257850
C        2.15625790       1.92545242      -2.39468461      -0.48045828      -3.25701448      -0.57363078
C        0.01054838      -0.14981705      -1.53621059      -1.25720467      -1.01167924       0.35955754
C        1.76199582       1.63535720      -0.92665940       0.07835879       1.13293211      -0.89251905
C        1.10441032       0.29621478      -0.48576777       4.93632472      -1.05950052     -22.16369491
C        0.10103257      -0.15584530       3.37278924       0.46442463       0.69849424       1.57931960
H       -1.54610394       1.40790282       3.00534401       1.33665116      -0.94521534      -1.00375819
H        2.12879778      -0.65867509       3.46345792       0.72706899      -0.22820916      -0.19913215
H       -2.13544939       2.32234321       1.06502042       1.08738343      -0.40067843      -1.01243540
H       -0.68901692       3.15775166       0.45368857       0.27901237      -0.27004031       0.12420208
H       -1.34415005       1.89747641      -0.53277638      -0.77369668      -0.00349002      -1.29442270
H        0.39746981      -2.26950302       4.06916985       0.20585464       0.31344884      -0.19202254
H       -1.26105784      -1.81504168       4.06043277      -0.40035301       0.18896495       0.03322254
H       -0.47700558      -2.14671602       2.52862773       0.10563952       0.08045637      -0.14652113
H        0.31024675      -0.17572399       5.60193572      -0.27973153       1.58250179      -1.06570752
H       -0.57340465       1.31100372       4.95024285      -1.18347520       0.07647458       0.26186506
H        1.06211253       1.23446570       4.78768573       1.58779028       0.62655574      -0.21212000
H        0.46023458       1.81451386      -3.72230750      -1.93235722       1.15343907       0.08069586
H        1.64649918       1.00747049      -4.41123896       0.61857791      -0.25456939       0.49205947
H       -0.28349504      -0.47241920      -3.71542483       1.35089133       0.11106432       1.10278312
H        1.30922678      -0.96285456      -2.95975476       0.78763482      -1.05436089      -0.36050616
H        2.10563818       2.99318808      -2.52388745       0.23979476       0.20074920      -0.45730333
H        3.17722037       1.50927353      -2.57540350      -0.64009428       0.72177609       0.18628605
H       -0.36126241      -1.20345574      -1.27119070       0.58811071       1.37005991      -0.05682790
H       -0.91490993       0.47418163      -1.46046143       0.92519192      -0.44266566      -0.35183226
H        2.68500474       1.77541143      -0.37263971      -0.26206651       0.00999918       0.49001668
H        1.05349341       2.44536144      -0.65049904       0.41797061      -0.58595998       0.10927180
H        1.80525210      -0.56399661      -0.54329496       0.19748679       0.99250974      -1.06028483
