40
Properties=species:S:1:pos:R:3:forces:R:3 id=42379 bond=C-C smiles="[H:20][C:6]1=[C:5]([C:10]([C:15]2([C@:18]3([C@@:19]1([O:4]3)[H:40])[C:14]([H:36])([H:37])[H:38])[C:11]([C@:16]([C@@:17]([C:13]([C:9]2([H:27])[H:28])([H:34])[H:35])([C:12]([H:31])([H:32])[H:33])[Cl:1])([H:39])[Br:3])([H:29])[H:30])([C:7]([H:21])([H:22])[H:23])[C:8]([H:24])([H:25])[H:26])[Br:2]" dataset=PubChem energy=-170556.33753683488 pbc="F F F"
Cl      -1.27549239      -2.77628428       2.21322779       0.64949260       0.69207302      -1.47653699
Br       3.29983620       1.01521544       4.19627694      -0.90726625       0.13343159      -1.32636926
Br       0.21096499      -1.09216983      -2.17127962      -0.57252117      -0.68911777       1.46241250
O        2.70169834       0.72752409      -1.04540463      -0.87143048       0.71271341       1.22513268
C        2.51980380       1.21262210       2.40906505       4.74898205       1.08961671      -6.31659743
C        3.42930297       1.39266126       1.29277281      -1.00057530      -1.00897286       5.23796370
C        0.69787700       2.91365449       2.19977443       1.58301458       0.87353172      -3.12916962
C        0.47480770       0.98709374       2.82716059     -39.84846697     -30.02129617      57.48728858
C       -0.94080563       0.69642918       0.35806160      -0.31150265       1.81485223      -2.02451653
C        0.97195641       1.35751276       2.08469884      37.98896331      29.02946398     -55.35995865
C        0.94244735      -0.84356911       0.71020600      -1.70040277      -0.30101168      -0.29974318
C       -2.11970921      -2.74347217      -0.35318847      -1.92787653      -2.15853723      -0.34902885
C       -1.86803480      -0.45115657       0.77296999      -0.47848399       0.38393203       1.02641786
C        0.97281794       2.42147438      -1.39969249      -2.10490389       1.80722450      -3.01533034
C        0.56923610       0.72703039       0.64261338       2.66168376      -1.70648133      -0.48217619
C        0.10106115      -1.76042635      -0.21739800      -1.24340855       2.69182913       2.31910699
C       -1.29178138      -1.87456710       0.51828061      -0.46186917       0.70768670      -1.32759715
C        1.52593760       1.48187451      -0.45504279       2.91828678      -1.76605516       1.38765885
C        3.04412012       1.72446983      -0.07696648      -2.76406617       0.29299955      -0.00533344
H        4.51813583       1.48286181       1.51967626      -0.96186592      -0.38944538      -0.13683437
H       -0.33285787       3.13189142       1.89109139       0.27073699      -0.08507677       0.48432778
H        0.99474708       3.32124273       3.18010430      -0.30073758      -0.38728928      -0.53805254
H        1.36771790       3.25736396       1.41612022      -0.12061375       1.24765156       0.13512457
H        0.89143509       1.49499762       3.69910645      -1.66495596      -1.37081533       1.88077827
H        0.47038779      -0.10456086       2.89835191       0.18246016      -0.48164409       1.25209789
H       -0.59645641       1.16049355       2.73372793      -0.83671742       0.08690260       1.01419856
H       -1.07293423       0.93669855      -0.71763415       0.21513432      -0.61340296       0.57721371
H       -1.41010733       1.55897133       0.77730235      -0.21587157       0.81896914       0.55818800
H        0.83884258      -1.40150590       1.70360611       0.43503419       1.35124351      -1.22812188
H        1.81962208      -1.07035763       0.24474864       3.30820095       0.36653123      -0.10791053
H       -3.16146775      -2.83591277       0.04730539       0.73028333       0.24881306      -0.48748123
H       -2.15707083      -2.44529159      -1.43850131       0.15018628      -0.08039195       1.30575962
H       -1.72580548      -3.80155570      -0.27714570      -0.27558864       1.17889409      -0.39236970
H       -1.98206039      -0.21356935       1.86467593      -0.24183010      -1.07317113      -0.92101121
H       -2.92201825      -0.29699863       0.31241839       1.93835126      -0.41895178       0.58708580
H       -0.11983167       2.25155966      -1.78844495       2.17636876      -0.28251798       0.59235572
H        1.66287140       2.52215950      -2.31002970      -1.10086262      -0.14071916       1.38449956
H        0.86060185       3.41048472      -0.94764526       0.27318724       0.02165245       0.02918266
H        0.54014302      -2.69579537      -0.28406771       0.77843164      -1.66069472      -0.20936799
H        3.67049674       2.62779849      -0.32694001      -1.10008476      -0.91242012      -0.81493766
