37
Properties=species:S:1:pos:R:3:forces:R:3 id=37369 bond=C-C smiles="[H:33][c:17]1[c:19]([c:15]([c:18]([c:16]([c:20]1[C:23]([F:4])([F:5])[F:6])[H:32])[N:21]2[C:9](=[C:13]3[C:14](=[C:10]2[O:8][H:28])[C:25]4([C:12](=[C:11]([C:24]3([C:26]4([H:36])[H:37])[H:34])[H:29])[H:30])[H:35])[O:7][H:27])[H:31])[C:22]([F:1])([F:2])[F:3]" dataset=PubChem energy=-39711.17354366326 pbc="F F F"
F       -3.72177055       2.39439002      -1.63229292      -2.79825794       0.16336757       0.91296144
F       -3.05891564       0.47427835      -2.45351951      -3.47899744      -3.37454209      -1.63512062
F       -3.02309159       2.30687430      -3.61288183      -0.59626317      -0.17179738      -1.75197402
F        2.21815438       4.68856062      -1.78718665       0.37158364      -2.10268894      -1.16185072
F        0.93066360       4.29157032      -3.65137031       0.39528993       0.79058141       2.34475540
F        0.49617451       5.71048034      -1.90436890      -1.79895115      -0.15507268      -1.43000256
O        2.57793792      -0.77326928      -0.60778418       0.32679852       0.98027552      -0.00434689
O       -1.12716155       0.92804257       2.39696679       1.27498491      -0.18191626      -2.54297414
C        1.69485898      -0.57332348       0.42643798      -0.32751906      -1.80666092       3.30488239
C       -0.02366673       0.24737618       1.85872135       1.88321331      -2.51930344       1.44313525
C        1.67014404      -3.36217223       2.75470970      -5.32288404      -0.85358795       3.68273391
C        0.65014406      -2.86738477       3.60373065       2.76915426      -0.52844213      -1.31543568
C        1.73127790      -1.24910949       1.63881395      -0.21384787       1.88347668      -0.76021483
C        0.74690758      -0.69248401       2.52849100      -1.07022634       0.69176483       0.02943575
C       -1.25965993       0.97673519      -1.03266027       2.09357315      -1.62678484       1.19048442
C        0.72800701       2.41764678      -0.70846464       1.15284831       0.02179368      -0.26009208
C       -1.10575036       3.07059921      -2.10956885       0.81646919       3.08928091      -1.22764146
C        0.07748534       1.18298746      -0.42209687      -3.01434045       1.75623961      -1.56615182
C       -1.80137841       1.88841392      -1.94274332      26.80271497       4.68812106      12.23879396
C        0.18184583       3.37685788      -1.58581402      -1.35550729      -2.46124577      -0.63928730
N        0.54958399       0.28333498       0.54007380       0.02896526       0.81460806      -0.50844960
C       -2.84088138       1.74770394      -2.41773956     -20.86463911      -1.57789649      -9.25204788
C        0.95841075       4.48383058      -2.27169873       0.51801540       1.44710820       1.26670816
C        2.53628023      -2.23782264       2.46673033       2.58783515       0.17926822      -1.81034373
C        0.93492992      -1.40382897       3.92251704       0.32143018       0.97480190      -1.08851676
C        2.48156555      -1.56052099       3.79086206      -0.13534185       2.48535349       1.19192206
H        3.50523789      -0.73080181      -0.24842563      -1.69582203       0.05823210      -0.45147646
H       -1.53001444       1.33745248       1.60978017      -0.24345442       0.10551617       0.67113592
H        1.65994854      -4.43309150       2.62091300       0.57619083       0.15157580      -0.84229886
H       -0.11818991      -3.35883532       4.12869713      -0.78005764      -0.94121964       0.01176692
H       -1.88243286       0.01787026      -0.86932876       1.74614024       1.67797937       0.18869636
H        1.75240417       2.63866700      -0.31706335      -1.08783739      -0.54048762      -0.19802350
H       -1.61166970       3.88216794      -2.74235703       1.01280495      -1.42150753       0.80958745
H        3.57391389      -2.50916181       2.13711772      -1.02981168       0.38268412       0.04695242
H        0.55405711      -0.88888489       4.87859127       0.40598952      -1.07099645      -1.75908685
H        3.04692514      -0.65176116       3.89642689       0.00644074       0.90850585      -0.62277806
H        2.83339746      -2.09567128       4.59818575       0.72377392      -1.90090944       1.48693449
