37
Properties=species:S:1:pos:R:3:forces:R:3 id=37369 bond=C-C smiles="[H:33][c:17]1[c:19]([c:15]([c:18]([c:16]([c:20]1[C:23]([F:4])([F:5])[F:6])[H:32])[N:21]2[C:9](=[C:13]3[C:14](=[C:10]2[O:8][H:28])[C:25]4([C:12](=[C:11]([C:24]3([C:26]4([H:36])[H:37])[H:34])[H:29])[H:30])[H:35])[O:7][H:27])[H:31])[C:22]([F:1])([F:2])[F:3]" dataset=PubChem energy=-39711.7281571956 pbc="F F F"
F       -4.29349718       2.31699954      -1.89354085       0.78848740      -0.81021709       0.29637188
F       -3.63064227       0.39688787      -2.71476744       0.01952127      -0.55789086       0.09498617
F       -3.59481822       2.22948382      -3.87412976       1.08740305      -0.56152751       0.13262808
F        2.78988101       4.76595110      -1.52593872       0.37484367      -2.11107423      -1.16704997
F        1.50239023       4.36896080      -3.39012238       0.41027585       0.80700429       2.33216267
F        1.06790114       5.78787082      -1.64312097      -1.78221924      -0.13333326      -1.43840540
O        3.14966455      -0.69587880      -0.34653625       0.32848169       0.97095788       0.00071000
O       -0.55543492       1.00543305       2.65821472       1.28131885      -0.18677953      -2.53531558
C        2.26658561      -0.49593300       0.68768591      -0.34418943      -1.80799590       3.28754938
C        0.54805990       0.32476666       2.11996928       1.88495040      -2.51244167       1.43247617
C        2.24187067      -3.28478175       3.01595763      -5.31983009      -0.85422457       3.68227319
C        1.22187069      -2.78999429       3.86497858       2.76971380      -0.52520155      -1.31214502
C        2.30300453      -1.17171901       1.90006188      -0.21143859       1.87868411      -0.76196386
C        1.31863421      -0.61509353       2.78973893      -1.07629926       0.68858353       0.03452785
C       -0.68793330       1.05412567      -0.77141234       0.11774626      -1.78455617       0.11891557
C        1.29973364       2.49503726      -0.44721671       1.11653600       0.03011626      -0.25889472
C       -0.53402373       3.14798969      -1.84832092      -1.04687469       2.51685037      -1.99488361
C        0.64921197       1.26037794      -0.16084894      -2.67007117       1.85270232      -1.58349875
C       -1.22965178       1.96580440      -1.68149539      -0.78041032       0.17807019       0.58622166
C        0.75357246       3.45424836      -1.32456609      -1.11873570      -2.56746105      -0.48769420
N        1.12131062       0.36072546       0.80132173      -0.00647974       0.81962862      -0.49628360
C       -3.41260801       1.67031346      -2.67898749       1.55165608       2.27774232       1.27724175
C        1.53013738       4.56122106      -2.01045080       0.46775041       1.38907589       1.26765247
C        3.10800686      -2.16043216       2.72797826       2.58779610       0.18430315      -1.81026630
C        1.50665655      -1.32643849       4.18376497       0.32240138       0.97414241      -1.09238356
C        3.05329218      -1.48313051       4.05210999      -0.13508695       2.48273138       1.19449824
H        4.07696452      -0.65341133       0.01282230      -1.69877910       0.06072096      -0.45098650
H       -0.95828781       1.41484296       1.87102810      -0.23492391       0.10914467       0.65045210
H        2.23167517      -4.35570102       2.88216093       0.57566613       0.15079497      -0.84240411
H        0.45353672      -3.28144484       4.38994506      -0.78080751      -0.94210993       0.01188526
H       -1.31070623       0.09526074      -0.60808083       1.54211632       1.49136591       0.10051499
H        2.32413080       2.71605748      -0.05581542      -1.10272164      -0.54100483      -0.19027538
H       -1.03994307       3.95955842      -2.48110910       0.98275123      -1.30179963       0.76590739
H        4.14564052      -2.43177133       2.39836565      -1.02888115       0.38211529       0.04738439
H        1.12578374      -0.81149441       5.13983920       0.40629571      -1.07119862      -1.75782124
H        3.61865177      -0.57437068       4.15767482       0.00561365       0.90834172      -0.62348387
H        3.40512409      -2.01828080       4.85943368       0.72464819      -1.90189763       1.48862640
