37
Properties=species:S:1:pos:R:3:forces:R:3 id=37369 bond=C-C smiles="[H:33][c:17]1[c:19]([c:15]([c:18]([c:16]([c:20]1[C:23]([F:4])([F:5])[F:6])[H:32])[N:21]2[C:9](=[C:13]3[C:14](=[C:10]2[O:8][H:28])[C:25]4([C:12](=[C:11]([C:24]3([C:26]4([H:36])[H:37])[H:34])[H:29])[H:30])[H:35])[O:7][H:27])[H:31])[C:22]([F:1])([F:2])[F:3]" dataset=PubChem energy=-39711.465231036644 pbc="F F F"
F       -4.32468227       2.31277824      -1.90779074       0.83130655      -0.81696109       0.29847370
F       -3.66182736       0.39266657      -2.72901733       0.05537278      -0.52725769       0.10878427
F       -3.62600331       2.22526252      -3.88837965       1.09753480      -0.56587915       0.14316610
F        2.82106610       4.77017240      -1.51168883       0.37330057      -2.11057839      -1.16764780
F        1.53357532       4.37318210      -3.37587249       0.41064639       0.80716306       2.33294117
F        1.09908623       5.79209212      -1.62887108      -1.78247226      -0.13335999      -1.43930526
O        3.18084964      -0.69165750      -0.33228636       0.32809846       0.97087517       0.00111082
O       -0.52424983       1.00965435       2.67246461       1.28235306      -0.18749336      -2.53526717
C        2.29777070      -0.49171170       0.70193580      -0.34349650      -1.80996838       3.28632766
C        0.57924499       0.32898796       2.13421917       1.88380676      -2.51222787       1.43365789
C        2.27305576      -3.28056045       3.03020752      -5.31974254      -0.85404288       3.68219300
C        1.25305578      -2.78577299       3.87922847       2.76984365      -0.52515262      -1.31210786
C        2.33418962      -1.16749771       1.91431177      -0.21126196       1.87848261      -0.76287775
C        1.34981930      -0.61087223       2.80398882      -1.07721974       0.68888523       0.03476601
C       -0.65674821       1.05834697      -0.75716245       0.08412456      -1.78584208       0.10741186
C        1.33091873       2.49925856      -0.43296682       1.11479017       0.03094763      -0.26021625
C       -0.50283864       3.15221099      -1.83407103      -1.08570353       2.50855725      -2.00714304
C        0.68039706       1.26459924      -0.14659905      -2.65142954       1.85643341      -1.57879944
C       -1.19846669       1.97002570      -1.66724550      -0.57424545       0.19209756       0.69354408
C        0.78475755       3.45846966      -1.31031620      -1.10640037      -2.57238917      -0.48088290
N        1.15249571       0.36494676       0.81557162      -0.00946800       0.82227049      -0.49844630
C       -3.44379310       1.66609216      -2.69323738       1.30093494       2.25044241       1.15728891
C        1.56132247       4.56544236      -1.99620091       0.46607181       1.38849274       1.26480899
C        3.13919195      -2.15621086       2.74222815       2.58785247       0.18477940      -1.81008542
C        1.53784164      -1.32221719       4.19801486       0.32261921       0.97430091      -1.09233790
C        3.08447727      -1.47890921       4.06635988      -0.13537017       2.48254918       1.19432169
H        4.10814961      -0.64919003       0.02707219      -1.69874122       0.06077591      -0.45097854
H       -0.92710272       1.41906426       1.88527799      -0.23509171       0.10932932       0.64974983
H        2.26286026      -4.35147972       2.89641082       0.57564319       0.15074055      -0.84247396
H        0.48472181      -3.27722354       4.40419495      -0.78090454      -0.94212578       0.01189069
H       -1.27952114       0.09948204      -0.59383094       1.54380978       1.49084489       0.10371891
H        2.35531589       2.72027878      -0.04156553      -1.10327240      -0.54057630      -0.18968439
H       -1.00875798       3.96377972      -2.46685921       0.98386408      -1.29830570       0.76741656
H        4.17682561      -2.42755003       2.41261554      -1.02884662       0.38209421       0.04734459
H        1.15696883      -0.80727311       5.15408909       0.40624497      -1.07115163      -1.75776376
H        3.64983686      -0.57014938       4.17192471       0.00565386       0.90844144      -0.62348066
H        3.43630918      -2.01405950       4.87368357       0.72467686      -1.90195796       1.48870599
