27
Properties=species:S:1:pos:R:3:forces:R:3 id=23687 bond=C-O smiles="[H:23][c:10]1[c:9]([c:12]([c:13]([c:11]([c:14]1[C:18]([H:26])([H:27])[N:16]2[C:8](=[C:7]([N:15]([C:6]2=[S:4])[H:25])[H:20])[H:21])[H:24])[C:17]([F:1])([F:2])[F:3])[O:5][H:19])[H:22]" dataset=PubChem energy=-35582.68307953974 pbc="F F F"
F        4.17933073      -0.88240473       3.08851560      -0.17828030       1.01817360      -0.07488484
F        4.03083172       0.97319038       1.93153568       1.69092373       0.94637948      -0.70345126
F        2.94651952       0.84293376       3.76099165       0.53935406      -0.50783160      -0.01942380
S        0.43847446       2.57485624      -3.67498271      -0.04427824       0.01643940      -0.21570918
O        1.49187674      -1.68193045       3.96388193      -1.72141961      -0.69447023      -3.73307023
C       -0.37849674       2.69138594      -2.25105731       0.23588050      -1.11819148       0.39603086
C       -1.81250367       3.41388507      -0.68168680      -0.26887450      -2.64751628       2.70475643
C       -1.16500911       2.27238364      -0.20171551      -1.80966837       1.09085950       0.78207307
C        0.18289497      -1.93687014       1.70482226       0.79421556       0.97153464      -0.93262848
C        0.00901821      -1.40764455       0.38224981       0.23321310       0.78722114       1.01332741
C        1.86874547       0.15462763       0.59858085      -1.78705319      -0.85281629      -0.66419809
C        1.26760944      -1.39327077       2.37011273       0.54793181      -0.34689275       4.51504833
C        2.15157321      -0.40182535       1.85153540      -0.05022563      -0.31797119       0.36051741
C        0.73054102      -0.31896810      -0.18974350       0.26457993      -0.92528311       2.99870524
N       -1.33730182       3.63400073      -1.92349641       3.05454891      -1.49471287       1.30503890
N       -0.24956647       1.79884966      -1.12836449      -0.24330314       1.34090447      -2.48127561
C        3.39286318       0.14427911       2.69332607      -3.40911000      -1.79801206      -0.22471510
C        0.17285821       0.37465662      -1.41774718      -0.40544648       0.10679289       2.13288528
H        0.81635611      -2.37730303       4.25950118       1.43255927       1.54853081      -1.07715525
H       -2.69059715       3.96455354      -0.28021501       1.18983415      -0.56201407      -0.22548153
H       -1.38048801       1.76734455       0.73438187       0.35631211       0.13764540      -0.27146942
H       -0.57538757      -2.63696174       2.14175673       1.15262129       0.77117189      -0.46729234
H       -0.87927481      -1.79548506      -0.05754564      -0.43611678       0.03822894      -0.89584815
H        2.41352954       1.01051288       0.22450419       0.17823178      -0.15855183       0.09442284
H       -1.96346912       3.91164107      -2.56907956      -1.71410669       1.60680722      -3.01923493
H        0.92713061       0.30951045      -2.15562384       0.37727832       0.77555607      -1.05588863
H       -0.69926533      -0.20461164      -1.72210948       0.02991953       0.27213530      -0.25054018
