39
Properties=species:S:1:pos:R:3:forces:R:3 id=11145 bond=C-C smiles="[H:30][c:12]1[c:10]([c:15]2[c:17]([c:13]([c:20]1[C:25]3([c:21]4[c:14]([c:18]5[c:16]([c:11]([c:19]4[C:24]([C:8]6=[C:6]([O:1][C:7](=[C:9]63)[H:27])[H:26])([H:37])[H:38])[H:29])[O:3][C:23]([O:5]5)([H:35])[H:36])[H:32])[H:39])[H:31])[O:4][C:22]([O:2]2)([H:33])[H:34])[H:28]" dataset=PubChem energy=-31221.447107564516 pbc="F F F"
O       -2.45386785       3.21576609       2.99990387       0.62827312       0.04857690      -0.40650937
O       -0.94926371      -4.37621126       1.00737002       0.20088947      -0.90708034       0.04383111
O        4.62360769       2.34684624      -1.49656968       0.74683407       0.41334084      -0.26845354
O        0.95134051      -3.25499520       1.76638015      -0.46051332      -1.57077291       0.21343177
O        3.25556332       0.89084678      -2.77093295       0.53931888       1.33174539       1.07287838
C       -1.15248781       3.60852136       3.22146102       1.48892584      -0.46115310      -0.93887744
C       -2.43600029       2.38419046       1.89601584       2.27418869      -0.00404882       0.24347074
C       -0.27087170       3.03080048       2.33050795      -2.62151835      -0.63992778      -0.57568702
C       -1.14100009       2.19323887       1.47517170      -0.14552138       0.68075956       0.53666392
C       -2.12336685      -2.35145316       0.12772837       1.26568299      -0.27666694       0.68255681
C        2.88699681       2.93255199       0.19627486       1.09155650      -0.53418040      -0.58795145
C       -1.96583082      -0.95416472      -0.01416270      -0.00527261      -0.25491009       0.25765213
C        0.19104682      -1.04465780       1.15159896      -1.08136541       0.96697576      -0.60007333
C        1.29135215       1.28231074      -1.30163995      -0.51435531      -1.31584183      -0.81209682
C       -1.06609858      -3.04597005       0.76192525      -1.84953355       0.98562161      -0.79881855
C        3.40047389       2.29964949      -0.95981709      -2.15401772       0.46463402       1.69521476
C        0.03917403      -2.40863475       1.25587603       0.23286310       2.11902348      -0.44051935
C        2.58800083       1.47345974      -1.70788102      -0.89879755      -0.03053263       0.86704986
C        1.61097366       2.62531342       0.71329211      -0.23301408      -0.87911478      -1.12347554
C       -0.84041752      -0.30781463       0.49488630       0.68691166       2.31230327      -0.33407864
C        0.79727805       1.75370063      -0.05944119      -0.13566202       0.66578183      -0.54342374
C        0.20789764      -4.51701459       1.82197901       1.35773697      -0.17303288      -0.48730539
C        4.59052377       1.42613794      -2.56969742       1.33995517      -1.37911256      -1.00714018
C        1.18675238       3.22309865       2.04927512      -0.29072074       0.03308616      -0.29788678
C       -0.66959161       1.41906251       0.26625006       0.17619185      -2.23062187       0.94835318
H       -0.84947604       4.33462776       3.97632380      -1.00196999      -0.31953875      -0.04901868
H       -3.32379764       1.94568910       1.48708530      -0.41595409       0.22598507       0.43702909
H       -3.01619889      -2.85710439      -0.22570870       0.27395473       0.01682198       0.05240616
H        3.55554754       3.60692085       0.72135686      -0.15568754      -0.06852438       0.09943812
H       -2.77435090      -0.39510480      -0.49642268       0.46747255      -0.14437565       0.17123897
H        1.05096505      -0.54620764       1.56822237       0.11273768       0.03949145      -0.09943530
H        0.71122363       0.63855430      -2.00403074       0.03498495       0.54643898       1.06781936
H        0.87887705      -5.32936439       1.44268939      -0.76542646       0.71058787       0.27889879
H       -0.06954153      -4.67222318       2.85256823      -0.23469480      -0.18815245       0.34866790
H        4.90851646       1.93406560      -3.49102072      -0.06944993      -0.21915209       0.30870599
H        5.28542429       0.57757254      -2.30403428      -0.71509171       0.75496370      -0.42585316
H        1.75970572       2.76517286       2.84925099       0.29676601       0.07532079       0.06189280
H        1.40910643       4.29092397       2.00683554       0.12104593      -0.08505168       0.24488827
H       -1.31676048       1.74841680      -0.56627302       0.41071663      -0.71045764       0.16641548
