39
Properties=species:S:1:pos:R:3:forces:R:3 id=11145 bond=C-C smiles="[H:30][c:12]1[c:10]([c:15]2[c:17]([c:13]([c:20]1[C:25]3([c:21]4[c:14]([c:18]5[c:16]([c:11]([c:19]4[C:24]([C:8]6=[C:6]([O:1][C:7](=[C:9]63)[H:27])[H:26])([H:37])[H:38])[H:29])[O:3][C:23]([O:5]5)([H:35])[H:36])[H:32])[H:39])[H:31])[O:4][C:22]([O:2]2)([H:33])[H:34])[H:28]" dataset=PubChem energy=-31217.174176561875 pbc="F F F"
O       -2.39542741       3.80653985       2.92168620       0.51343334      -0.12399406      -0.64349736
O       -1.00770415      -4.96698502       1.08558769       0.22004084      -1.00101378       0.07048128
O        4.68204813       2.93762000      -1.57478735       0.58143765       0.43284377      -0.14781496
O        0.89290007      -3.84576896       1.84459782      -0.37339299      -1.63189425       0.24889162
O        3.31400376       1.48162054      -2.84915062       0.53406505       1.36478557       1.11192448
C       -1.09404737       4.19929512       3.14324335       1.68862132      -0.45359738      -1.02645336
C       -2.37755985       2.97496422       1.81779817       1.89742981       0.16253091       0.44526478
C       -0.21243126       3.62157424       2.25229028      -2.48426059      -0.59994483      -0.30835646
C       -1.08255965       2.78401263       1.39695403       0.29700256      -0.39090965      -0.25416868
C       -2.18180729      -2.94222692       0.20594604       1.37234266      -0.38187980       0.72431626
C        2.94543725       3.52332575       0.11805719       0.93276616      -0.46965851      -0.49916326
C       -2.02427126      -1.54493848       0.06405497      -0.00164621       0.43520248       0.13463462
C        0.13260638      -1.63543156       1.22981663      -0.96865228       1.58977539      -0.69273814
C        1.34979259       1.87308450      -1.37985762      -0.39163933      -1.35422880      -1.08105105
C       -1.12453902      -3.63674381       0.84014292      -1.79042859       1.06251430      -0.77640023
C        3.45891433       2.89042325      -1.03803476      -1.96719349       0.44702682       1.60930897
C       -0.01926641      -2.99940851       1.33409370       0.06601695       1.97993969      -0.54189489
C        2.64644127       2.06423350      -1.78609869      -1.02675135      -0.09302540       0.79124369
C        1.66941410       3.21608718       0.63507444       0.05748150      -0.77438894      -0.83819580
C       -0.89885796      -0.89858839       0.57310397       0.52695830      -0.03141592       0.13830012
C        0.85571849       2.34447439      -0.13765886      -1.11955193      -0.28925592      -0.32161022
C        0.14945720      -5.10778835       1.90019668       1.32891808      -0.13617650      -0.51025373
C        4.64896421       2.01691170      -2.64791509       1.34848540      -1.43252376      -1.06841246
C        1.24519282       3.81387241       1.97105745      -0.32702978       0.02333191      -0.35687545
C       -0.61115117       2.00983627       0.18803239       1.02413397       1.95263269       1.06663980
H       -0.79103560       4.92540152       3.89810613      -1.00496433      -0.31164631      -0.06325177
H       -3.26535720       2.53646286       1.40886763      -0.40206354       0.18916690       0.44930884
H       -3.07463933      -3.44787815      -0.14749103       0.24402303       0.03365969       0.04300373
H        3.61398798       4.19769461       0.64313919      -0.17365869      -0.05811213       0.09172739
H       -2.83279134      -0.98587856      -0.41820501       0.41537955      -0.19491733       0.17909421
H        0.99252461      -1.13698140       1.64644004       0.13561250      -0.00594035      -0.02910638
H        0.76966407       1.22932806      -2.08224841       0.04334861       0.53391293       1.11221240
H        0.82043661      -5.92013815       1.52090706      -0.76080415       0.70509849       0.28014231
H       -0.12798197      -5.26299694       2.93078590      -0.23524599      -0.18987130       0.35700772
H        4.96695690       2.52483936      -3.56923839      -0.07110574      -0.21539886       0.31787269
H        5.34386473       1.16834630      -2.38225195      -0.72100436       0.76712196      -0.42223539
H        1.81814616       3.35594662       2.77103332       0.29013686       0.05454890       0.05891592
H        1.46754687       4.88169773       1.92861787       0.12482193      -0.08659857       0.24479780
H       -1.25832004       2.33919056      -0.64449069       0.18061046      -1.50761593       0.10726002
