39
Properties=species:S:1:pos:R:3:forces:R:3 id=11145 bond=C-C smiles="[H:30][c:12]1[c:10]([c:15]2[c:17]([c:13]([c:20]1[C:25]3([c:21]4[c:14]([c:18]5[c:16]([c:11]([c:19]4[C:24]([C:8]6=[C:6]([O:1][C:7](=[C:9]63)[H:27])[H:26])([H:37])[H:38])[H:29])[O:3][C:23]([O:5]5)([H:35])[H:36])[H:32])[H:39])[H:31])[O:4][C:22]([O:2]2)([H:33])[H:34])[H:28]" dataset=PubChem energy=-31220.483402565686 pbc="F F F"
O       -2.44262931       3.32937643       2.98486201       0.61453375       0.02975689      -0.44032286
O       -0.96050225      -4.48982160       1.02241188       0.19927879      -0.90948909       0.04334832
O        4.63484623       2.46045658      -1.51161154       0.73147285       0.41503536      -0.25109345
O        0.94010197      -3.36860554       1.78142201      -0.44579651      -1.56854872       0.21935073
O        3.26680186       1.00445712      -2.78597481       0.53927353       1.33239457       1.07477182
C       -1.14124927       3.72213170       3.20641916       1.51165156      -0.45880169      -0.95313041
C       -2.42476175       2.49780080       1.88097398       2.22462258       0.02569268       0.26924899
C       -0.25963316       3.14441082       2.31546609      -2.59280611      -0.63911789      -0.53951054
C       -1.12976155       2.30684921       1.46012984      -0.09619012       0.37708346       0.40117915
C       -2.13460539      -2.46506350       0.14277023       1.30323909      -0.28988336       0.69325789
C        2.89823535       3.04616233       0.18123300       1.06827963      -0.52424265      -0.58590652
C       -1.97706936      -1.06777506       0.00087916      -0.01806014       0.03063408       0.20388512
C        0.17980828      -1.15826814       1.16664082      -1.02374831       1.25587002      -0.64969479
C        1.30259069       1.39592108      -1.31668181      -0.48880942      -1.32798472      -0.85396457
C       -1.07733712      -3.15958039       0.77696711      -1.82845076       0.98979740      -0.78840841
C        3.41171243       2.41325983      -0.97485895      -2.13378768       0.46325400       1.68437865
C        0.02793549      -2.52224509       1.27091789       0.18766136       2.07643735      -0.47251126
C        2.59923937       1.58707008      -1.72292288      -0.91438919      -0.03001820       0.85736693
C        1.62221220       2.73892376       0.69825025      -0.19937391      -0.86731758      -1.06488245
C       -0.85165606      -0.42142497       0.50992816       0.73059458       2.42285779      -0.29882595
C        0.80851659       1.86731097      -0.07448305      -0.33047848       0.34278849      -0.48334352
C        0.19665910      -4.63062493       1.83702087       1.35472289      -0.16878672      -0.48777209
C        4.60176231       1.53974828      -2.58473928       1.33966298      -1.38554259      -1.01372499
C        1.19799092       3.33670899       2.03423326      -0.29364068       0.03120949      -0.30334380
C       -0.65835307       1.53267285       0.25120820       0.26298528      -1.99154103       1.05389288
H       -0.83823750       4.44823810       3.96128194      -1.00174105      -0.31816731      -0.05182300
H       -3.31255910       2.05929944       1.47204344      -0.41321769       0.21925438       0.43899915
H       -3.02743743      -2.97071473      -0.21066684       0.26824356       0.02615731       0.05052074
H        3.56678608       3.72053119       0.70631500      -0.15922439      -0.06694671       0.09856323
H       -2.78558944      -0.50871514      -0.48138082       0.45548747      -0.16060890       0.17778273
H        1.03972651      -0.65981798       1.58326423       0.12333514       0.03775294      -0.08277954
H        0.72246217       0.75216464      -2.01907260       0.03557400       0.54348600       1.07807870
H        0.86763851      -5.44297473       1.45773125      -0.76480412       0.71076804       0.27888704
H       -0.08078007      -4.78583352       2.86761009      -0.23498738      -0.18825886       0.34935687
H        4.91975500       2.04767594      -3.50606258      -0.06944254      -0.21860829       0.30951449
H        5.29666283       0.69118288      -2.31907614      -0.71544874       0.75630535      -0.42557258
H        1.77094426       2.87878320       2.83420913       0.29550934       0.07314679       0.06078070
H        1.42034497       4.40453431       1.99179368       0.12134057      -0.08458579       0.24441925
H       -1.30552194       1.86202714      -0.58131488       0.35592592      -0.95996473       0.15884984
