15
Properties=species:S:1:pos:R:3:forces:R:3 id=16459 bond=C-N smiles="[H:10][C:7]([H:11])([H:12])[N:5]([C:8]([H:13])([H:14])[H:15])[P:6]([C:9]([F:1])([F:2])[F:3])[Cl:4]" dataset=PubChem energy=-34665.41490451107 pbc="F F F"
F       -0.38433484       1.87733165      -2.97332204       0.89806613       0.81031138       0.15108612
F        1.80162378       2.04668168      -2.60600913      -1.37781952       0.85272545       0.09996744
F        0.35444396       3.20767680      -1.35962737       0.29011716      -0.48830025      -0.47985842
Cl       0.36336076      -1.26335128      -1.65829885       0.17157851       0.93796989       0.26626973
N        0.76912987       0.73002256       0.88830172       1.70227315      -2.04928349      -1.38921022
P        0.51908670       0.59947706      -0.88351405       0.02766604      -0.07041732       4.12384926
C        0.52158116       1.96476940       1.61942780       0.00536602       0.21565395      -0.81818294
C        0.58652226      -1.47155463       2.22803645      -0.96398419      -0.78351193       0.92172001
C        0.55876687       2.05624692      -2.00249970      -0.11549544      -1.37704758      -0.79719855
H       -0.53155497       2.19160906       1.61731493      -0.44093162       0.50789670       0.26788174
H        0.89775856       1.92093591       2.66200887      -0.17019299      -0.44174921      -0.74299260
H        1.06504520       2.78397266       1.10153102      -0.34978063      -0.32955193       0.32676408
H        0.80398436      -1.33113753       3.30865114       0.00903541       0.87021243      -0.89190073
H        1.31761154      -2.17345058       1.82180183       0.03676573       0.78567578      -0.61957739
H       -0.43010262      -1.88289117       2.15432577       0.28243317       0.56684127      -0.42651320
