15
Properties=species:S:1:pos:R:3:forces:R:3 id=16459 bond=C-N smiles="[H:10][C:7]([H:11])([H:12])[N:5]([C:8]([H:13])([H:14])[H:15])[P:6]([C:9]([F:1])([F:2])[F:3])[Cl:4]" dataset=PubChem energy=-34666.56906752814 pbc="F F F"
F       -0.39850267       1.70651963      -2.86937710       1.00946373       0.70976625       0.29392309
F        1.78745595       1.87586966      -2.50206419      -1.17579038       1.11668026      -0.24633061
F        0.34027613       3.03686478      -1.25568243       0.29053419      -0.35036798      -0.49693599
Cl       0.34919293      -1.43416330      -1.55435391       0.18751693       0.66468047       0.24373399
N        0.75496204       0.55921054       0.99224666       1.70292405      -3.28658214       0.90019001
P        0.50491887       0.42866504      -0.77956911      -1.02230765      -0.18961990       2.72499100
C        0.50741333       1.79395738       1.72337274      -0.02970808      -0.17198248      -0.56774160
C        0.60069009      -1.30074261       2.12409151      -0.62117273       0.98268742      -0.43432320
C        0.54459904       1.88543490      -1.89855476       0.31509376      -1.74293699      -0.23918878
H       -0.54572280       2.02079704       1.72125987      -0.52650572       0.50282049       0.26725554
H        0.88359073       1.75012389       2.76595381      -0.14794900      -0.28522511      -0.75689642
H        1.05087737       2.61316064       1.20547596      -0.27832540      -0.42419789       0.33700512
H        0.81815219      -1.16032551       3.20470620       0.03433893       1.00578641      -1.00643863
H        1.33177937      -2.00263856       1.71785689      -0.05534808       0.81271629      -0.53351034
H       -0.41593479      -1.71207915       2.05038083       0.32284491       0.66712966      -0.48844146
