44
Properties=species:S:1:pos:R:3:forces:R:3 id=30927 bond=C-N smiles="[H:27][c:6]1[c:7]([c:13]2[c:16]([c:15]3[c:12]1-[c:11]4[c:5]([c:9]([c:8]([c:14]([c:10]4[O:4][C:19]3([H:31])[H:32])[N+:18](=[O:1])[O-:2])[H:29])[F:3])[H:26])[C:24]([C:23]([C:25]([N:17]2[H:30])([C:21]([H:36])([H:37])[H:38])[C:22]([H:39])([H:40])[H:41])([H:42])[H:43])([H:44])[C:20]([H:33])([H:34])[H:35])[H:28]" dataset=PubChem energy=-31869.510781733887 pbc="F F F"
O       -3.56404829      -1.83878883      -4.32277289       0.09498247       1.18088805       0.98589373
O       -3.79194642      -0.02919104      -3.05164018       1.15304493      -2.78995686      -0.69427205
F       -2.15480513      -5.27187906      -1.06073170      -0.00058698      -0.05583584      -0.27095317
O       -1.51529498       0.14275719      -1.63060503      -0.24143106      -0.19114840       0.40293976
C       -1.17111427      -3.28991400      -0.31927155       0.72854996       0.59307611       0.35903591
C        0.41759244      -1.60644709       1.70040412       0.57805004       0.46910540       0.12633222
C        1.25178020      -0.82367133       2.51061816      -0.75301585       0.65819593      -1.06124043
C       -2.71158046      -3.25336562      -2.15756040      -0.94570050      -0.52671066      -1.03729901
C       -1.97738190      -3.94739329      -1.21888106      -0.69134303       0.74689005       0.15375853
C       -1.69294185      -1.18741344      -1.44889991       0.03184818      -0.37785364       0.43982565
C       -0.99573071      -1.90439545      -0.40211742       0.01696730       0.66219201      -0.96252544
C       -0.04972202      -1.12213241       0.47834624      -0.94604168       0.36458694      -0.46545987
C        1.55466466       0.51162665       2.13954146      -0.32660106      -0.09687155      -0.23906454
C       -2.61080641      -1.86124169      -2.30314665       2.37230770      -0.88515556       2.75917811
C        0.28275425       0.19756014       0.07380731      -0.12203788      -0.64635810       0.81909954
C        1.12300926       0.99644879       0.85707439       0.81352644      -0.30256065       0.52967555
N        2.25486367       1.34048785       3.03540034      -0.23278942      -0.64401046      -0.73472591
N       -3.34652758      -1.18785938      -3.29015722      -2.16673588       1.80112279      -1.50633689
C       -0.27839232       0.71264128      -1.23037558       0.84328618      -0.83704717       0.19143337
C        2.58725934       2.13802625      -0.93747096      -0.34070201       0.07626332      -0.79059054
C        0.98257025       3.47886909       3.20593662      -0.19464420      -0.20950021       0.74076415
C        3.43443112       3.35632003       3.70652814      -0.11988270       0.20475782      -0.51650745
C        2.61579256       3.06546391       1.36115474      -0.10084792      -0.80039475      -0.01282285
C        1.70818465       2.30412294       0.31266762       0.63788498       0.57116274       1.19625868
C        2.29134255       2.78130329       2.83289261       0.37744944       0.57998190       0.12357376
H       -0.64231331      -3.87344490       0.43489216      -0.17619912       0.22127570      -0.24085160
H        0.12625291      -2.59191977       2.05409116       0.12402203       0.17844928      -0.14559762
H        1.61666279      -1.22654974       3.43401761       0.08677029      -0.00570368       0.34547957
H       -3.41766758      -3.80230938      -2.80419307       0.56505565       0.39951816       0.42620172
H        2.16158371       1.06263567       4.00064082       0.03760840      -0.01168280      -0.14402879
H       -0.41268952       1.77905489      -1.19628422      -0.20970225       0.26315697      -0.07900172
H        0.46461443       0.47200222      -1.98535852       0.02026965       0.11632008      -0.41941581
H        3.16875987       3.05460585      -1.12367313      -0.26923443      -0.26760455       0.14893486
H        1.97835987       1.97672452      -1.84197073       0.32595028      -0.03555973       0.34287773
H        3.30864816       1.31252653      -0.86174112      -0.34760562       0.19432818       0.21521573
H        1.04787718       4.53988136       3.03042097       0.15298057       0.39888195      -0.16937153
H        0.13579248       3.11536421       2.63913984      -0.13133662      -0.25160363      -0.11216302
H        0.75858388       3.37271250       4.27891464       0.05442811      -0.17077946      -0.34056123
H        4.41286020       3.00862277       3.36361212      -0.22809610      -0.14396873       0.06993879
H        3.32564311       3.11190070       4.76383252      -0.12464428      -0.02853199      -0.07167642
H        3.43751722       4.44649638       3.60081191      -0.04079907      -0.16725053       0.14281807
H        2.51571112       4.14068092       1.18272777       0.16191237      -0.22380949      -0.00500954
H        3.67454939       2.78590644       1.22397525      -0.47728386       0.06216768      -0.18808064
H        0.88014822       2.98753751       0.11645175       0.00475935      -0.07527079      -0.30972669
