44
Properties=species:S:1:pos:R:3:forces:R:3 id=30927 bond=C-N smiles="[H:27][c:6]1[c:7]([c:13]2[c:16]([c:15]3[c:12]1-[c:11]4[c:5]([c:9]([c:8]([c:14]([c:10]4[O:4][C:19]3([H:31])[H:32])[N+:18](=[O:1])[O-:2])[H:29])[F:3])[H:26])[C:24]([C:23]([C:25]([N:17]2[H:30])([C:21]([H:36])([H:37])[H:38])[C:22]([H:39])([H:40])[H:41])([H:42])[H:43])([H:44])[C:20]([H:33])([H:34])[H:35])[H:28]" dataset=PubChem energy=-31865.888662737856 pbc="F F F"
O       -3.86767925      -1.56088502      -4.73011058       1.03255207       1.49724428       3.33863075
O       -4.09557738       0.24871277      -3.45897787       2.00675922      -4.28854545      -0.31798242
F       -1.85117417      -5.54978287      -0.65339401      -0.04990908      -0.02902167      -0.33242867
O       -1.21166402      -0.13514662      -1.22326734      -0.27908689       0.13697681       0.39433541
C       -0.86748331      -3.56781781       0.08806614       0.64542177       0.45436466       0.32200059
C        0.72122340      -1.88435090       2.10774181       0.56165586       0.43542907       0.12381285
C        1.55541116      -1.10157514       2.91795585      -0.75191128       0.67145974      -1.06673363
C       -2.40794950      -3.53126943      -1.75022271      -1.74146072       0.67832520      -2.12423191
C       -1.67375094      -4.22529710      -0.81154337      -0.25008910       0.65588205       0.60266836
C       -1.38931089      -1.46531725      -1.04156222      -0.45121336       0.07162053      -0.54483344
C       -0.69209975      -2.18229926       0.00522027      -0.19767413       0.39441312      -0.93072306
C        0.25390894      -1.40003622       0.88568393      -0.91669891       0.46727447      -0.50114078
C        1.85829562       0.23372284       2.54687915      -0.32619904      -0.09808284      -0.23851869
C       -2.30717545      -2.13914550      -1.89580896       1.39896686      -0.78238600       1.50550633
C        0.58638521      -0.08034367       0.48114500      -0.11956451      -0.63950513       0.82653585
C        1.42664022       0.71854498       1.26441208       0.81223574      -0.30869303       0.52914012
N        2.55849463       1.06258404       3.44273803      -0.23325664      -0.64256415      -0.73349451
N       -3.65015854      -0.90995557      -3.69749491      -1.65757258       1.46866926      -1.16643810
C        0.02523864       0.43473747      -0.82303789       0.76994108      -0.83293231       0.14348205
C        2.89089030       1.86012244      -0.53013327      -0.34145458       0.07697099      -0.79184946
C        1.28620121       3.20096528       3.61327431      -0.19398898      -0.20943360       0.74094097
C        3.73806208       3.07841622       4.11386583      -0.12005140       0.20475545      -0.51600215
C        2.91942352       2.78756010       1.76849243      -0.10141613      -0.80101993      -0.01217259
C        2.01181561       2.02621913       0.72000531       0.63855260       0.57169153       1.19451398
C        2.59497351       2.50339948       3.24023030       0.37784833       0.57903202       0.12183380
H       -0.33868235      -4.15134871       0.84222985      -0.17372903       0.21727542      -0.26800928
H        0.42988387      -2.86982358       2.46142885       0.12399023       0.18019771      -0.14772170
H        1.92029375      -1.50445355       3.84135530       0.08499795      -0.00802585       0.34464992
H       -3.11403662      -4.08021319      -2.39685538       0.48966264       0.22191130       0.41847532
H        2.46521467       0.78473186       4.40797851       0.03750617      -0.01172994      -0.14386729
H       -0.10905856       1.50115108      -0.78894653      -0.19830594       0.26717832      -0.07313025
H        0.76824539       0.19409841      -1.57802083       0.03229146       0.11178754      -0.42241818
H        3.47239083       2.77670204      -0.71633544      -0.26853088      -0.26698572       0.14980164
H        2.28199083       1.69882071      -1.43463304       0.32600277      -0.03645038       0.34445959
H        3.61227912       1.03462272      -0.45440343      -0.34757369       0.19391574       0.21538089
H        1.35150814       4.26197755       3.43775866       0.15295292       0.39909989      -0.16941895
H        0.43942344       2.83746040       3.04647753      -0.13118255      -0.25171247      -0.11226081
H        1.06221484       3.09480869       4.68625233       0.05436511      -0.17079872      -0.34020477
H        4.71649116       2.73071896       3.77094981      -0.22807836      -0.14402815       0.06989662
H        3.62927407       2.83399689       5.17117021      -0.12460864      -0.02853864      -0.07135122
H        3.74114818       4.16859257       4.00814960      -0.04084645      -0.16697878       0.14275731
H        2.81934208       3.86277711       1.59006546       0.16198699      -0.22366490      -0.00526012
H        3.97818035       2.50800263       1.63131294      -0.47710953       0.06205189      -0.18803781
H        1.18377918       2.70963370       0.52378944       0.00495829      -0.07593924      -0.31018255
