36
Properties=species:S:1:pos:R:3:forces:R:3 id=40835 bond=C-C smiles="[H:20][C:11](=[C:12]([H:22])[C:14]([H:25])([H:26])[S:7][C:9]1=[N:2][N:3]=[C:10]([S:6]1)[C:13]([H:23])([H:24])[S:8][P:19](=[S:1])([O:4][C:17]([H:33])([H:34])[C:15]([H:27])([H:28])[H:29])[O:5][C:18]([H:35])([H:36])[C:16]([H:30])([H:31])[H:32])[H:21]" dataset=PubChem energy=-70369.7259890213 pbc="F F F"
S       -1.26219949      -3.21128586      -0.05028469       1.03329823       0.51848713       0.73500389
N       -0.31373301       3.06016632       0.60583515      -1.25870355      -1.67593300       0.27129540
N        0.41124454       2.17576166       1.40328609      -1.68654970      -0.83029800       0.79922090
O        0.21454996      -0.68248215      -0.32716030       0.93854136      -2.09499003       1.90883042
O        1.65992799      -2.77575854       0.60751506      -0.86187536       0.54402214       0.26093431
S       -1.92994186       1.10188484       1.20736157       0.44169429       0.96281304       0.20770024
S       -2.78166505       3.54153987      -0.48276383       0.11655679       0.01791875      -0.12151679
S       -0.20544386      -1.58303169       2.63412183      -0.14645197       0.89865636       0.09798076
C       -1.55504784       2.62852093       0.41564377       1.33395166       0.67137173       0.36554846
C       -0.32499507       1.16795698       1.87844937       1.33468819       1.19801956      -1.30431650
C       -1.44748458       6.53184863       1.69349413      -2.11117143      -1.48195451      -0.98666554
C       -2.45128700       5.89486333       0.99026843       3.13232266       0.65474632       1.14913992
C        0.26595264       0.18305730       2.87493604       0.55968370       1.01844838       0.16786856
C       -2.17641112       5.27652570      -0.38689894       0.28194267       0.68149847       0.17669517
C        1.22713563       0.62608792      -2.07930476      -1.05151878      -1.18613630       0.87753886
C        3.80108024      -4.64163415       1.01767140      -2.41864342       1.00216442       1.40103311
C        1.36614277      -0.62324885      -1.16988784       0.98741994       1.88820505      -0.98967503
C        1.82497146      -3.97602346       1.39346199       2.35581593      -1.28877189      -0.23893848
P        0.17643373      -2.05291441       0.62217837      -1.27447068      -0.73296350      -1.70127635
H       -0.46727911       6.65427991       1.25272834      -0.03101610       0.05836000       0.04780435
H       -1.58938882       6.82105370       2.74193280      -0.01704169       0.07918444      -0.63756312
H       -3.37164375       5.67877694       1.51724892      -0.18492076       0.03602254      -0.40981678
H        1.37473443       0.32720491       2.90769570      -1.00400027      -0.17484877      -0.28460748
H       -0.09227023       0.53920563       3.87806409       0.13605649      -0.92386082      -0.76384534
H       -2.67990634       5.87629958      -1.17108399      -0.18516080      -0.79971191       0.30393906
H       -1.10626301       5.30719873      -0.69659693      -0.73775272      -0.10236757       0.68243971
H        2.08866706       0.75449186      -2.69096071       0.64726430      -0.12810089      -0.56041711
H        0.32197092       0.51090204      -2.70030409       0.45998347       0.26204585       0.26967461
H        1.16126254       1.48789998      -1.43807346      -0.29179628       0.41148527       0.11472378
H        4.00908710      -5.46845357       1.72464477      -0.43113723       0.57962377      -0.45029242
H        3.86202432      -4.95960061      -0.00612284      -0.52673145      -0.21442950      -0.33291329
H        4.54130365      -3.83495203       1.14776217      -0.83978423      -0.06665238       0.26311372
H        1.48430970      -1.50063995      -1.76851518      -0.27061624      -0.71086063      -0.29357933
H        2.27372196      -0.52523759      -0.57579118      -0.08867520       0.02063759       0.15309382
H        1.10591534      -4.79311732       1.11790650       0.95198384       0.85053116      -0.30380305
H        1.65709772      -3.77961138       2.47903674       0.71690751       0.07133199      -0.86354975
