21
Properties=species:S:1:pos:R:3:forces:R:3 id=36171 bond=N-N smiles="[H:15][C:7]1=[C:9]([C:13]([C:10](=[C:8]([C:6]1=[N:2]/[N:3]=[C:11]/2[N:12]([N:1]=[C:5]([S:4]2)[H:14])[H:19])[H:16])[H:18])([H:20])[H:21])[H:17]" dataset=PubChem energy=-25227.978890592432 pbc="F F F"
N       -3.26845910      -1.18515001      -1.41255201      -0.95570364       2.47624852      -3.53157932
N       -0.07291608       0.24856716       0.52319600      -0.71511838       0.82945174      -0.93219151
N       -0.65728201       1.01740463      -0.66039731       2.12470547       0.10604967      -0.83727124
S       -2.55015256       1.04360760      -2.66666354      -0.45309147       0.22569878      -1.17681189
C       -3.52892973      -0.36654053      -2.43696965      -2.47152234      -2.98884535       0.56101671
C        1.12056846       0.53915426       1.02601022      -1.33426681       1.55551976      -0.44938786
C        2.16290647       1.43691394       0.41412097       2.53736570       0.09976513       0.93378205
C        1.29858441       0.14176440       2.47110277       2.11140711       0.07391816      -0.90063038
C        3.41149360       1.71078327       1.06782978      -6.11602961      -1.69749138      -0.80498149
C        2.49324256       0.41363912       3.12485164      -2.41604387      -0.48750090      -1.15611002
C       -1.60311033       0.46057942      -1.41188540       2.69036777      -0.69883846       6.09417614
N       -2.18320419      -0.67094432      -0.89159275       2.01327037      -0.91169355       2.69775262
C        3.60447199       1.26217112       2.46404320      -0.13060864      -1.66337546       1.47782978
H       -4.38034012      -0.66028796      -3.08075918       0.80240715       0.69352992       0.35048504
H        1.89017541       1.76130214      -0.60836798       0.60598058      -0.09549382       0.77578267
H        0.38246079      -0.37740961       2.76653856       0.73129456       0.11411683       0.80286585
H        4.20032698       2.23914733       0.64914269       0.99920146       0.97120458      -1.02308741
H        2.59937555       0.16323191       4.21220916       0.02016949       0.25569669      -1.26099559
H       -1.88425161      -0.94018994       0.07266004      -0.16416380       0.23450819      -1.39689411
H        3.60773045       2.06299654       3.22937888       0.87997130       0.18865828      -0.77624797
H        4.57087094       0.67930888       2.46506876      -0.75968420       0.71720691       0.55112256
