21
Properties=species:S:1:pos:R:3:forces:R:3 id=36171 bond=N-N smiles="[H:15][C:7]1=[C:9]([C:13]([C:10](=[C:8]([C:6]1=[N:2]/[N:3]=[C:11]/2[N:12]([N:1]=[C:5]([S:4]2)[H:14])[H:19])[H:16])[H:18])([H:20])[H:21])[H:17]" dataset=PubChem energy=-25228.05330933094 pbc="F F F"
N       -3.21084556      -1.26095089      -1.29585971      -0.92778440       2.49479970      -3.44631767
N       -0.13052962       0.32436804       0.40650370       3.16077280      -3.25945839       6.38956491
N       -0.59966847       0.94160375      -0.54370501      -1.94298273       4.29399678      -8.45186590
S       -2.49253902       0.96780672      -2.54997124      -0.44920563       0.14655708      -1.07254891
C       -3.47131619      -0.44234141      -2.32027735      -2.41992591      -2.87687737       0.50018995
C        1.06295492       0.61495514       0.90931792      -0.27817604       1.05950269       1.00627322
C        2.10529293       1.51271482       0.29742867       2.24602634      -0.00302454       0.96671070
C        1.24097087       0.21756528       2.35441047       2.22411262       0.20156535      -1.14818050
C        3.35388006       1.78658415       0.95113748      -6.07199393      -1.66330054      -0.84045192
C        2.43562902       0.48944000       3.00815934      -2.43544943      -0.54120974      -1.03380667
C       -1.54549679       0.38477854      -1.29519310       1.62409143      -0.49735871       4.93133305
N       -2.12559065      -0.74674520      -0.77490045       2.11581789      -0.81413057       2.62210895
C        3.54685845       1.33797200       2.34735090      -0.11111765      -1.63818889       1.51901477
H       -4.32272658      -0.73608884      -2.96406688       0.80523105       0.68332249       0.34587942
H        1.83256187       1.83710302      -0.72506028       0.65058075      -0.07304459       0.74805871
H        0.32484725      -0.30160873       2.64984626       0.73030965       0.09911610       0.80381013
H        4.14271344       2.31494821       0.53245039       0.99775230       0.96565169      -1.03005146
H        2.54176201       0.23903279       4.09551686       0.03248784       0.26527107      -1.25287008
H       -1.82663807      -1.01599082       0.18935234      -0.11015844       0.23785894      -1.33614377
H        3.55011691       2.13879742       3.11268658       0.90452848       0.20154145      -0.77500685
H        4.51325740       0.75510976       2.34837646      -0.74553854       0.71582489       0.55212695
