21
Properties=species:S:1:pos:R:3:forces:R:3 id=36171 bond=N-N smiles="[H:15][C:7]1=[C:9]([C:13]([C:10](=[C:8]([C:6]1=[N:2]/[N:3]=[C:11]/2[N:12]([N:1]=[C:5]([S:4]2)[H:14])[H:19])[H:16])[H:18])([H:20])[H:21])[H:17]" dataset=PubChem energy=-25225.10064019835 pbc="F F F"
N       -3.17792353      -1.30426568      -1.22917840      -0.88050907       2.50597966      -3.35813594
N       -0.16345165       0.36768283       0.33982239      12.29120212     -14.07187305      24.21259593
N       -0.56674644       0.89828896      -0.47702370     -11.25909248      15.38615301     -26.28225744
S       -2.45961699       0.92449193      -2.48328993      -0.45706895       0.12115527      -1.01606932
C       -3.43839416      -0.48565620      -2.25359604      -2.36752789      -2.79099964       0.45755478
C        1.03003289       0.65826993       0.84263661       1.29183111       0.75182645       2.51474346
C        2.07237090       1.55602961       0.23074736       1.95456231      -0.14603565       0.99487154
C        1.20804884       0.26088007       2.28772916       2.24460125       0.31980898      -1.35700251
C        3.32095803       1.82989894       0.88445617      -6.01592862      -1.62793343      -0.87432317
C        2.40270699       0.53275479       2.94147803      -2.44208758      -0.58695294      -0.93145330
C       -1.51257476       0.34146375      -1.22851179       0.14242037      -0.58712034       3.35406393
N       -2.09266862      -0.79005999      -0.70821914       2.22272798      -0.74733597       2.61861028
C        3.51393642       1.38128679       2.28066959      -0.08275121      -1.61696807       1.56158345
H       -4.28980455      -0.77940363      -2.89738557       0.80713636       0.67266612       0.33876031
H        1.79963984       1.88041781      -0.79174159       0.68129985      -0.04941579       0.71476557
H        0.29192522      -0.25829394       2.58316495       0.72852543       0.07693546       0.82340867
H        4.10979141       2.35826300       0.46576908       0.99038581       0.96584502      -1.03589836
H        2.50883998       0.28234758       4.02883555       0.03698790       0.27084532      -1.24713043
H       -1.79371604      -1.05930561       0.25603365      -0.08499357       0.22421369      -1.27427020
H        3.51719488       2.18211221       3.04600527       0.92929191       0.21453381      -0.77212240
H        4.48033537       0.79842455       2.28169515      -0.72997251       0.71369750       0.55695467
