21
Properties=species:S:1:pos:R:3:forces:R:3 id=36171 bond=N-N smiles="[H:15][C:7]1=[C:9]([C:13]([C:10](=[C:8]([C:6]1=[N:2]/[N:3]=[C:11]/2[N:12]([N:1]=[C:5]([S:4]2)[H:14])[H:19])[H:16])[H:18])([H:20])[H:21])[H:17]" dataset=PubChem energy=-25228.349920075907 pbc="F F F"
N       -3.22319132      -1.24470784      -1.32086520      -0.93826705       2.49000642      -3.47054127
N       -0.11818386       0.30812499       0.43150919       1.56568195      -1.47339212       3.33200738
N       -0.61201423       0.95784680      -0.56871050      -0.29781159       2.45788574      -5.34890446
S       -2.50488478       0.98404977      -2.57497673      -0.44802277       0.16187626      -1.09558727
C       -3.48366195      -0.42609836      -2.34528284      -2.43465098      -2.90510968       0.51452267
C        1.07530068       0.59871209       0.93432341      -0.64303356       1.17843331       0.58943458
C        2.11763869       1.49647177       0.32243416       2.32863582       0.03060783       0.95682271
C        1.25331663       0.20132223       2.37941596       2.20638875       0.16579459      -1.08520596
C        3.36622582       1.77034110       0.97614297      -6.08540217      -1.67342649      -0.82950753
C        2.44797478       0.47319695       3.03316483      -2.43114169      -0.52689951      -1.06551194
C       -1.55784255       0.40102159      -1.32019859       1.98078597      -0.51897046       5.31771844
N       -2.13793641      -0.73050215      -0.79990594       2.08506228      -0.83768710       2.63105573
C        3.55920421       1.32172895       2.37235639      -0.11812605      -1.64541537       1.50628908
H       -4.33507234      -0.71984579      -2.98907237       0.80467173       0.68614776       0.34747852
H        1.84490763       1.82085997      -0.70005479       0.63963587      -0.07953185       0.75678859
H        0.33719301      -0.31785178       2.67485175       0.73012684       0.10447235       0.80046893
H        4.15505920       2.29870516       0.55745588       0.99892896       0.96673253      -1.02810724
H        2.55410777       0.22278974       4.12052235       0.03012630       0.26340358      -1.25474282
H       -1.83898383      -0.99974777       0.16434685      -0.12166566       0.23930957      -1.35247771
H        3.56246267       2.12255437       3.13769207       0.89721606       0.19777729      -0.77554045
H        4.52560316       0.73886671       2.37338195      -0.74966005       0.71636636       0.55134158
