17
Properties=species:S:1:pos:R:3:forces:R:3 id=46582 bond=C-N smiles="[H:11][C:4]([H:12])([H:13])[N:2]([H:7])[C:6]([H:16])([H:17])[C:5]([H:14])([H:15])[S:1][C:3]([H:8])([H:9])[H:10]" dataset="DES370K Monomers" energy=-16646.43291946093 pbc="F F F"
S       -0.73078360       0.54897420      -1.13848297       0.69189588       0.14700799      -0.69243282
N       -1.13222321      -0.54398986       1.65186234      59.75896726      10.38197368     -41.33575713
C        0.44830416       1.24685518      -2.34884827      -0.37603533       0.26438268      -0.08811031
C       -1.92084150      -0.67483775       2.17931049     -57.06713948     -10.56361965      39.27799022
C        0.21254600       0.96942608       0.33057012      -0.40143891       1.07022644       0.29656988
C       -0.66909824       0.82388143       1.55797024       1.71065543       0.57964245      -1.48312514
H       -1.26834340      -0.90021308       0.70027543       1.49278684       0.09261256      -0.40267080
H        0.44920025       2.33446245      -2.23445623      -0.01780702      -0.16993212      -0.07726913
H        0.05431573       0.99998717      -3.33391063       0.14476837       0.04107989       0.03984296
H        1.48415880       0.90228973      -2.26851790      -0.39033809      -0.27458668       0.19658172
H       -2.76793127      -0.12118528       1.73896878      -3.22471863       0.50948297       0.79634080
H       -1.78232197      -0.30955998       3.18136088      -1.04020270       0.23639601       2.03263310
H       -2.17702798      -1.72250847       2.26833217      -1.50577439      -1.01536598       0.80426068
H        1.07025437       0.34171234       0.43056868       0.58668194      -0.44829281      -0.06110309
H        0.54549275       2.01085786       0.22842677      -0.07215718      -0.28300948       0.07087331
H       -1.48098619       1.55902867       1.51714404      -0.56287182      -0.38855705      -0.14075754
H       -0.09208639       1.09632842       2.41914852       0.27468460      -0.17713467       0.76752562
