17
Properties=species:S:1:pos:R:3:forces:R:3 id=46582 bond=C-N smiles="[H:11][C:4]([H:12])([H:13])[N:2]([H:7])[C:6]([H:16])([H:17])[C:5]([H:14])([H:15])[S:1][C:3]([H:8])([H:9])[H:10]" dataset="DES370K Monomers" energy=-16655.228593456897 pbc="F F F"
S       -0.23560467       0.63113449      -1.46967134       0.64701078       0.11918010      -0.74985659
N       -0.63704428      -0.46182957       1.32067397      -1.96839755      -1.24204051       2.13497410
C        0.94348309       1.32901547      -2.68003664      -0.37047061       0.26358657      -0.03945822
C       -2.41602043      -0.75699804       2.51049886       1.01524348       0.91887652      -1.94741985
C        0.70772493       1.05158637      -0.00061825      -0.50147801       0.81451854       0.22098682
C       -0.17391931       0.90604172       1.22678187      -1.00817673       0.32302181      -0.03311433
H       -0.77316447      -0.81805279       0.36908706      -0.88000772      -0.01413203       0.67935569
H        0.94437918       2.41662274      -2.56564460      -0.00452720      -0.15955831      -0.08533551
H        0.54949466       1.08214746      -3.66509900       0.14457047       0.03985759       0.03733593
H        1.97933773       0.98445002      -2.59970627      -0.38188014      -0.26652030       0.18604300
H       -3.26311020      -0.20334557       2.07015715       0.81421338      -0.18458089      -0.28084652
H       -2.27750090      -0.39172027       3.51254925       0.97268863       0.44216435       0.06471304
H       -2.67220691      -1.80466876       2.59952054       0.63553376      -0.26101075      -0.66665279
H        1.56543330       0.42387263       0.09938031       0.59649291      -0.47698553      -0.06435983
H        1.04067168       2.09301815      -0.10276160      -0.08164935      -0.25882873       0.13416628
H       -0.98580726       1.64118896       1.18595567      -0.02402030      -0.00025169      -0.24613131
H        0.40309254       1.17848871       2.08796015       0.39585716      -0.05746129       0.65856075
