17
Properties=species:S:1:pos:R:3:forces:R:3 id=46582 bond=C-N smiles="[H:11][C:4]([H:12])([H:13])[N:2]([H:7])[C:6]([H:16])([H:17])[C:5]([H:14])([H:15])[S:1][C:3]([H:8])([H:9])[H:10]" dataset="DES370K Monomers" energy=-16657.98102666862 pbc="F F F"
S       -0.48319413       0.59005435      -1.30407716       0.66009757       0.13001321      -0.72972541
N       -0.88463374      -0.50290971       1.48626815      -1.67273056      -0.99214250       1.06820212
C        0.69589363       1.28793533      -2.51444246      -0.37624322       0.26431661      -0.05285871
C       -2.16843097      -0.71591790       2.34490468       1.29581111       0.85905359      -1.87915702
C        0.46013547       1.01050623       0.16497593      -0.50754708       0.93783289       0.34938229
C       -0.42150877       0.86496158       1.39237605      -0.43345484       0.10949085      -0.29870280
H       -1.02075393      -0.85913293       0.53468124      -0.25809997       0.01068693       0.78268130
H        0.69678972       2.37554260      -2.40005042      -0.00689986      -0.16354609      -0.08311321
H        0.30190520       1.04106732      -3.49950482       0.14535521       0.04023905       0.03714895
H        1.73174827       0.94336988      -2.43411209      -0.38446394      -0.26881438       0.19018423
H       -3.01552074      -0.16226543       1.90456297       0.20569334      -0.22869909       0.14094521
H       -2.02991144      -0.35064013       3.34695507       0.40536712       0.27552042       0.29327021
H       -2.42461745      -1.76358862       2.43392636       0.18372488      -0.17848613      -0.30815429
H        1.31784384       0.38279249       0.26497449       0.58713739      -0.48130357      -0.05818838
H        0.79308222       2.05193801       0.06283258      -0.08032451      -0.27453927       0.09830685
H       -1.23339672       1.60010882       1.35154985      -0.17094872      -0.01880323      -0.20463923
H        0.15550308       1.13740857       2.25355433       0.40867140      -0.01886749       0.65394527
