15
Properties=species:S:1:pos:R:3:forces:R:3 id=21599 bond=C-C smiles="[H:14][C:9]([H:15])([C:7]([H:10])([H:11])[N:5]([F:1])[F:2])[C:8]([H:12])([H:13])[N:6]([F:3])[F:4]" dataset=PubChem energy=-17050.75601932024 pbc="F F F"
F       -3.01433770      -0.70096007       1.24870587      -0.06694739       1.64750103      -0.46771668
F       -3.50823895       1.25374404       0.12915660      -2.29002326       1.07881457      -0.44860542
F        4.58181497       0.71765967       1.62262133      -2.49780656       1.39927236      -1.72856956
F        2.76046809       2.42996199       1.19124916       1.71319108      -1.61431640      -0.81247093
N       -2.58525316       0.47884989       0.60936232       3.57384593      -2.46136756      -0.11530188
N        3.12427755       1.06689168       1.09219000      -1.22377357      -1.27993025       2.63117420
C       -1.16433624       0.86896595       0.61489238       1.22919750       0.23135001       1.18696078
C        2.62336834       0.35997491      -0.00715211       1.03261207       3.05386334       0.68555833
C       -0.25969098      -0.37516150       0.49249740      -2.03732816      -2.26641831      -1.91102697
H       -0.85656045       1.11023793       1.64741130      -0.47325544       1.54611445      -0.45929301
H       -0.97982458       1.67675862      -0.22161941      -0.57062531      -1.68299394       1.97508720
H        3.22828384      -0.47877793      -0.09110474       0.39996668      -2.08036081       0.19876140
H        2.80524536       0.96168633      -0.89589056      -1.40700111       0.04786016      -0.55393584
H       -0.41143567      -1.13135019       1.42098690       1.07576294       1.94710324      -2.26905151
H       -0.59597749      -0.85920313      -0.53613483       1.54174476       0.43416700       2.07963508
