15
Properties=species:S:1:pos:R:3:forces:R:3 id=21599 bond=C-C smiles="[H:14][C:9]([H:15])([C:7]([H:10])([H:11])[N:5]([F:1])[F:2])[C:8]([H:12])([H:13])[N:6]([F:3])[F:4]" dataset=PubChem energy=-17053.770861816472 pbc="F F F"
F       -2.56317193      -0.58591964       1.17051644      -0.04848986       1.62369379      -0.44931901
F       -3.05707318       1.36878447       0.05096717      -2.33666441       1.16606811      -0.36966964
F        4.13064920       0.60261924       1.70081076      -2.76941392       1.61763052      -2.23620960
F        2.30930232       2.31492156       1.26943859       1.77118637      -1.48676971      -1.01887579
N       -2.13408739       0.59389032       0.53117289       3.58105992      -2.43066452      -0.18139121
N        2.67311178       0.95185125       1.17037943      -0.46160916      -0.88623066       4.87676573
C       -0.71317047       0.98400638       0.53670295       0.88764973       0.01575284       1.07970076
C        2.17220257       0.24493448       0.07103732      -2.05464382       1.83335438      -0.09766405
C        0.19147479      -0.26012107       0.41430797       0.79827588      -1.63608730      -2.44666937
H       -0.40539468       1.22527836       1.56922187      -0.40698472       1.57344117      -0.45364412
H       -0.52865881       1.79179905      -0.29980884      -0.55260187      -1.68771348       1.97153724
H        2.77711807      -0.59381836      -0.01291531       0.53527382      -1.93060558       0.08022017
H        2.35407959       0.84664590      -0.81770113      -1.05955425      -0.12988329      -0.59115870
H        0.03973010      -1.01630976       1.34279747       0.89190656       1.96303439      -2.36071150
H       -0.14481172      -0.74416270      -0.61432426       1.22040895       0.39518060       2.19552135
