15
Properties=species:S:1:pos:R:3:forces:R:3 id=21599 bond=C-C smiles="[H:14][C:9]([H:15])([C:7]([H:10])([H:11])[N:5]([F:1])[F:2])[C:8]([H:12])([H:13])[N:6]([F:3])[F:4]" dataset=PubChem energy=-17052.569081201273 pbc="F F F"
F       -2.70622449      -0.62239587       1.19530821      -0.05542511       1.62613965      -0.44997619
F       -3.20012574       1.33230824       0.07575894      -2.31952314       1.13932217      -0.39770876
F        4.27370176       0.63909547       1.67601899      -2.71644917       1.54759656      -2.08351333
F        2.45235488       2.35139779       1.24464682       1.75440198      -1.52961231      -0.94601640
N       -2.27713995       0.55741409       0.55596466       3.58511074      -2.45246673      -0.16654894
N        2.81616434       0.98832748       1.14558766      -0.74149327      -1.05020165       4.09628275
C       -0.85622303       0.94753015       0.56149472       1.06176453       0.12824305       1.11424317
C        2.31525513       0.28141071       0.04624555      -0.98193280       2.29048850       0.19345250
C        0.04842223      -0.29659730       0.43909974      -0.20187355      -1.88412834      -2.27620559
H       -0.54844724       1.18880213       1.59401364      -0.42597219       1.56628905      -0.45475705
H       -0.67171137       1.75532282      -0.27501707      -0.56136824      -1.68980936       1.97618608
H        2.92017063      -0.55734213      -0.03770708       0.44648529      -2.00462457       0.12848021
H        2.49713215       0.88312213      -0.84249290      -1.22829278      -0.08086020      -0.57264809
H       -0.10332246      -1.05278599       1.36758924       0.99740370       1.96791005      -2.33135823
H       -0.28786428      -0.78063893      -0.58953249       1.38382547       0.42500266       2.16458667
