15
Properties=species:S:1:pos:R:3:forces:R:3 id=21599 bond=C-C smiles="[H:14][C:9]([H:15])([C:7]([H:10])([H:11])[N:5]([F:1])[F:2])[C:8]([H:12])([H:13])[N:6]([F:3])[F:4]" dataset=PubChem energy=-17055.63737134526 pbc="F F F"
F       -2.31007893      -0.52138476       1.12665408      -0.04192198       1.62907782      -0.46284454
F       -2.80398018       1.43331935       0.00710481      -2.38574777       1.21066427      -0.33163086
F        3.87755620       0.53808436       1.74467312      -2.88887711       1.72310514      -2.37389111
F        2.05620932       2.25038668       1.31330095       1.91011442      -1.39699583      -1.07983380
N       -1.88099439       0.65842520       0.48731053       3.54528765      -2.37036358      -0.18954857
N        2.42001878       0.88731637       1.21424179       0.42649149      -0.47333173       5.96222503
C       -0.46007747       1.04854126       0.49284059       0.19053854      -0.31850413       1.07124731
C        1.91910957       0.18039960       0.11489968      -0.31969658       1.71808399      -1.17584275
C        0.44456779      -0.19558619       0.37044561      -1.10635538      -1.98632666      -2.05758213
H       -0.15230168       1.28981324       1.52535951      -0.44597856       1.53384193      -0.48680923
H       -0.27556581       1.85633393      -0.34367120      -0.52089188      -1.68082411       1.95211537
H        2.52402507      -0.65835324       0.03094705       0.98316438      -1.67751417      -0.03022711
H        2.10098659       0.78211102      -0.77383877      -0.56772844      -0.13354592      -0.60766809
H        0.29282310      -0.95177488       1.29893511       0.48593347       1.93006318      -2.41169861
H        0.10828128      -0.67962782      -0.65818662       0.73237073       0.29851661       2.22719009
