15
Properties=species:S:1:pos:R:3:forces:R:3 id=21599 bond=C-C smiles="[H:14][C:9]([H:15])([C:7]([H:10])([H:11])[N:5]([F:1])[F:2])[C:8]([H:12])([H:13])[N:6]([F:3])[F:4]" dataset=PubChem energy=-17055.124026272624 pbc="F F F"
F       -2.40911532      -0.54663754       1.14381761      -0.04318386       1.62629831      -0.45582602
F       -2.90301657       1.40806657       0.02426834      -2.36357621       1.19385277      -0.34287889
F        3.97659259       0.56333714       1.72750959      -2.83713596       1.68692849      -2.34797678
F        2.15524571       2.27563946       1.29613742       1.82295316      -1.44801009      -1.07443068
N       -1.98003078       0.63317242       0.50447406       3.56892305      -2.39542069      -0.18809665
N        2.51905517       0.91256915       1.19707826      -0.01818740      -0.66244288       5.59534619
C       -0.55911386       1.02328848       0.51000412       0.55278125      -0.17664617       1.05949016
C        2.01814596       0.20565238       0.09773615      -2.38894097       1.46838896      -0.52248449
C        0.34553140      -0.22083897       0.38760914       1.05747874      -1.52469976      -2.45062014
H       -0.25133807       1.26456046       1.54252304      -0.40752308       1.56364951      -0.46381701
H       -0.37460220       1.83108115      -0.32650767      -0.53652759      -1.68256980       1.96105958
H        2.62306146      -0.63310046       0.01378352       0.74249302      -1.79747803       0.01669263
H        2.20002298       0.80736380      -0.79100230      -0.80029303      -0.15372746      -0.60229856
H        0.19378671      -0.97702766       1.31609864       0.68805397       1.95865512      -2.40847039
H        0.00924489      -0.70488060      -0.64102309       0.96028211       0.34706805       2.22735486
