15
Properties=species:S:1:pos:R:3:forces:R:3 id=21599 bond=C-C smiles="[H:14][C:9]([H:15])([C:7]([H:10])([H:11])[N:5]([F:1])[F:2])[C:8]([H:12])([H:13])[N:6]([F:3])[F:4]" dataset=PubChem energy=-17051.23021689082 pbc="F F F"
F       -2.91530131      -0.67570729       1.23154233      -0.06439106       1.63880761      -0.46036759
F       -3.40920256       1.27899682       0.11199306      -2.29972317       1.09850519      -0.43448156
F        4.48277858       0.69240689       1.63978487      -2.58701620       1.44580114      -1.83769354
F        2.66143170       2.40470921       1.20841270       1.72952470      -1.59224904      -0.84667571
N       -2.48621677       0.50410267       0.59219878       3.57880139      -2.46218175      -0.13325525
N        3.02524116       1.04163890       1.10935354      -1.07645785      -1.22146455       3.03912469
C       -1.06529985       0.89421873       0.59772884       1.19285684       0.21147214       1.16586845
C        2.52433195       0.33472213       0.01001143       0.51176987       2.85538886       0.54658248
C       -0.16065459      -0.34990872       0.47533386      -1.56593043      -2.17391517      -2.00870725
H       -0.75752406       1.13549071       1.63024776      -0.45880434       1.55238144      -0.45775553
H       -0.88078819       1.70201140      -0.23878295      -0.56849218      -1.68636867       1.97644009
H        3.12924745      -0.50403071      -0.07394120       0.40420688      -2.06388351       0.18056502
H        2.70620897       0.93643355      -0.87872702      -1.37104377       0.00816204      -0.55657562
H       -0.31239928      -1.10609741       1.40382336       1.06254062       1.95412800      -2.28526104
H       -0.49694110      -0.83395035      -0.55329837       1.51062075       0.43527380       2.10354688
