42
Properties=species:S:1:pos:R:3:forces:R:3 id=2704 bond=O-P smiles="[H:41][C:22]12[C:12](=[C:13]([C:23]([C:20]1([Cl:5])[Cl:6])([C:19]([C:21]2([H:40])[S:10][C:17]([H:35])([H:36])[C:24]([H:42])([C:16]([H:32])([H:33])[H:34])[C:18]([H:37])([H:38])[S:11][P:25](=[S:1])([O:8][C:14]([H:26])([H:27])[H:28])[O:9][C:15]([H:29])([H:30])[H:31])([H:39])[Cl:4])[Cl:7])[Cl:3])[Cl:2]" dataset=PubChem energy=-134810.4312102397 pbc="F F F"
S        3.73712776       4.06282348      -1.01832905      -1.30043014      -0.55569773       1.37632045
Cl      -2.70103170      -4.51278787       0.58810594       0.39477617       0.74515134      -0.00246834
Cl      -1.45862199      -4.82615571       3.64567777       0.36895577       1.16769396      -0.19049465
Cl       1.74594615      -0.66131203       2.09142110       0.45028104      -0.07261209       1.21958744
Cl      -1.17676761       0.65277430       2.34730801      -0.27333487      -1.30662505      -0.38332739
Cl      -3.39237882      -1.20983057       2.55749950       0.20741481       0.39560800       0.51456629
Cl      -0.57609166      -1.62998800       4.58788034       0.64387337      -0.11756150       0.50748562
O        2.56343657       4.78656301       1.54953809      -0.48798310      -1.86079073       0.40194495
O        3.22040556       2.11050338       1.20304838      -2.17214905       3.17492516      -0.86027670
S        0.46825393      -0.56841879      -0.62152388      -0.10449120       0.18993865      -0.66633356
S        0.59364301       3.12963981      -0.13098272      -0.47320969       0.14115276       0.61320362
C       -1.83418991      -3.26923924       1.40654114       0.51327242      -0.76544724       2.43020901
C       -1.33830191      -3.38092904       2.69586012      -1.42988748      -1.53150425      -3.89516957
C        2.27595717       4.33741316       2.87433894      -2.63608291      -2.06699753       0.86953213
C        4.52739380       2.35334784       1.69522533      -0.05748552      -3.63495923       1.93784910
C       -0.29853119       0.78761807      -3.49602296      -0.13032917       3.00559761      -1.90598394
C       -0.96262480       0.52174218      -1.10602656      -0.25385204       0.96337668       0.88435600
C        0.66153021       2.40237302      -1.82530287      -0.88893517      -2.37846108       1.54642616
C        0.58125558      -1.94627838       1.98425612       0.05084774      -1.70184179      -0.85567743
C       -1.63916709      -1.10048370       2.17267403      -0.95407094       0.59270945      -0.07238079
C       -0.07973250      -1.91622930       0.52140160       3.09971609      -1.25451349      -0.99962235
C       -1.48101975      -1.85674028       0.87070954      -2.07179900      -1.69839217      -0.58858620
C       -0.68695785      -2.08479552       2.89974257       0.24308867       2.97077034       2.00973005
C       -0.61040248       1.55462129      -2.23017051      -1.17363265      -1.28274775       0.89401135
P        2.54995630       3.52693123       0.52276475       3.34890969      -0.39915336      -3.66810381
H        3.09906107       4.25277361       3.52681262       1.43397517       0.25141780       0.23515477
H        1.51677811       4.91663990       3.39739067       0.09055136       0.51427446      -0.53596633
H        1.82161290       3.27714929       2.86996300       0.64873259       1.48004915      -0.08790700
H        4.85216139       3.31365485       1.88562188       0.01020019       2.26665971       0.23104005
H        5.27040146       1.87808949       1.10629717       0.42112132      -0.29596897      -1.07233268
H        4.52174519       1.74816162       2.63552067       0.28899112       0.80084193      -0.35873358
H       -1.15833559       0.34911317      -4.00936964       0.18694532       0.03933262       0.34199442
H        0.17219494       1.54153926      -4.17231682      -0.80945312      -0.31407452      -0.18272837
H        0.51367178       0.14724053      -3.44900396       1.14667955      -1.83738307       0.80479466
H       -1.11175992       1.25314934      -0.29951307      -0.52635285      -1.08569077       0.35824374
H       -1.88026620      -0.05955737      -1.33546188       0.70083302       0.51450411       0.07118980
H        1.55895935       1.81327207      -1.90324309       0.12048232      -0.67163338       0.32370066
H        0.79895059       3.06708378      -2.56832292       0.29371883       3.04193224      -1.96187812
H        1.03432671      -2.93649249       2.13691148       0.55366630       0.71352538      -0.27525494
H        0.25279067      -2.90611987      -0.02793583      -0.96510363       2.06574144       1.08396005
H       -2.06962682      -1.60566955       0.03763959      -1.11880643       0.50559758      -0.60933788
H       -1.64323403       2.13406760      -2.39523509       2.60764988      -0.71837688       0.51701058
