42
Properties=species:S:1:pos:R:3:forces:R:3 id=2704 bond=O-P smiles="[H:41][C:22]12[C:12](=[C:13]([C:23]([C:20]1([Cl:5])[Cl:6])([C:19]([C:21]2([H:40])[S:10][C:17]([H:35])([H:36])[C:24]([H:42])([C:16]([H:32])([H:33])[H:34])[C:18]([H:37])([H:38])[S:11][P:25](=[S:1])([O:8][C:14]([H:26])([H:27])[H:28])[O:9][C:15]([H:29])([H:30])[H:31])([H:39])[Cl:4])[Cl:7])[Cl:3])[Cl:2]" dataset=PubChem energy=-134808.3805969309 pbc="F F F"
S        3.73832359       4.17456501      -0.92724432      -1.12967007      -0.73137318       0.87833071
Cl      -2.69983587      -4.40104634       0.67919067       0.39533091       0.74555959      -0.00103653
Cl      -1.45742616      -4.71441418       3.73676250       0.36938278       1.16511852      -0.18843049
Cl       1.74714198      -0.54957050       2.18250583       0.45807903      -0.06751503       1.21242472
Cl      -1.17557178       0.76451583       2.43839274      -0.27776118      -1.29814207      -0.38618795
Cl      -3.39118299      -1.09808904       2.64858423       0.20758980       0.39860800       0.51631713
Cl      -0.57489583      -1.51824647       4.67896507       0.64340640      -0.11645986       0.51499613
O        2.56224074       4.67482148       1.45845336      -0.54050160      12.97151811      13.49287836
O        3.22160139       2.22224491       1.29413311      -1.83393003       2.69627017      -1.10657159
S        0.46944976      -0.45667726      -0.53043915      -0.10308737       0.18700745      -0.66140817
S        0.59483884       3.24138134      -0.03989799      -0.45706996      -0.04614061       0.35587555
C       -1.83299408      -3.15749771       1.49762587       0.51161189      -0.76235675       2.43226384
C       -1.33710608      -3.26918751       2.78694485      -1.43146370      -1.53003969      -3.89434971
C        2.27476134       4.22567163       2.78325421      -3.15081296      -1.63606821       2.44735039
C        4.52858963       2.46508937       1.78631006      -0.20372025      -3.70568726       1.78345989
C       -0.29733536       0.89935960      -3.40493823      -0.15639057       2.99466566      -1.90458993
C       -0.96142897       0.63348371      -1.01494183      -0.26885867       0.96522771       0.88035709
C        0.66272604       2.51411455      -1.73421814      -1.03146154      -2.40432262       1.62348053
C        0.58245141      -1.83453685       2.07534085       0.04300351      -1.70517917      -0.85002872
C       -1.63797126      -0.98874217       2.26375876      -0.95351397       0.57840638      -0.07104312
C       -0.07853667      -1.80448777       0.61248633       3.10130377      -1.24391103      -1.01085467
C       -1.47982392      -1.74499875       0.96179427      -2.06908406      -1.69919704      -0.59033935
C       -0.68576202      -1.97305399       2.99082730       0.24475432       2.96785999       1.99950996
C       -0.60920665       1.66636282      -2.13908578      -1.12041916      -1.27655141       0.85785482
P        2.55115213       3.63867276       0.61384948       3.48100125     -14.99322508     -16.91146026
H        3.09786524       4.14103208       3.43572789       1.40508424       0.29183869       0.08021275
H        1.51558228       4.80489837       3.30630594       0.15940409       0.56737628      -0.62744706
H        1.82041707       3.16540776       2.77887827       0.66221171       1.63096457      -0.19177386
H        4.85335722       3.42539638       1.97670661       0.07087426       2.27101806       0.21733516
H        5.27159729       1.98983102       1.19738190       0.44820533      -0.27269796      -1.04722470
H        4.52294102       1.85990315       2.72660540       0.30389686       0.78483512      -0.33115575
H       -1.15713976       0.46085470      -3.91828491       0.18826863       0.03308075       0.33477571
H        0.17339077       1.65328079      -4.08123209      -0.80801237      -0.31328749      -0.17840624
H        0.51486761       0.25898206      -3.35791923       1.14886280      -1.83638073       0.80297252
H       -1.11056409       1.36489087      -0.20842834      -0.51491305      -1.07842555       0.35225563
H       -1.87907037       0.05218416      -1.24437715       0.70084165       0.50702951       0.06927319
H        1.56015518       1.92501360      -1.81215836       0.12972064      -0.65999411       0.33240457
H        0.80014642       3.17882531      -2.47723819       0.29874657       3.04061763      -1.95860865
H        1.03552254      -2.82475096       2.22799621       0.55526448       0.71476535      -0.27328238
H        0.25398650      -2.79437834       0.06314890      -0.96586542       2.06267081       1.08769878
H       -2.06843099      -1.49392802       0.12872432      -1.11649519       0.50782114      -0.60944498
H       -1.64203820       2.24580913      -2.30415036       2.60026118      -0.72190372       0.51747821
