42
Properties=species:S:1:pos:R:3:forces:R:3 id=2704 bond=O-P smiles="[H:41][C:22]12[C:12](=[C:13]([C:23]([C:20]1([Cl:5])[Cl:6])([C:19]([C:21]2([H:40])[S:10][C:17]([H:35])([H:36])[C:24]([H:42])([C:16]([H:32])([H:33])[H:34])[C:18]([H:37])([H:38])[S:11][P:25](=[S:1])([O:8][C:14]([H:26])([H:27])[H:28])[O:9][C:15]([H:29])([H:30])[H:31])([H:39])[Cl:4])[Cl:7])[Cl:3])[Cl:2]" dataset=PubChem energy=-134808.93082409573 pbc="F F F"
S        3.73538837       3.90029034      -1.15081593      -1.41419119      -0.38685516       1.79370460
Cl      -2.70277109      -4.67532101       0.45561906       0.39477192       0.74536263      -0.00380366
Cl      -1.46036138      -4.98868885       3.51319089       0.36862067       1.17128037      -0.19301370
Cl       1.74420676      -0.82384517       1.95893422       0.44747955      -0.07786312       1.22655346
Cl      -1.17850700       0.49024116       2.21482113      -0.27083580      -1.31323451      -0.37896695
Cl      -3.39411821      -1.37236371       2.42501262       0.20950635       0.39309368       0.51225309
Cl      -0.57783105      -1.79252114       4.45539346       0.64472066      -0.11873295       0.49841471
O        2.56517596       4.94909615       1.68202497      -0.39418818      -3.89265594      -1.67604491
O        3.21866617       1.94797024       1.07056150      -2.29180450       3.41205894      -0.76146871
S        0.46651454      -0.73095193      -0.75401076      -0.10664634       0.19364450      -0.67070117
S        0.59190362       2.96710667      -0.26346960      -0.46657134       0.23677225       0.72954107
C       -1.83592930      -3.43177238       1.27405426       0.51434826      -0.76892892       2.42757932
C       -1.34004130      -3.54346218       2.56337324      -1.42742646      -1.53405846      -3.89587416
C        2.27769656       4.49994630       3.00682582      -2.18002127      -2.22985440      -0.36390693
C        4.52565441       2.19081470       1.56273845       0.06305941      -3.61533347       2.05016514
C       -0.30027058       0.62508493      -3.62850984      -0.10653066       3.01374491      -1.90810963
C       -0.96436419       0.35920904      -1.23851344      -0.23698556       0.96298386       0.88726771
C        0.65979082       2.23983988      -1.95778975      -0.80195794      -2.35218363       1.46104966
C        0.57951619      -2.10881152       1.85176924       0.05316690      -1.70098966      -0.86122112
C       -1.64090648      -1.26301684       2.04018715      -0.95593612       0.60497815      -0.07415069
C       -0.08147189      -2.07876244       0.38891472       3.09895451      -1.26584571      -0.98874539
C       -1.48275914      -2.01927342       0.73822266      -2.07464659      -1.69717142      -0.58689727
C       -0.68869724      -2.24732866       2.76725569       0.24106775       2.97486254       2.02226025
C       -0.61214187       1.39208815      -2.36265739      -1.22377817      -1.28873994       0.91341318
P        2.54821691       3.36439809       0.39027787       3.06422241       1.37910937      -1.33354545
H        3.10080046       4.41530675       3.65929950       1.46839063       0.19537929       0.38257193
H        1.51851750       5.07917304       3.52987755      -0.01864417       0.50914323      -0.44105124
H        1.82335229       3.43968243       3.00244988       0.61374556       1.40833754       0.00016667
H        4.85042200       3.15112171       1.75313500      -0.04106021       2.28343041       0.24686517
H        5.26866207       1.71555635       0.97381029       0.40233363      -0.31959870      -1.09780291
H        4.52000580       1.58562848       2.50303379       0.27821295       0.82058761      -0.38368065
H       -1.16007498       0.18658003      -4.14185652       0.18613863       0.04473463       0.34813957
H        0.17045555       1.37900612      -4.30480370      -0.81159669      -0.31449962      -0.18761802
H        0.51193239      -0.01529261      -3.58149084       1.14421872      -1.83929126       0.80635961
H       -1.11349931       1.09061620      -0.43199995      -0.53828993      -1.09225328       0.36456556
H       -1.88200559      -0.22209051      -1.46794876       0.70123557       0.52240780       0.07374262
H        1.55721996       1.65073893      -2.03572997       0.10500812      -0.68538555       0.32525984
H        0.79721120       2.90455064      -2.70080980       0.28146341       3.04175111      -1.97067120
H        1.03258732      -3.09902563       2.00442460       0.55320735       0.71346724      -0.27699900
H        0.25105128      -3.06865301      -0.16042271      -0.96423335       2.06908709       1.08029541
H       -2.07136621      -1.76820269      -0.09484729      -1.12106645       0.50317827      -0.60906623
H       -1.64497342       1.97153446      -2.52772197       2.61526925      -0.71463153       0.51672096
