42
Properties=species:S:1:pos:R:3:forces:R:3 id=2704 bond=O-P smiles="[H:41][C:22]12[C:12](=[C:13]([C:23]([C:20]1([Cl:5])[Cl:6])([C:19]([C:21]2([H:40])[S:10][C:17]([H:35])([H:36])[C:24]([H:42])([C:16]([H:32])([H:33])[H:34])[C:18]([H:37])([H:38])[S:11][P:25](=[S:1])([O:8][C:14]([H:26])([H:27])[H:28])[O:9][C:15]([H:29])([H:30])[H:31])([H:39])[Cl:4])[Cl:7])[Cl:3])[Cl:2]" dataset=PubChem energy=-134805.85478078865 pbc="F F F"
S        3.73136603       3.52443247      -1.45719185      -1.30892166      -0.19143629       1.80850157
Cl      -2.70679343      -5.05117888       0.14924314       0.39480471       0.74519567      -0.00499845
Cl      -1.46438372      -5.36454672       3.20681497       0.36834341       1.17492920      -0.19534662
Cl       1.74018442      -1.19970304       1.65255830       0.44797842      -0.08069958       1.22780649
Cl      -1.18252934       0.11438329       1.90844521      -0.27118038      -1.31732227      -0.37469891
Cl      -3.39814055      -1.74822158       2.11863670       0.21395131       0.39271191       0.51057697
Cl      -0.58185339      -2.16837901       4.14901754       0.64539311      -0.12000344       0.49059223
O        2.56919830       5.32495402       1.98840089      -0.43954274      -2.14034078       0.68468199
O        3.21464383       1.57211237       0.76418558      -1.97549880       3.11205868      -0.90383795
S        0.46249220      -1.10680980      -1.06038668      -0.11080701       0.19680017      -0.67281341
S        0.58788128       2.59124880      -0.56984552      -0.28617188       0.14243450       0.42239084
C       -1.83995164      -3.80763025       0.96767834       0.51630093      -0.76997512       2.42495875
C       -1.34406364      -3.91932005       2.25699732      -1.42463519      -1.53671278      -3.89597729
C        2.28171890       4.87580417       3.31320174      -1.45567850      -1.44815749      -1.75094835
C        4.52163207       1.81495683       1.25636253       0.00486125      -3.67095887       2.04702465
C       -0.30429292       0.24922706      -3.93488576      -0.10878581       3.00841981      -1.91093568
C       -0.96838653      -0.01664883      -1.54488936      -0.21824284       0.96573720       0.88385214
C        0.65576848       1.86398201      -2.26416567      -0.91449903      -2.32748953       1.43346981
C        0.57549385      -2.48466939       1.54539332       0.05164760      -1.70233533      -0.86369368
C       -1.64492882      -1.63887471       1.73381123      -0.96041284       0.61031020      -0.07622262
C       -0.08549423      -2.45462031       0.08253880       3.09902321      -1.27562549      -0.97919518
C       -1.48678148      -2.39513129       0.43184674      -2.07548580      -1.69607339      -0.58614866
C       -0.69271958      -2.62318653       2.46087977       0.24071910       2.97833320       2.03272294
C       -0.61616421       1.01623028      -2.66903331      -1.22506628      -1.29536433       0.86849189
P        2.54419457       2.98854022       0.08390195       2.27042373      -0.69827035      -1.91675811
H        3.10482280       4.79116462       3.96567542       1.50853651       0.08416777       0.50474073
H        1.52253984       5.45503091       3.83625347      -0.24460042       0.47082177      -0.32394118
H        1.82737463       3.81554030       3.30882580       0.50859396       1.33674040      -0.11943872
H        4.84639966       2.77526384       1.44675908      -0.04418410       2.32136170       0.27785049
H        5.26463973       1.33969848       0.66743437       0.41979610      -0.33511896      -1.10739113
H        4.51598346       1.20977061       2.19665787       0.28392271       0.83888071      -0.39976734
H       -1.16409732      -0.18927784      -4.44823244       0.18802074       0.04413319       0.34704354
H        0.16643321       1.00314825      -4.61117962      -0.81455343      -0.31264039      -0.19193290
H        0.50791005      -0.39115048      -3.88786676       1.14217135      -1.84337738       0.80728167
H       -1.11752165       0.71475833      -0.73837587      -0.54715085      -1.09396455       0.37076796
H       -1.88602793      -0.59794838      -1.77432468       0.70140454       0.52880009       0.07703004
H        1.55319762       1.27488106      -2.34210589       0.09101505      -0.71239259       0.34187840
H        0.79318886       2.52869277      -3.00718572       0.24880881       3.03091570      -1.99605147
H        1.02856498      -3.47488350       1.69804868       0.55294541       0.71337234      -0.27823352
H        0.24702894      -3.44451088      -0.46679863      -0.96376128       2.07133691       1.07742568
H       -2.07538855      -2.14406056      -0.40122321      -1.12291889       0.50106589      -0.60887261
H       -1.64899576       1.59567659      -2.83409789       2.62083148      -0.71089880       0.51645352
