36
Properties=species:S:1:pos:R:3:forces:R:3 id=41341 bond=C-O smiles="[H:27][c:12]1[c:7]([n:2][c:8]([c:13]([c:16]1/[C:6](=[C:5]([H:21])/[c:15]2[c:11]([c:14]([c:9]([n:3][c:10]2[Cl:1])[H:25])[O:4][C:19]([H:34])([H:35])[C@:20]([H:36])([C:18]([H:31])([H:32])[H:33])[N:17]([H:29])[H:30])[H:26])/[H:22])[H:28])[H:24])[H:23]" dataset=PubChem energy=-34865.37506871182 pbc="F F F"
Cl       3.02181325       4.86201173       1.68488513      -0.41621055       0.27439165      -0.02521525
N        6.98382029      -1.09920412       3.17048232       0.38200023      -0.35381517       0.07319986
N        0.78701583       4.50418764       0.28732495       0.38415300      -0.71360724       0.58767291
O       -2.33764844       1.04561601      -1.48013294       0.49451661      -0.26519294       1.25706934
C        2.90291748       1.88401645       1.81350843       2.50855057      -2.29232523       0.12198551
C        3.53654942       0.74235387       1.40204940      -1.51522289       0.89433565      -0.11050347
C        6.46525082       0.00026828       3.70057742      -1.53176161       0.02782442      -0.57637695
C        6.40859303      -1.61711877       2.07693545      -0.38939210       1.14372817      -0.15754125
C       -0.13446834       3.73095566      -0.30826218      -2.00650619      -0.60570520      -0.71380452
C        1.72270367       3.92083531       1.04205479      -0.87516934      -1.78513882      -1.41065845
C        0.83613247       1.69780934       0.49870421      -1.13271776       0.08096439      -0.91647209
C        5.29233107       0.60936800       3.19227163       1.25069431       0.27528418       0.79332876
C        5.31848750      -1.01406425       1.44958452      -0.05131699      -0.08774829       0.74684877
C       -0.18895271       2.32987839      -0.18489797       1.09386382       1.18655092       0.48153031
C        1.81643907       2.49013310       1.13681917      -1.37064008       1.20570196      -0.69606536
C        4.70351061       0.11628896       2.03799335       0.28173131      -0.31285092      -0.42487313
N       -4.37956457      -1.93213727      -0.78469372       0.50689048      -1.07340752       0.65268346
C       -5.35305147       0.17070564      -1.28707826      -0.23932213       0.62461712      -1.24591149
C       -2.86598043      -0.10313181      -0.79471063       1.93482813       1.35336646       0.05312186
C       -4.11197738      -0.69379260      -1.45430076      -0.28122149       0.48576166      -0.49571663
H        3.32320532       2.42924398       2.63852076       0.03004358       0.08443747       0.20585613
H        3.10776529       0.22774535       0.51565586       0.55930000       0.33112387       0.63532728
H        6.89441618       0.41884982       4.60881511       0.22316357      -0.24088495      -0.26413149
H        6.84687170      -2.49491233       1.61526952       0.10357434       0.01894583       0.30573793
H       -0.94588628       4.20401388      -0.89233883       0.82605218       0.03325047       0.42994397
H        0.87900487       0.62028927       0.45636628       0.22070642      -0.07244369       0.48613478
H        4.97311768       1.51085150       3.72822897      -0.21283764      -0.48116090      -0.45057328
H        4.94101915      -1.48645061       0.55482717      -0.20356091       0.21924100      -0.06858209
H       -4.84615927      -1.77201988       0.11200961       0.16178457      -0.15404867      -0.60613053
H       -4.95165854      -2.50984455      -1.36985492      -0.29339900      -0.30582902       0.07630318
H       -5.56699114       0.36400332      -0.23801547       0.10793112      -0.10760915       0.09271255
H       -6.23268823      -0.33807357      -1.73890900       0.56848696       0.32550334       0.30713906
H       -5.22553330       1.13402562      -1.78363478      -0.12032778       0.05226194       0.05235845
H       -2.09527378      -0.88560094      -0.73937469      -0.29905081       0.03427923      -0.18610260
H       -3.11576753       0.16707458       0.23144281      -0.21364846       0.06729804       0.18286120
H       -3.84305744      -0.88695993      -2.52273977      -0.48694533       0.13272905       0.81044957
