36
Properties=species:S:1:pos:R:3:forces:R:3 id=41341 bond=C-O smiles="[H:27][c:12]1[c:7]([n:2][c:8]([c:13]([c:16]1/[C:6](=[C:5]([H:21])/[c:15]2[c:11]([c:14]([c:9]([n:3][c:10]2[Cl:1])[H:25])[O:4][C:19]([H:34])([H:35])[C@:20]([H:36])([C:18]([H:31])([H:32])[H:33])[N:17]([H:29])[H:30])[H:26])/[H:22])[H:28])[H:24])[H:23]" dataset=PubChem energy=-34866.658356601925 pbc="F F F"
Cl       2.34111956       4.45516525       1.27456260      -0.10170202       0.47841341       0.13748368
N        6.30312660      -1.50605060       2.76015979       0.42649061      -0.38697533       0.09054802
N        0.10632214       4.09734116      -0.12299758       0.07654584      -0.51729719       0.16541974
O       -1.65695475       1.45246249      -1.06981041     -29.31067811     -18.18326795     -15.96808612
C        2.22222379       1.47716997       1.40318590       2.51086400      -2.14861457       0.13163192
C        2.85585573       0.33550739       0.99172687      -1.49939138       0.85323859      -0.09550939
C        5.78455713      -0.40657820       3.29025489      -1.56216617       0.03427791      -0.60086682
C        5.72789934      -2.02396525       1.66661292      -0.41786243       1.16420194      -0.16336932
C       -0.81516203       3.32410918      -0.71858471       1.21632133       1.99369660       1.04238512
C        1.04200998       3.51398883       0.63173226      -0.96913888      -1.85408069      -1.29209705
C        0.15543878       1.29096286       0.08838168       1.88519942       1.19240169       1.09148011
C        4.61163738       0.20252152       2.78194910       1.29237767       0.25477294       0.82757373
C        4.63779381      -1.42091073       1.03926199       0.00007414      -0.11080421       0.77891723
C       -0.86964640       1.92303191      -0.59522050      27.16778454      17.67115907      14.90239958
C        1.13574538       2.08328662       0.72649664      -1.60448186       0.95645448      -0.97091955
C        4.02281692      -0.29055752       1.62767082       0.20442743      -0.26518332      -0.46182766
N       -3.69887088      -1.52529079      -0.37437119       0.61153900      -1.04256063       0.68338898
C       -4.67235778       0.57755212      -0.87675573      -0.24946415       0.62290997      -1.25727541
C       -2.18528674       0.30371467      -0.38438810      -0.90043762      -2.13860846      -0.41129084
C       -3.43128369      -0.28694612      -1.04397823       0.07894392       0.70496446      -0.33541716
H        2.64251163       2.02239750       2.22819823       0.06982560       0.07787199       0.20739764
H        2.42707160      -0.17910113       0.10533333       0.55912339       0.34602136       0.63283203
H        6.21372249       0.01200334       4.19849258       0.22674833      -0.23885768      -0.25991057
H        6.16617801      -2.90175881       1.20494699       0.11031550       0.01248639       0.30290834
H       -1.62657997       3.79716740      -1.30266136       0.67225979      -0.11993957       0.34867627
H        0.19831118       0.21344279       0.04604375       0.42409560       0.20906398       0.52899801
H        4.29242399       1.10400502       3.31790644      -0.21596936      -0.48010314      -0.46466169
H        4.26032546      -1.89329709       0.14450464      -0.20602343       0.22173788      -0.07190704
H       -4.16546558      -1.36517340       0.52233214       0.13377618      -0.18589408      -0.60893884
H       -4.27096485      -2.10299807      -0.95953239      -0.28535333      -0.30405184       0.10415899
H       -4.88629745       0.77084980       0.17230706       0.09797261      -0.10951698       0.09143804
H       -5.55199454       0.06877291      -1.32858647       0.59813531       0.35954752       0.31315358
H       -4.54483961       1.54087210      -1.37331225      -0.17191817       0.06959501       0.03856778
H       -1.41458009      -0.47875446      -0.32905216      -0.62023976       0.29281266      -0.25856408
H       -2.43507384       0.57392106       0.64176534       0.23784778       0.44228140       0.00429183
H       -3.16236375      -0.48011345      -2.11241724      -0.48743575       0.12431576       0.79176279
