36
Properties=species:S:1:pos:R:3:forces:R:3 id=41341 bond=C-O smiles="[H:27][c:12]1[c:7]([n:2][c:8]([c:13]([c:16]1/[C:6](=[C:5]([H:21])/[c:15]2[c:11]([c:14]([c:9]([n:3][c:10]2[Cl:1])[H:25])[O:4][C:19]([H:34])([H:35])[C@:20]([H:36])([C:18]([H:31])([H:32])[H:33])[N:17]([H:29])[H:30])[H:26])/[H:22])[H:28])[H:24])[H:23]" dataset=PubChem energy=-34870.55558204952 pbc="F F F"
Cl       2.40672859       4.49437937       1.31411176      -0.19335426       0.42149432       0.09838194
N        6.36873563      -1.46683648       2.79970895       0.41589889      -0.37940302       0.08667916
N        0.17193117       4.13655528      -0.08344842       0.16675716      -0.51638975       0.23412418
O       -1.72256378       1.41324837      -1.10935957      -7.84783100      -5.05251110      -3.86143562
C        2.28783282       1.51638409       1.44273506       2.51164803      -2.17487292       0.13233706
C        2.92146476       0.37472151       1.03127603      -1.50626417       0.86531130      -0.09967691
C        5.85016616      -0.36736408       3.32980405      -1.55495461       0.03240773      -0.59569998
C        5.79350837      -1.98475113       1.70616208      -0.41168492       1.16003927      -0.16217421
C       -0.74955300       3.36332330      -0.67903555       0.29493510       0.72157698       0.69089886
C        1.10761901       3.55320295       0.67128142      -0.98661472      -1.88297858      -1.36883156
C        0.22104781       1.33017698       0.12793084       0.65462025       1.02048814       0.29808609
C        4.67724641       0.24173564       2.82149826       1.28304916       0.25828386       0.81858970
C        4.70340284      -1.38169661       1.07881115      -0.01178161      -0.10480718       0.77167222
C       -0.80403737       1.96224603      -0.55567134       6.93295428       5.20979505       3.48610647
C        1.20135441       2.12250074       0.76604580      -1.55412032       1.00040944      -0.90732374
C        4.08842595      -0.25134340       1.66721998       0.22255307      -0.27741472      -0.45180230
N       -3.76447991      -1.56450491      -0.41392035       0.57954319      -1.08014377       0.67782900
C       -4.73796681       0.53833800      -0.91630489      -0.24703533       0.62180146      -1.25921693
C       -2.25089577       0.26450055      -0.42393726       0.01808437      -0.94022638      -0.16192332
C       -3.49689272      -0.32616024      -1.08352739       0.15148211       0.72773215      -0.31984800
H        2.70812066       2.06161162       2.26774739       0.06368982       0.07525097       0.20520687
H        2.49268063      -0.13988701       0.14488249       0.55985460       0.34188033       0.63366508
H        6.27933152       0.05121746       4.23804174       0.22596299      -0.23933053      -0.26070056
H        6.23178704      -2.86254469       1.24449615       0.10869130       0.01395305       0.30362968
H       -1.56097094       3.83638152      -1.26311220       0.71731410      -0.09241188       0.39443442
H        0.26392021       0.25265691       0.08559291       0.27574975       0.09380922       0.50753572
H        4.35803302       1.14321914       3.35745560      -0.21520614      -0.48046529      -0.46115360
H        4.32593449      -1.85408297       0.18405380      -0.20571341       0.22115967      -0.07081353
H       -4.23107461      -1.40438752       0.48278298       0.13778725      -0.18033482      -0.61049140
H       -4.33657388      -2.14221219      -0.99908155      -0.29448909      -0.30000704       0.10662911
H       -4.95190648       0.73163568       0.13275790       0.09985947      -0.11061832       0.09384744
H       -5.61760357       0.02955879      -1.36813563       0.58943908       0.35351599       0.31196691
H       -4.61044864       1.50165798      -1.41286141      -0.16045905       0.06347111       0.04090290
H       -1.48018912      -0.51796858      -0.36860132      -0.45331131       0.19890329      -0.19052729
H       -2.50068287       0.53470694       0.60221618       0.11626339       0.27757484       0.09289142
H       -3.22797278      -0.51932757      -2.15196640      -0.48597648       0.13113045       0.79033551
