21
Properties=species:S:1:pos:R:3:forces:R:3 id=34175 bond=C-C smiles="[H:14][c:5]1[c:9]([c:8]([c:4]([c:6]([c:7]1[Br:2])[Br:1])[H:13])[Br:3])[C:12]([H:21])([C:10]([H:15])([H:16])[H:17])[C:11]([H:18])([H:19])[H:20]" dataset=PubChem energy=-219622.2192045002 pbc="F F F"
Br       2.48665544      -1.30680829      -3.97216888       0.02047044      -0.19018114      -0.52811179
Br       4.35925098      -0.58625907      -1.28591569      -0.14486473       0.00415932       0.00249764
Br      -2.21981791       0.17419708      -1.20586785       0.60339282       0.00038145       0.14161137
C        0.30345666      -0.44580030      -2.38341924       0.37130680      -0.31515147       0.45106542
C        1.88800415       0.14114535      -0.15489175      -1.33944555       0.58885105       0.97434839
C        1.69734999      -0.65596253      -2.41394134      -0.75156626       0.34914543       0.40970016
C        2.47401794      -0.36391825      -1.29894277       0.07255697      -0.00345425      -0.26993174
C       -0.30846575      -0.00624585      -1.20494803       0.92120556       0.45277446       0.88181202
C        0.49500921       0.32127878      -0.07378259      -1.25213408       0.58088232       1.16626256
C        0.15803879       2.55939374       2.41943384      -0.10503076      -1.27960127      -0.57711945
C       -0.32562606       0.23077599       3.13418389       0.56497467      -1.25636907      -1.70910017
C       -0.45989249       1.19357143       1.96946765       0.06392195       0.92175148       0.66216298
H       -0.29553608      -0.69470089      -3.25671740       0.18955557       0.12756343       0.25050560
H        2.52578422       0.42664638       0.68073855      -0.25215292      -0.16264940      -0.18871471
H       -0.36042330       2.93264566       3.33091665      -0.02439968      -0.29432071      -0.80638905
H        1.18316891       2.41413412       2.72328008       0.42977734      -0.02948289      -0.03990933
H        0.12782434       3.26772295       1.61671407      -0.08481062       0.57885228      -0.19064881
H        0.72306581      -0.05647429       3.23641205      -0.18630264      -0.25160837       0.22532889
H       -0.64593271       0.69965512       4.04993844      -0.18606444       0.33456953       0.23628255
H       -0.96663419      -0.63951721       2.93141437       0.47772519       0.06783285       0.34681668
H       -1.55091123       1.34677343       1.89493824       0.60774668      -0.22185727      -1.43071160
