21
Properties=species:S:1:pos:R:3:forces:R:3 id=34175 bond=C-C smiles="[H:14][c:5]1[c:9]([c:8]([c:4]([c:6]([c:7]1[Br:2])[Br:1])[H:13])[Br:3])[C:12]([H:21])([C:10]([H:15])([H:16])[H:17])[C:11]([H:18])([H:19])[H:20]" dataset=PubChem energy=-219621.3165860023 pbc="F F F"
Br       2.53667411      -1.35249981      -4.07919627       0.02268219      -0.19227802      -0.53299150
Br       4.40926965      -0.63195059      -1.39294308      -0.13778335       0.00405512       0.00353539
Br      -2.16979924       0.12850556      -1.31289524       0.58990864       0.00367706       0.14598218
C        0.35347533      -0.49149182      -2.49044663       0.38816134      -0.31687232       0.43964887
C        1.93802282       0.09545383      -0.26191914      -1.35904047       0.61520996       1.04082109
C        1.74736866      -0.70165405      -2.52096873      -0.75107410       0.35021673       0.41473048
C        2.52403661      -0.40960977      -1.40597016       0.05673599      -0.01260463      -0.29892567
C       -0.25844708      -0.05193737      -1.31197542       0.92056834       0.47729304       0.95421625
C        0.54502788       0.27558726      -0.18080998      -0.95062996       0.29305369       0.51057437
C        0.10802012       2.60508526       2.52646123      -0.00677881      -1.31338496      -0.71802440
C       -0.37564473       0.27646751       3.24121128       0.62382902      -1.34876769      -1.87843350
C       -0.50991116       1.23926295       2.07649504      -0.28611539       1.29343753       1.60494908
H       -0.24551741      -0.74039241      -3.36374479       0.18586646       0.12700153       0.24745130
H        2.57580289       0.38095486       0.57371116      -0.24163401      -0.16620582      -0.19624836
H       -0.41044197       2.97833718       3.43794404      -0.06240845      -0.31351253      -0.79506053
H        1.13315024       2.45982564       2.83030747       0.41879425      -0.02658923      -0.03733934
H        0.07780567       3.31341447       1.72374146      -0.08947900       0.58095188      -0.18346818
H        0.67304714      -0.01078277       3.34343944      -0.19021149      -0.24612770       0.23694436
H       -0.69595138       0.74534664       4.15696583      -0.19721813       0.37687167       0.23611136
H       -1.01665286      -0.59382569       3.03844176       0.47743510       0.07469982       0.35308592
H       -1.60092990       1.39246495       2.00196563       0.58481880      -0.25727267      -1.54020287
