21
Properties=species:S:1:pos:R:3:forces:R:3 id=34175 bond=C-C smiles="[H:14][c:5]1[c:9]([c:8]([c:4]([c:6]([c:7]1[Br:2])[Br:1])[H:13])[Br:3])[C:12]([H:21])([C:10]([H:15])([H:16])[H:17])[C:11]([H:18])([H:19])[H:20]" dataset=PubChem energy=-219608.92535908942 pbc="F F F"
Br       2.19109063      -1.03681295      -3.33973428       0.06958529      -0.22177414      -0.62502110
Br       4.06368617      -0.31626373      -0.65348109      -0.10130150       0.00004777      -0.01165713
Br      -2.51538272       0.44419242      -0.57343325       0.63715458      -0.00460071       0.11107425
C        0.00789185      -0.17580496      -1.75098464       0.37743935      -0.40899315       0.36343089
C        1.59243934       0.41114069       0.47754285       1.94989515      -1.23046621      -2.60854646
C        1.40178518      -0.38596719      -1.78150674      -1.01982353       0.25291458       0.05201403
C        2.17845313      -0.09392291      -0.66650817      -0.01391212       0.30031978       0.53730161
C       -0.60403056       0.26374949      -0.57251343       1.74361852      -0.97539863      -2.53116631
C        0.19944440       0.59127412       0.55865201      35.75987240     -33.31268947     -79.51015912
C        0.45360360       2.28939840       1.78699924      -0.80886464       0.67075537       2.45053830
C       -0.03006125      -0.03921935       2.50174929      -0.38263718      -0.87859753       1.90045393
C       -0.16432768       0.92357609       1.33703305     -38.10450019      35.01109131      79.88324961
H       -0.59110089      -0.42470555      -2.62428280       0.26179172       0.12199576       0.20613377
H        2.23021941       0.69664172       1.31317315      -0.29412733      -0.35915283      -0.56191938
H       -0.06485849       2.66265032       2.69848205       0.12029462      -0.01247537      -0.81364153
H        1.47873372       2.14413878       2.09084548       0.11539741       0.05599680      -0.03426985
H        0.42338915       2.99772761       0.98427947      -0.17659064       0.28571979      -0.41662530
H        1.01863062      -0.32646963       2.60397745      -0.34667372      -0.16793683       0.00184910
H       -0.35036790       0.42965978       3.41750384      -0.22923793       0.03883201       0.38466308
H       -0.67106938      -0.90951255       2.29897977       0.43435755       0.17937383       0.07427130
H       -1.25534642       1.07677809       1.26250364       0.00276475       0.65958457       1.15178176
