21
Properties=species:S:1:pos:R:3:forces:R:3 id=34175 bond=C-C smiles="[H:14][c:5]1[c:9]([c:8]([c:4]([c:6]([c:7]1[Br:2])[Br:1])[H:13])[Br:3])[C:12]([H:21])([C:10]([H:15])([H:16])[H:17])[C:11]([H:18])([H:19])[H:20]" dataset=PubChem energy=-219625.74556956036 pbc="F F F"
Br       2.31841086      -1.15311864      -3.61216765       0.02455878      -0.18983219      -0.52820766
Br       4.19100640      -0.43256942      -0.92591446      -0.15646712       0.00178271      -0.00937169
Br      -2.38806249       0.32788673      -0.84586662       0.58011242      -0.04497261       0.02517531
C        0.13521208      -0.29211065      -2.02341801       0.29385981      -0.32659764       0.44118875
C        1.71975957       0.29483500       0.20510948      -0.97151737       0.25032993       0.19771298
C        1.52910541      -0.50227288      -2.05394011      -0.79812875       0.33864338       0.36470326
C        2.30577336      -0.21022860      -0.93894154       0.12766731       0.06371991      -0.07804990
C       -0.47671033       0.14744380      -0.84494680       1.17217861       0.21029316       0.29602076
C        0.32676463       0.47496843       0.28621864      -1.01305836       0.42347384       0.51552374
C        0.32628337       2.40570409       2.05943261      -0.56579816      -0.95212690       0.30794257
C       -0.15738148       0.07708634       2.77418266       0.17771344      -0.80611065      -0.65997521
C       -0.29164791       1.03988178       1.60946642      -0.06772967       0.77895715       0.10152935
H       -0.46378066      -0.54101124      -2.89671617       0.21241639       0.12632432       0.24922416
H        2.35753964       0.58033603       1.04073978      -0.29915807      -0.16121035      -0.19730700
H       -0.19217872       2.77895601       2.97091542       0.13113524      -0.17521723      -0.84168539
H        1.35141349       2.26044447       2.36327885       0.44547234      -0.03310890      -0.04208326
H        0.29606892       3.11403330       1.25671284      -0.06967318       0.56243531      -0.24449396
H        0.89131039      -0.21016394       2.87641082      -0.17223594      -0.26215681       0.17090816
H       -0.47768813       0.54596547       3.68993721      -0.14635986       0.12777617       0.28502412
H       -0.79838961      -0.79320686       2.57141314       0.46850202       0.03807142       0.30591499
H       -1.38266665       1.19308378       1.53493701       0.62719537       0.03059483      -0.65804806
