49
Properties=species:S:1:pos:R:3:forces:R:3 id=40887 bond=C-C smiles="[H:25][c:7]1[c:6]([c:5]([n:2][c:4]([c:8]1[F:1])[C:10]([H:27])([H:28])[N:9]([H:26])[C:13]([H:34])([H:35])[C:20]([H:47])([C:11]([H:29])([H:30])[H:31])[C:14]([H:36])([H:37])[C:12]([H:32])([H:33])[O:3][H:23])[C:19]2([C:16]([C:21]3([C:15]([C:17]([C:22]2([C:18]3([H:44])[H:45])[H:49])([H:42])[H:43])([H:38])[H:39])[H:48])([H:40])[H:41])[H:46])[H:24]" dataset=PubChem energy=-26834.74747159622 pbc="F F F"
F       -2.53554056      -3.28869124       0.54212368       0.48280859       0.92316623      -0.22200441
N        0.44385724      -1.15742894       0.24183016      -0.27819999      -0.75282189       0.57278633
O       -4.36627028       3.65880776       0.66553865      -5.19500558      -0.17651697       1.14969804
C       -0.84900854      -1.54460402       0.16284980       0.37217447      -0.26197848      -0.10426604
C        1.35738947      -1.95753117       0.85766833      -0.44613105       0.43778475      -0.26070778
C        0.98965712      -3.20931526       1.36237152      -0.67774644       0.32158052       0.21384155
C       -0.35928658      -3.62730666       1.25102152       1.56705065       0.13208800      -0.00974929
C       -1.26190374      -2.79280873       0.64102428       0.37988126      -0.47919593       0.26994572
N       -1.61039303       0.81102876      -0.41162186       0.46320521       0.02121465       0.17735641
C       -1.84737275      -0.65426167      -0.53475778       0.31072718       1.68041235      -0.08393089
C       -2.36473820       3.73484353       1.96748860       0.53748716      -0.96307681       0.66604470
C       -3.66837571       3.32344604      -0.55503312    -165.06412072     -56.56796038      -6.37009804
C       -2.12513874       1.48101763       0.80435021       0.65316933      -0.03083176      -0.12166453
C       -2.90551255       3.58277587      -0.53219585     166.57808103      56.26683507       4.51328089
C        5.38875367      -0.01487475       0.66298832       0.54391989      -0.24133240      -0.31557647
C        3.72486474      -1.66181632      -0.25820975      -0.09345229       0.45141169      -0.06310548
C        4.48801972       0.13226254       1.90490885      -0.83514519       1.14681047      -0.15228582
C        3.25299837       0.66340298      -0.05395620      -1.20378098      -0.80929980      -0.12615503
C        2.81193545      -1.48142060       1.03332962      -0.37390809       0.27619118      -0.96996980
C       -2.04193185       3.00668982       0.65599509       1.82471539       0.42807870       0.71229169
C        4.36732890      -0.26044615      -0.46331315       0.28857588      -0.22680656       0.49111860
C        3.04188372       0.02494360       1.32157828       0.88102839      -0.45743949      -0.21224521
H       -5.33137104       3.46806837       0.61124217       1.15863031       0.16764161      -0.11738784
H        1.75060834      -3.76552697       1.91955204      -0.53873133      -0.07768298      -0.38364826
H       -0.68357537      -4.59901496       1.58943279      -0.00278810       0.00587603       0.14674308
H       -0.59461288       0.99143413      -0.46451210      -0.84851156      -0.27464464      -0.01433336
H       -2.84627173      -0.85026308      -0.15805225      -0.06209159      -0.15448325      -0.13674934
H       -1.82168815      -0.83545991      -1.61519222      -0.09067058      -0.39161241       0.25146292
H       -1.56863139       3.60363392       2.70044179       0.18563339      -0.25078196       0.00072605
H       -3.31196353       3.36574057       2.37621064       0.69370771       0.23061159       0.12926337
H       -2.43698952       4.79258851       1.83133586      -0.25186078       0.59798464      -0.25699615
H       -3.67074272       2.26585603      -0.73520103      -2.41523176      -2.10565655       0.21002179
H       -4.19080040       3.79057050      -1.37250522      -2.73250737      -0.50322942      -0.96440184
H       -1.56045375       1.15016696       1.71422334      -0.57148634       0.40792539      -0.47430947
H       -3.17396329       1.23993990       0.92911113      -0.18031853      -0.38285143       0.11609791
H       -2.92327545       4.66927508      -0.50079410       2.30487915       1.47198615       0.66579164
H       -2.48060009       3.28231028      -1.47115128       2.18793535       0.62899455      -0.25839135
H        5.94531228       0.92265026       0.46942993      -0.15673946      -0.60686126       0.12263979
H        6.10335233      -0.85680433       0.75395621      -0.27806780       0.56802729      -0.06233557
H        3.12233259      -1.87496825      -1.15253560       0.14277990      -0.27848075       0.43522806
H        4.48223283      -2.43173619      -0.08311300      -0.24431132       0.04398610      -0.30090317
H        4.58851983       1.13982121       2.32526846       0.12463528      -0.26583365       0.04811562
H        4.69163491      -0.57470389       2.68503018       0.05095640      -0.38661216       0.33590927
H        3.52327087       1.70236699      -0.04426227       0.20768287       0.47861427       0.21876705
H        2.36075928       0.53627480      -0.67287259       0.11053846       0.08272567       0.02221189
H        3.20557787      -2.07221909       1.85749192       0.09421500       0.02418714      -0.04609052
H       -1.03890655       3.26172904       0.35813747       0.71432450      -0.02035338       0.16081271
H        4.73622825      -0.02189522      -1.44433670       0.29719781      -0.42379478      -0.46462041
H        2.26804235       0.49136065       1.87255473      -0.61317417       0.29205080       0.86551463
