33
Properties=species:S:1:pos:R:3:forces:R:3 id=29009 bond=C-N smiles="[H:25][C:6]1([C:7]([C:10]2([C:8]([C:9]1([C:11]([C:12]2([C:5]([H:22])([H:23])[H:24])[N:1]([C:2]([H:13])([H:14])[H:15])[C:3]([H:16])([H:17])[H:18])([H:33])[C:4]([H:19])([H:20])[H:21])[H:31])([H:29])[H:30])[H:32])([H:27])[H:28])[H:26]" dataset=PubChem energy=-13245.208629429824 pbc="F F F"
N        2.36639810       0.45441292      -0.13679599      -0.71172017       0.40986651       1.60831269
C        2.90302790      -0.76426985      -0.80993436      -1.97450233       0.40045275       0.48017871
C        3.17531503       1.65219960      -0.51931821      -1.37226387      -0.98531270      -0.17189452
C       -1.27815327      -1.37840920      -0.03347179       0.65620018      -0.18514587      -0.18452137
C       -0.42529472       1.10579551      -1.29547843       2.58706060      -0.44035588      -0.25423611
C       -0.28553408       0.58938755       3.13044897       0.04375336      -1.89717910      -0.24030918
C        0.50842586       1.66944022       2.45285859       0.39968249       0.33984461      -0.25437141
C       -1.66393527       1.50294114       1.49339393      -0.15747926       0.60375288      -0.88860518
C       -1.26140436       0.16612581       2.01228633      -0.66044621      -0.51477096       1.15858866
C       -0.23526722       1.86741037       1.10913345       2.06520132       2.49253460      -1.05220150
C       -0.46192476      -0.44284313       0.84458309       0.84214527      -1.09075863      -0.18235337
C        0.17275724       0.77449762       0.07821423      -0.15707417      -0.19400532       0.32042345
H        3.95847548      -0.94415107      -0.58850287      -0.10921920       0.29676271       0.35760538
H        2.32336105      -1.67887929      -0.53507732       0.42165743       0.79573072       0.04134988
H        2.81903566      -0.66522505      -1.87412439       0.07996361      -0.08050774      -1.00165759
H        2.90178908       2.55164882       0.03430654      -0.24975006      -0.22545005       0.01859047
H        4.23399485       1.47416422      -0.32608102      -0.00189596      -0.28320650       0.14586293
H        3.08224381       1.84293947      -1.58775126       0.06758285       0.33432330      -0.30717483
H       -1.51197609      -2.28000872       0.52729484      -0.06300884      -0.06545224      -0.07972308
H       -0.69448670      -1.65145318      -0.92610225      -0.31727219      -0.03613692       0.31766663
H       -2.20116457      -0.92601554      -0.34928068      -0.41196663       0.19089818      -0.20465464
H       -1.46859666       1.24463518      -1.23652789      -1.21093534       0.27762815       0.26680671
H       -0.25531446       0.33325581      -2.05787715       0.08898122       0.14947531       0.37407704
H        0.05299213       2.02757079      -1.65532025      -0.28307670      -0.23628809       0.06638848
H        0.34461347      -0.25691937       3.46048155      -0.31919616       0.35875589      -0.14701245
H       -0.80848511       0.94993598       3.98722687      -0.51226039       0.19774124       0.57805790
H        0.46684000       2.56414897       3.06018820       0.22479569       0.33868395      -0.14496358
H        1.53240731       1.32941724       2.34688034       0.13582642       0.38808452      -0.38063125
H       -2.04833731       2.15175778       2.26313129      -0.01734389       0.30071300       0.32952291
H       -2.39962276       1.52350778       0.68435081       0.29862359      -0.21415701      -0.02022126
H       -2.12014064      -0.38093327       2.42461696       0.45065521      -0.47493037      -0.47941416
H       -0.11499753       2.92069347       0.71557413      -0.02886442      -1.17631210       0.28755046
H        0.31688255      -1.05571954       1.31242088       0.19599162       0.22626490      -0.35560703
