33
Properties=species:S:1:pos:R:3:forces:R:3 id=29009 bond=C-N smiles="[H:25][C:6]1([C:7]([C:10]2([C:8]([C:9]1([C:11]([C:12]2([C:5]([H:22])([H:23])[H:24])[N:1]([C:2]([H:13])([H:14])[H:15])[C:3]([H:16])([H:17])[H:18])([H:33])[C:4]([H:19])([H:20])[H:21])[H:31])([H:29])[H:30])[H:32])([H:27])[H:28])[H:26]" dataset=PubChem energy=-13244.19234118676 pbc="F F F"
N        2.50898475       0.43360742      -0.15077166       0.06169072       0.19369472       1.61884188
C        3.04561455      -0.78507535      -0.82391003      -1.92334591       0.47593130       0.39671142
C        3.31790168       1.63139410      -0.53329388      -1.37785013      -1.02600554      -0.25665186
C       -1.42073992      -1.35760370      -0.01949612       0.67350012      -0.18996954      -0.21148354
C       -0.56788137       1.12660101      -1.28150276       2.81626342      -0.46321730      -0.30002637
C       -0.42812073       0.61019305       3.14442464       0.04319463      -1.90067955      -0.23288594
C        0.36583921       1.69024572       2.46683426       0.40680718       0.32251793      -0.24168303
C       -1.80652192       1.52374664       1.50736960      -0.18527784       0.57616369      -0.88932644
C       -1.40399101       0.18693131       2.02626200      -0.63814055      -0.49002797       1.18260153
C       -0.37785387       1.88821587       1.12310912       2.14608636       2.51534298      -1.11115006
C       -0.60451141      -0.42203763       0.85855876       0.95340702      -1.08403154      -0.22422009
C        0.03017059       0.79530312       0.09218990      -1.52563187       0.06040457       0.56149373
H        4.10106213      -0.96495657      -0.60247854      -0.06021793       0.29378450       0.34179471
H        2.46594770      -1.69968479      -0.54905299       0.41700142       0.81269377       0.05209007
H        2.96162231      -0.68603055      -1.88810006       0.10773943      -0.08623595      -1.00384229
H        3.04437573       2.53084332       0.02033087      -0.26374997      -0.23872760       0.02064334
H        4.37658150       1.45335872      -0.34005669       0.04488064      -0.29832289       0.13368602
H        3.22483046       1.82213397      -1.60172693       0.09276058       0.33001880      -0.30610766
H       -1.65456274      -2.25920322       0.54127051      -0.05809937      -0.06135785      -0.07720757
H       -0.83707335      -1.63064768      -0.91212658      -0.31807509      -0.03716587       0.32194940
H       -2.34375122      -0.90521004      -0.33530501      -0.40989289       0.19649568      -0.19953556
H       -1.61118331       1.26544068      -1.22255222      -1.24135760       0.26893751       0.31188515
H       -0.39790111       0.35406131      -2.04390148       0.07592041       0.15825571       0.37059091
H       -0.08959452       2.04837629      -1.64134458      -0.29815038      -0.23808049       0.06173642
H        0.20202682      -0.23611387       3.47445722      -0.32101762       0.36152191      -0.14620498
H       -0.95107176       0.97074148       4.00120254      -0.51220001       0.19677481       0.57617322
H        0.32425335       2.58495447       3.07416387       0.23130512       0.33602621      -0.14909432
H        1.38982066       1.35022274       2.36085601       0.14773826       0.39298239      -0.37760271
H       -2.19092396       2.17256328       2.27710696      -0.01262700       0.30699882       0.33064259
H       -2.54220941       1.54431328       0.69832648       0.30194299      -0.21233254      -0.02294607
H       -2.26272729      -0.36012777       2.43859263       0.45579197      -0.48162547      -0.48502150
H       -0.25758418       2.94149897       0.72954980      -0.02839067      -1.18529433       0.28935068
H        0.17429590      -1.03491404       1.32639655       0.19807616       0.19673583      -0.33507609
