33
Properties=species:S:1:pos:R:3:forces:R:3 id=29009 bond=C-N smiles="[H:25][C:6]1([C:7]([C:10]2([C:8]([C:9]1([C:11]([C:12]2([C:5]([H:22])([H:23])[H:24])[N:1]([C:2]([H:13])([H:14])[H:15])[C:3]([H:16])([H:17])[H:18])([H:33])[C:4]([H:19])([H:20])[H:21])[H:31])([H:29])[H:30])[H:32])([H:27])[H:28])[H:26]" dataset=PubChem energy=-13244.47449295423 pbc="F F F"
N        2.46511193       0.44000911      -0.14647145      -0.15569643       0.25275071       1.63746197
C        3.00174173      -0.77867366      -0.81960982      -1.94969691       0.45314997       0.41178510
C        3.27402886       1.63779579      -0.52899367      -1.38799329      -1.00871644      -0.23901946
C       -1.37686710      -1.36400539      -0.02379633       0.66901594      -0.18770010      -0.20509392
C       -0.52400855       1.12019932      -1.28580297       2.75839266      -0.45751125      -0.28895138
C       -0.38424791       0.60379136       3.14012443       0.04342843      -1.89969981      -0.23479684
C        0.40971203       1.68384403       2.46253405       0.40540497       0.32673640      -0.24511019
C       -1.76264910       1.51734495       1.50306939      -0.17674664       0.58163318      -0.89175396
C       -1.36011819       0.18052962       2.02196179      -0.64327686      -0.49620313       1.17539357
C       -0.33398105       1.88181418       1.11880891       2.13135545       2.51200136      -1.09338338
C       -0.56063859      -0.42843932       0.85425855       0.92898422      -1.08960664      -0.21186728
C        0.07404341       0.78890143       0.08788969      -1.14447802      -0.01021229       0.48767014
H        4.05718931      -0.95855488      -0.59817833      -0.07525467       0.29580509       0.34965596
H        2.42207488      -1.69328310      -0.54475278       0.41900387       0.80621032       0.04891113
H        2.91774949      -0.67962886      -1.88379985       0.10032790      -0.08704127      -1.00473525
H        3.00050291       2.53724501       0.02463108      -0.25829986      -0.23372377       0.02032241
H        4.33270868       1.45976041      -0.33575648       0.03011954      -0.29585746       0.13983835
H        3.18095764       1.82853566      -1.59742672       0.08653075       0.33383023      -0.30749116
H       -1.61068992      -2.26560491       0.53697030      -0.05925256      -0.06209097      -0.07778383
H       -0.79320053      -1.63704937      -0.91642679      -0.31777967      -0.03684305       0.32106813
H       -2.29987840      -0.91161173      -0.33960522      -0.41065359       0.19472833      -0.20092909
H       -1.56731049       1.25903899      -1.22685243      -1.23178571       0.27081664       0.30146589
H       -0.35402829       0.34765962      -2.04820169       0.07968008       0.15610611       0.37221071
H       -0.04572170       2.04197460      -1.64564479      -0.29376677      -0.23804245       0.06334167
H        0.24589964      -0.24251556       3.47015701      -0.32050610       0.36092635      -0.14662308
H       -0.90719894       0.96433979       3.99690233      -0.51236993       0.19696157       0.57670110
H        0.36812617       2.57855278       3.06986366       0.22896801       0.33683113      -0.14817996
H        1.43369348       1.34382105       2.35655580       0.14421773       0.39119009      -0.37986100
H       -2.14705114       2.16616159       2.27280675      -0.01285427       0.30564908       0.32983659
H       -2.49833659       1.53791159       0.69402627       0.30077196      -0.21285900      -0.02196557
H       -2.21885447      -0.36652946       2.43429242       0.45460520      -0.47987190      -0.48402330
H       -0.21371136       2.93509728       0.72524959      -0.02828681      -1.18345942       0.28866145
H        0.21816872      -1.04131573       1.32209634       0.19769184       0.20627436      -0.34187963
