33
Properties=species:S:1:pos:R:3:forces:R:3 id=29009 bond=C-N smiles="[H:25][C:6]1([C:7]([C:10]2([C:8]([C:9]1([C:11]([C:12]2([C:5]([H:22])([H:23])[H:24])[N:1]([C:2]([H:13])([H:14])[H:15])[C:3]([H:16])([H:17])[H:18])([H:33])[C:4]([H:19])([H:20])[H:21])[H:31])([H:29])[H:30])[H:32])([H:27])[H:28])[H:26]" dataset=PubChem energy=-13232.451467356352 pbc="F F F"
N        1.71927404       0.54883791      -0.07336798      93.81132853     -12.67533299      -8.59616978
C        2.25590384      -0.66984486      -0.74650635       1.05649235      -0.88053354       0.43669591
C        2.52819097       1.74662459      -0.45589020       2.55141552      -0.29996078      -0.31752746
C       -0.63102921      -1.47283419      -0.09689980       0.35549516      -0.17889892       0.01509652
C        0.22182934       1.01137052      -1.35890644      -3.27940312       0.82072976      -2.40471069
C        0.36158998       0.49496256       3.06702096       0.02789719      -1.88764206      -0.31363278
C        1.15554992       1.57501523       2.38943058       0.21442320       0.33905366      -0.55789516
C       -1.01681121       1.40851615       1.42996592      -0.12719018       0.94432857      -0.57720893
C       -0.61428030       0.07170082       1.94885832      -0.88974229      -0.68607514       1.05049334
C        0.41185684       1.77298538       1.04570544      -1.49866567       3.21454535       0.45805414
C        0.18519930      -0.53726812       0.78115508      -2.84706362      -1.56929235       1.18389312
C        0.81988130       0.68007263       0.01478622     -86.99753831      11.68902394      10.07747936
H        3.31135142      -0.84972608      -0.52507486      -0.21418587       0.27046772       0.18953904
H        1.67623699      -1.58445430      -0.47164931       0.90772136       1.17720942      -0.16512669
H        2.17191160      -0.57080006      -1.81069638       0.00043107       0.11243795      -0.67306582
H        2.25466502       2.64607381       0.09773455      -0.03131758      -0.58134176      -0.20879294
H        3.58687079       1.56858921      -0.26265301      -0.07526686      -0.17190993       0.05578956
H        2.43511975       1.93736446      -1.52432325       0.21294704       0.08315871       0.13327391
H       -0.86485203      -2.37443371       0.46386683      -0.09053301      -0.13970646      -0.06575870
H       -0.04736264      -1.74587817      -0.98953026      -0.62516571      -0.03465983       0.26034775
H       -1.55404051      -1.02044053      -0.41270869      -0.37345632       0.17946120      -0.20675284
H       -0.82147260       1.15021019      -1.29995590      -1.35099347       0.41266285      -0.45176273
H        0.39180960       0.23883082      -2.12130516      -0.03633470       0.22461708       0.41279593
H        0.70011619       1.93314580      -1.71874826      -0.77951550      -0.41528917       0.13621037
H        0.99173753      -0.35134436       3.39705354      -0.30019922       0.33710259      -0.12473982
H       -0.16136105       0.85551099       3.92379886      -0.49415252       0.21574016       0.57269164
H        1.11396406       2.46972398       2.99676019       0.29304810       0.33642448      -0.16645344
H        2.17953137       1.23499225       2.28345233       0.24729385       0.33818240      -0.28579372
H       -1.40121325       2.05733279       2.19970328      -0.20601806       0.24183000       0.39689946
H       -1.75249870       1.42908279       0.62092280       0.34657980      -0.22159810      -0.03817159
H       -1.47301658      -0.47535826       2.36118895       0.37592618      -0.44898468      -0.34472447
H        0.53212653       2.82626848       0.65214612      -0.36095166      -1.21711613       0.40159243
H        0.96400661      -1.15014453       1.24899287       0.17734194       0.47175689      -0.28340226
