28
Properties=species:S:1:pos:R:3:forces:R:3 id=11319 bond=O-P smiles="[H:23][C:8]1([C:10]([N:4]([P:12](=[S:1])([O:3]1)[O:2][C:5]([H:14])([H:15])[H:16])[H:13])([H:27])[C:9]([H:25])([H:26])[C:11]([H:28])([C:6]([H:17])([H:18])[H:19])[C:7]([H:20])([H:21])[H:22])[H:24]" dataset=PubChem energy=-33236.138046665896 pbc="F F F"
S       -1.70963632      -0.70985445       4.31664198       1.13378234      -0.26605127      -1.50993215
O        0.08103440      -3.53977047       2.22767757       0.96141941       1.78564018      -0.69521498
O        0.86915637       0.20928565       3.10329192      -0.92106352      -1.70150778      -0.99123858
N       -1.13225149       0.15763798       1.36590773       1.56199074      -1.30681418       1.24794678
C        1.30092654      -3.74180255       1.54209756      -1.29075350       0.22712489      -1.80775649
C        1.81575442       3.34052506      -0.15893555       1.01254890      -2.90382147      -1.83090843
C       -0.02236175       3.66862669      -2.01001317       0.81390877      -2.82545701      -1.37264708
C        0.84866921       1.23186541       2.12613386      -0.51529623       1.09181897      -0.92740391
C       -0.38409518       1.92721292      -0.06160534      -1.96869520       0.97510127      -1.66455405
C        0.08837665       0.81654391       0.84821425       0.10832735       0.24736217      -0.59857194
C        0.64198860       2.60291937      -0.99703998       0.28833956       3.05267631       1.74318796
P       -0.46857285      -0.62731513       2.77731984      -3.13977544      -1.63820320       2.07904563
H       -1.87445008       0.82132187       1.65456360       0.73131431      -0.57053634      -0.22649043
H        1.77482799      -2.80741726       1.19255887      -0.30981063      -0.02189630       0.05542711
H        1.24887768      -4.38228450       0.57081370      -0.49486079       0.88257122       1.40388740
H        2.04240468      -4.18913494       2.13472687       0.97083261      -0.79846457       1.23184873
H        1.44985951       3.95265522       0.59854340      -0.88386555       1.74295413       0.72090098
H        2.59915818       3.80589214      -0.83752638      -1.22935458      -0.32785051       0.96082675
H        2.35226310       2.58227935       0.47391818      -0.19358654       0.46264207      -1.03316608
H        0.65199407       3.96939006      -2.89971167      -0.83672870      -0.65336853       1.65591182
H       -0.32429980       4.55336538      -1.51472169      -0.29787793       0.75770045       0.64738060
H       -0.91872238       3.15395560      -2.46043116       0.76252711       0.75313157       0.37135783
H        1.87092758       1.36839387       1.90514725       0.85935725       1.15692096       0.02473587
H        0.21546031       2.01226827       2.56394881       0.94149665       0.62133197      -0.09752564
H       -0.95889174       2.64590564       0.53749933       0.24603270       0.14957005       0.00026664
H       -1.19345640       1.52279880      -0.81047589       1.44940904       0.24243629       1.59787544
H        0.76400239       0.18459764       0.23031687      -0.82992017      -0.39007610       0.58068560
H        1.02707345       1.73828539      -1.44081670       1.07235624      -0.74716753      -1.56532313
