28
Properties=species:S:1:pos:R:3:forces:R:3 id=11319 bond=O-P smiles="[H:23][C:8]1([C:10]([N:4]([P:12](=[S:1])([O:3]1)[O:2][C:5]([H:14])([H:15])[H:16])[H:13])([H:27])[C:9]([H:25])([H:26])[C:11]([H:28])([C:6]([H:17])([H:18])[H:19])[C:7]([H:20])([H:21])[H:22])[H:24]" dataset=PubChem energy=-33240.50891632938 pbc="F F F"
S       -1.59493568      -1.31767122       4.20193403       0.88688577       0.35131808      -1.32411017
O       -0.03366624      -2.93195370       2.34238552       0.37919772       3.67605620      -0.29755866
O        0.98385701      -0.39853112       2.98858397      -0.96366403      -1.92587871      -1.25649995
N       -1.01755085      -0.45017879       1.25119978       1.87237398      -1.44837750       1.25667230
C        1.18622590      -3.13398578       1.65680551       0.52049877      -0.10522520      -3.18145533
C        1.93045506       2.73270829      -0.27364350       1.01602468      -2.90201904      -1.83884056
C        0.09233889       3.06080992      -2.12472112       0.82829307      -2.82502450      -1.37729158
C        0.96336985       0.62404864       2.01142591      -0.59122847       1.11908028      -0.86881546
C       -0.26939454       1.31939615      -0.17631329      -1.89334410       0.98779094      -1.69628793
C        0.20307729       0.20872714       0.73350630      -0.02286277       0.38585465      -0.61407184
C        0.75668924       1.99510260      -1.11174793       0.25673230       3.06326752       1.75147346
P       -0.35387221      -1.23513190       2.66261189      -3.95265424      -3.54608124       2.72106374
H       -1.75974944       0.21350510       1.53985565       0.81718895      -0.59822970      -0.15519872
H        1.66012735      -2.19960049       1.30726682      -0.33510146      -0.22731550       0.16863697
H        1.13417704      -3.77446773       0.68552165      -0.60680307       0.93901009       1.74243022
H        1.92770404      -3.58131817       2.24943482       0.68428283      -0.78994213       1.20113505
H        1.56456015       3.34483845       0.48383545      -0.88273485       1.73608114       0.72255798
H        2.71385882       3.19807537      -0.95223433      -1.22521298      -0.32150880       0.95645921
H        2.46696374       1.97446258       0.35921023      -0.20235720       0.46322661      -1.02762680
H        0.76669471       3.36157329      -3.01441962      -0.83616067      -0.64646798       1.64891823
H       -0.20959916       3.94554861      -1.62942964      -0.29869009       0.75651182       0.64729219
H       -0.80402174       2.54613883      -2.57513911       0.76036136       0.75231924       0.37394146
H        1.98562822       0.76057710       1.79043930       0.88134197       1.17675332       0.02270429
H        0.33016095       1.40445150       2.44924086       0.97414899       0.63809891      -0.13264313
H       -0.84419110       2.03808887       0.42279138       0.25308873       0.13290505       0.00220999
H       -1.07875576       0.91498203      -0.92518384       1.44303679       0.24398069       1.59396413
H        0.87870303      -0.42321913       0.11560892      -0.83501046      -0.33409117       0.52955443
H        1.14177409       1.13046862      -1.55552465       1.07496214      -0.75120741      -1.56742358
