17
Properties=species:S:1:pos:R:3:forces:R:3 id=35387 bond=C-N smiles="[H:11][C:4]([H:12])([H:13])[N:2]([H:7])[C:6]([H:16])([H:17])[C:5]([H:14])([H:15])[O:1][C:3]([H:8])([H:9])[H:10]" dataset="DES370K Monomers" energy=-7866.2230090326475 pbc="F F F"
O       -1.08478624      -0.40898588      -0.53040382       1.81573660       1.13963461       1.03549428
N        0.92786610       1.55359320       0.92805537       0.62095400      -1.13221727      -2.91431609
C       -2.11792785      -1.32025234      -0.22229989       1.32843825       1.29290301      -2.14965188
C        1.45865565       1.13789765       2.19740703       1.18680416       0.18281663       0.07841777
C        0.29243279      -0.90018461      -0.50019768      -2.13217985       0.99525255      -0.30218804
C        1.27353388       0.18721982      -0.43397900      -0.65731519       4.79262411      -0.12566952
H       -0.08356911       1.77769081       1.03807106       1.01094297      -1.04446305      -0.70930862
H       -2.34740454      -1.68012897      -1.18444243      -0.84896080      -1.55939112      -0.89421978
H       -1.82329756      -2.02190475       0.46308181       0.69197995      -2.00860279       1.56455628
H       -2.96070176      -0.81775312       0.12444007      -1.24249214       1.18126681       0.75973758
H        2.60208469       1.20335618       2.26946499      -1.59685565      -0.02067508      -0.30079093
H        1.15670901       0.12662620       2.32722285       0.05641047      -1.08385592       1.01130976
H        1.03338807       1.75930623       2.99884870       0.15241462      -0.18853252      -0.19043602
H        0.52932704      -1.45411436       0.36782953      -0.53153072      -1.48448455       0.84245579
H        0.42141509      -1.41213981      -1.44642987       0.44097845      -0.68932466       0.02854735
H        2.28567571      -0.18887357      -0.39233710       0.21078193       0.01168757       1.00460932
H        1.30678982       0.82449134      -1.36701789      -0.50828147      -0.38271069       1.26077126
