17
Properties=species:S:1:pos:R:3:forces:R:3 id=35387 bond=C-N smiles="[H:11][C:4]([H:12])([H:13])[N:2]([H:7])[C:6]([H:16])([H:17])[C:5]([H:14])([H:15])[O:1][C:3]([H:8])([H:9])[H:10]" dataset="DES370K Monomers" energy=-7857.531541870923 pbc="F F F"
O       -1.17120319      -0.06739253      -0.18989523       2.06021562       1.49420589       1.20687810
N        1.01428305       1.21199985       0.58754678     -11.50249467      43.77533515      47.59060209
C       -2.20434480      -0.97865899       0.11820870       1.26621701       1.36916573      -2.05069810
C        1.54507260       0.79630430       1.85689844       0.77113562       1.86024109       3.05735980
C        0.20601584      -0.55859126      -0.15968909      -2.33456676      -2.71629155      -2.86055579
C        1.18711693       0.52881317      -0.09347041      11.18200372     -37.71749011     -46.30010844
H        0.00284784       1.43609746       0.69756247       0.81467686       0.88891345       0.38198053
H       -2.43382149      -1.33853562      -0.84393384      -0.78849689      -1.52274427      -0.88456091
H       -1.90971451      -1.68031140       0.80359040       0.71517540      -1.99689680       1.53922547
H       -3.04711871      -0.47615977       0.46494866      -1.26623402       1.17750044       0.76219480
H        2.68850164       0.86176283       1.92895640      -1.61915332       0.03535644      -0.54980175
H        1.24312596      -0.21496715       1.98671426       0.16647805      -0.92287711       0.86455758
H        1.11980502       1.41771288       2.65834011       0.26289727      -0.34165164      -0.01621271
H        0.44291009      -1.11252101       0.70833812      -0.68885735      -1.43873291       0.69631470
H        0.33499814      -1.07054646      -1.10592128       0.20463162      -0.85480628       0.14574556
H        2.19925876       0.15271978      -0.05182851       0.80399765      -1.30862048      -0.85076616
H        1.22037287       1.16608469      -1.02650930      -0.04655604      -1.78197082      -2.73184647
