22
Properties=species:S:1:pos:R:3:forces:R:3 id=46480 bond=C-P smiles="[H:10][C:1]1=[C:3]([P:5]([C:4](=[C:2]1[H:11])[H:13])[C:7]([H:17])([H:18])[C:9]([H:21])([H:22])[C:8]([H:19])([H:20])[C:6]([H:14])([H:15])[H:16])[H:12]" dataset=PubChem energy=-17799.049924839404 pbc="F F F"
C        2.55541829       0.04354042       3.44870477      -0.29604104       0.06765097       1.38560731
C        2.75314550       1.42731696       3.17746573       0.43865843       1.42565583       1.16394552
C        2.11983291      -0.70588023       2.35542065      -0.63465434       1.77081806      -1.61956064
C        2.47754483       1.94721633       1.90321046      -0.92495604      -3.42344167      -0.52379327
P        1.89566747       0.49616006       1.07372361      10.00827999       2.77676003      18.92843583
C       -2.47447919       0.66250310      -1.42335416       0.93227288      -5.52593146       0.78346820
C        1.29538059       0.26648699      -0.21691407      -8.41250017      -2.45456966     -15.22925778
C       -0.97583556       0.19907676      -1.31461145      -0.15728598       0.55760145      -1.23787038
C       -0.22698480       0.62071212      -0.09833957      -0.33311160       0.72386770      -0.26105628
H        2.56428532      -0.35687381       4.51633173       0.36772465       0.56352788      -1.75273424
H        3.07028775       2.16904610       3.95074612      -0.17697197      -1.05887782      -0.53395002
H        1.81672887      -1.74023336       2.22039610       0.23793114       0.25922802       0.46928577
H        2.61785058       2.90423089       1.45826488       0.06519007       0.45336820       0.21826272
H       -3.07553696       0.49438627      -0.53244235       0.35640154       0.26958631       0.37501427
H       -2.54507780       1.60630022      -1.74845220      -0.30886627       3.40500317      -1.18888069
H       -2.92610025      -0.06743629      -2.12475087       0.02850776       0.83319753      -0.07331879
H        1.69895768       0.99506421      -0.95066477      -0.09362461      -1.20595020      -0.33698277
H        1.40085340      -0.82049383      -0.38537623       0.10233785       0.54516745      -0.93962484
H       -0.72465599      -0.85259856      -1.41175772      -1.06713180      -0.54634018      -0.10316065
H       -0.45570850       0.60101467      -2.20904018      -0.25158485       0.08669328       0.41007499
H       -0.16577947       1.72564422      -0.11580546      -0.67975893      -0.44060628       0.89779037
H       -0.70547902       0.16002195       0.81825312       0.79938141       0.91550941      -0.83526930
