22
Properties=species:S:1:pos:R:3:forces:R:3 id=46480 bond=C-P smiles="[H:10][C:1]1=[C:3]([P:5]([C:4](=[C:2]1[H:11])[H:13])[C:7]([H:17])([H:18])[C:9]([H:21])([H:22])[C:8]([H:19])([H:20])[C:6]([H:14])([H:15])[H:16])[H:12]" dataset=PubChem energy=-17799.946704993763 pbc="F F F"
C        2.78052587       0.12966783       3.93269390      -0.40084277      -0.26395850       1.02349781
C        2.97825308       1.51344437       3.66145486       0.37972229       1.65136463       0.67848463
C        2.34494049      -0.61975282       2.83940978      -0.43931912       1.33130428      -0.99612665
C        2.70265241       2.03334374       2.38719959      -0.49658527      -2.99893706       0.07170292
P        2.12077505       0.58228747       1.55771274      -0.78242938      -0.47394024      -2.04482882
C       -2.69958677       0.57637569      -1.90734329       0.91841614      -5.46067414       0.84173773
C        1.07027301       0.18035958      -0.70090320      -1.16362283       0.29063126       1.54779305
C       -1.20094314       0.11294935      -1.79860058       0.26814947       0.31676026      -1.35785489
C       -0.45209238       0.53458471      -0.58232870       1.37648625       0.99986058       1.63512291
H        2.78939290      -0.27074640       5.00032086       0.32223503       0.53714180      -1.75311485
H        3.29539533       2.25517351       4.43473525      -0.20922527      -1.01426369      -0.54086334
H        2.04183645      -1.65410595       2.70438523       0.21966717       0.33752496       0.43357051
H        2.84295816       2.99035830       1.94225401       0.01230039       0.39460076       0.17772767
H       -3.30064454       0.40825886      -1.01643148       0.37105702       0.26999960       0.37306322
H       -2.77018538       1.52017281      -2.23244133      -0.30061659       3.40172938      -1.18584468
H       -3.15120783      -0.15356370      -2.60874000       0.06582491       0.82498439      -0.06954459
H        1.47385010       0.90893680      -1.43465390       0.59127101      -0.97040732       0.79193088
H        1.17574582      -0.90662124      -0.86936536       0.76365336       0.78483803       0.16402388
H       -0.94976357      -0.93872597      -1.89574685      -1.10611708      -0.56023812      -0.13097629
H       -0.68081608       0.51488726      -2.69302931      -0.27695134       0.08913468       0.35909028
H       -0.39088705       1.63951681      -0.59979459      -0.78173381      -0.42787560       0.87968567
H       -0.93058660       0.07389454       0.33426399       0.66778757       0.94129649      -0.90096647
