22
Properties=species:S:1:pos:R:3:forces:R:3 id=46480 bond=C-P smiles="[H:10][C:1]1=[C:3]([P:5]([C:4](=[C:2]1[H:11])[H:13])[C:7]([H:17])([H:18])[C:9]([H:21])([H:22])[C:8]([H:19])([H:20])[C:6]([H:14])([H:15])[H:16])[H:12]" dataset=PubChem energy=-17798.091884702208 pbc="F F F"
C        2.91905361       0.18266931       4.23053336      -0.38921153      -0.35823496       1.01759618
C        3.11678082       1.56644585       3.95929432       0.40278236       1.73867577       0.64685598
C        2.48346823      -0.56675134       3.13724924      -0.02652750       1.24814843      -0.88118446
C        2.84118015       2.08634522       2.68503905      -0.05097966      -3.03336246       0.16306476
P        2.25930279       0.63528895       1.85555220      -1.14613371      -0.21653703      -1.20641416
C       -2.83811451       0.52337421      -2.20518275       0.88616580      -5.40228434       0.90127362
C        0.93174527       0.12735810      -0.99874266      -2.30652972      -0.03544123      -0.40772284
C       -1.33947088       0.05994787      -2.09644004       0.37692038       0.14108063      -1.57395301
C       -0.59062012       0.48158323      -0.88016816       1.80351082       1.21010796       2.20263666
H        2.92792064      -0.21774492       5.29816032       0.23530878       0.56305944      -1.71182936
H        3.43392307       2.30817499       4.73257471      -0.30171323      -0.98492356      -0.48156612
H        2.18036419      -1.60110447       3.00222469       0.20891147       0.34721018       0.41453304
H        2.98148590       3.04335978       2.24009347       0.00207790       0.38981440       0.16757486
H       -3.43917228       0.35525738      -1.31427094       0.37654884       0.26991052       0.36670197
H       -2.90871312       1.46717133      -2.53028079      -0.29209570       3.39816934      -1.18372668
H       -3.28973557      -0.20656518      -2.90657946       0.10077008       0.81408750      -0.06369497
H        1.33532236       0.85593532      -1.73249336       0.75205172      -0.83215902       0.97862063
H        1.03721808      -0.95962272      -1.16720482       0.92903342       0.73921806       0.46575439
H       -1.08829131      -0.99172745      -2.19358631      -1.12628413      -0.54844843      -0.13972949
H       -0.81934382       0.46188578      -2.99086877      -0.29773038       0.08082394       0.36067193
H       -0.52941479       1.58651533      -0.89763405      -0.79087969      -0.44156399       0.86145181
H       -1.06911434       0.02089306       0.03642453       0.65289372       0.91336107      -0.89879576
