22
Properties=species:S:1:pos:R:3:forces:R:3 id=46480 bond=C-P smiles="[H:10][C:1]1=[C:3]([P:5]([C:4](=[C:2]1[H:11])[H:13])[C:7]([H:17])([H:18])[C:9]([H:21])([H:22])[C:8]([H:19])([H:20])[C:6]([H:14])([H:15])[H:16])[H:12]" dataset=PubChem energy=-17801.743920679583 pbc="F F F"
C        2.65931409       0.08329153       3.67208437      -0.39407792      -0.19996708       1.08895968
C        2.85704130       1.46706807       3.40084533       0.39395614       1.62565026       0.77638411
C        2.22372871      -0.66612912       2.57880025      -0.57686763       1.48332559      -1.25228657
C        2.58144063       1.98696744       2.12659006      -0.69886358      -3.14894150      -0.14303632
P        1.99956327       0.53591117       1.29710321       0.30065093      -0.30368991      -0.46559165
C       -2.57837499       0.62275199      -1.64673376       0.93843540      -5.51111420       0.79146903
C        1.19148479       0.22673588      -0.44029367      -0.68551790       0.43477877       1.94672508
C       -1.07973136       0.15932565      -1.53799105       0.05291346       0.49125554      -1.20487949
C       -0.33088060       0.58096101      -0.32171917       0.80596309       0.75802399       0.77463097
H        2.66818112      -0.31712270       4.73971133       0.34864209       0.53958290      -1.77123662
H        3.17418355       2.20879721       4.17412572      -0.18990188      -1.03768218      -0.55776485
H        1.92062467      -1.70048225       2.44377570       0.22653304       0.31386582       0.45959832
H        2.72174638       2.94398200       1.68164448       0.02733210       0.41439138       0.19988800
H       -3.17943276       0.45463516      -0.75582195       0.36225502       0.26996391       0.37735532
H       -2.64897360       1.56654911      -1.97183180      -0.30855325       3.40537545      -1.18803896
H       -3.02999605      -0.10718740      -2.34813047       0.03488880       0.83183771      -0.07549193
H        1.59506188       0.95531310      -1.17404437       0.29389527      -1.15357087       0.33351369
H        1.29695760      -0.86024494      -0.60875583       0.47353985       0.71933655      -0.37874367
H       -0.82855179      -0.89234967      -1.63513732      -1.07825838      -0.55814821      -0.11373171
H       -0.55960430       0.56126356      -2.43241978      -0.25552134       0.09251686       0.37989790
H       -0.26967527       1.68589311      -0.33918506      -0.75767064      -0.40851178       0.89053282
H       -0.80937482       0.12027084       0.59487352       0.68493026       0.94215779      -0.87285246
