22
Properties=species:S:1:pos:R:3:forces:R:3 id=46480 bond=C-P smiles="[H:10][C:1]1=[C:3]([P:5]([C:4](=[C:2]1[H:11])[H:13])[C:7]([H:17])([H:18])[C:9]([H:21])([H:22])[C:8]([H:19])([H:20])[C:6]([H:14])([H:15])[H:16])[H:12]" dataset=PubChem energy=-17799.16101257857 pbc="F F F"
C        2.83247377       0.14954338       4.04438370      -0.39166705      -0.27211691       1.02290389
C        3.03020098       1.53331992       3.77314466       0.38197578       1.65156503       0.67349251
C        2.39688839      -0.59987727       2.95109958      -0.35377857       1.29530164      -0.93874164
C        2.75460031       2.05321929       2.49888939      -0.39746909      -2.97871864       0.11578342
P        2.17272295       0.60216302       1.66940254      -0.84151037      -0.40836305      -1.82724037
C       -2.75153467       0.55650014      -2.01903309       0.90613663      -5.43679249       0.86614471
C        1.01832511       0.16048403      -0.81259300      -1.64311582       0.15983113       0.78482821
C       -1.25289104       0.09307380      -1.91029038       0.32957696       0.24238896      -1.44261950
C       -0.50404028       0.51470916      -0.69401850       1.55229547       1.09235107       1.89240181
H        2.84134080      -0.25087085       5.11201066       0.30406864       0.54093693      -1.74068485
H        3.34734323       2.27504906       4.54642505      -0.22581649      -1.00399602      -0.52624925
H        2.09378435      -1.63423040       2.81607503       0.21677072       0.34235304       0.42437295
H        2.89490606       3.01023385       2.05394381       0.00875518       0.39080876       0.17156476
H       -3.35259244       0.38838331      -1.12812128       0.37396895       0.26993402       0.37052601
H       -2.82213328       1.50029726      -2.34413113      -0.29690863       3.40009935      -1.18494152
H       -3.20315573      -0.17343925      -2.72042980       0.08045756       0.82097295      -0.06678740
H        1.42190220       0.88906125      -1.54634370       0.67153826      -0.90739707       0.89728630
H        1.12379792      -0.92649679      -0.98105516       0.84523321       0.77621377       0.31594702
H       -1.00171147      -0.95860152      -2.00743665      -1.11584634      -0.55682788      -0.13577121
H       -0.73276398       0.49501171      -2.80471911      -0.28598555       0.08608735       0.35695208
H       -0.44283495       1.61964126      -0.71148439      -0.78497633      -0.43645995       0.87337122
H       -0.98253450       0.05401899       0.22257419       0.66528111       0.93278017      -0.90499149
