39
Properties=species:S:1:pos:R:3:forces:R:3 id=20213 bond=C-O smiles="[H:20][c:5]1[c:6]([c:8]([c:10]([c:9]([c:7]1[H:22])[H:24])[C:15]2([C:16]([N:11]3[C:4](=[N:1]2)[C:14]([C:18]([C:19]([C:17]3([H:34])[H:35])([H:38])[H:39])([H:36])[H:37])([O:2][C:12]([H:25])([H:26])[H:27])[O:3][C:13]([H:28])([H:29])[H:30])([H:32])[H:33])[H:31])[H:23])[H:21]" dataset=PubChem energy=-22954.08993254699 pbc="F F F"
N       -0.33985865      -0.80854160       0.46268942      -1.22876181       1.54178983       3.94955567
O       -1.05548001       0.12833344       3.07912422     -46.67042280     -57.52444566      51.71535108
O        0.77326128       0.57648760       2.90935353       7.04030900       1.06397070      -0.11613838
C       -0.63638074       0.36287048       1.04816527       1.02736824      -1.09999123      -4.53904561
C        3.52915328      -1.15969640      -2.71117540      -2.64041340      -0.21061993      -0.49159486
C        2.37430113      -1.64192468      -3.44986292      -0.75755539       3.53569688       4.45118312
C        3.40382426      -0.52642381      -1.45286127       2.28094924      -0.55346059       1.67794010
C        1.06103378      -1.36964935      -2.83470174       3.22849513      -1.78738269      -0.84378826
C        2.16501396      -0.40151650      -0.82795295       0.30160737      -1.83529820      -3.19912595
C        1.02475184      -0.90226811      -1.52314993       0.50661070       0.01761533      -0.38985667
N       -0.85271293       1.37946552       0.13754997       0.48919160      -1.01567067       0.25281238
C       -0.87847925       0.18800972       4.51957560      -0.66137616      -0.94244082       2.71660491
C        1.33232671      -0.77561134       3.04514864       0.33122683       2.08265225      -0.80908972
C       -0.59444130       0.70236123       2.55520240      40.69929135      50.99631625     -48.70763780
C       -0.32305807      -0.67239720      -0.93827649       1.34705360       2.37116960      -0.68878133
C       -0.50669891       0.87469762      -1.18578645      -1.72202839      -0.57948062       1.04142837
C       -1.01086694       2.77252096       0.42138330       1.92750304       0.64349079       1.37204079
C       -1.06474334       2.11584741       2.78518418       1.02398526       4.82738298      -0.21562205
C       -0.33923609       3.09522193       1.85872749      -0.78479256      -0.38024187      -1.25536650
H        4.48478692      -1.19387036      -3.14519783       1.04308681      -0.29224814      -0.53488046
H        2.37415057      -1.83645683      -4.46583267       0.48506884      -0.94826356      -1.67499108
H        4.44524139      -0.29567033      -0.78685375      -3.10254499      -0.35954646      -2.18823788
H        0.20331914      -1.76252395      -3.41165157       0.25338917       0.60622596       0.79287149
H        2.08430189      -0.01361305       0.12489382      -0.32233942       0.73332310       1.71491895
H       -1.82527674       0.50831225       4.97807026       0.26578580      -0.36801749      -0.35384625
H       -0.07572276       0.88500176       4.84450102      -0.77907610      -0.75680615      -0.62231524
H       -0.60562004      -0.84167637       4.83745814      -0.45971368       0.90899213      -0.19340613
H        2.17689758      -0.79924327       3.73901895      -0.13831322       0.66338516      -0.03583287
H        0.63161611      -1.46527702       3.43005828      -0.89113101      -0.85811523      -0.08655202
H        1.67790872      -1.02112049       2.05941859       0.04127797      -0.76043298      -0.21846098
H       -1.01905710      -1.25634176      -1.51584383      -0.65308760      -0.24485111       0.27838296
H        0.32005582       1.41150456      -1.58800765       0.65059321       0.16289431      -0.41617841
H       -1.36830587       0.93688178      -1.78006812      -0.98465469       0.71991745      -1.36782889
H       -0.47954554       3.39883536      -0.28381183       0.28576658      -0.23685309      -0.54705220
H       -2.05040103       3.07908386       0.31563035      -0.18626428       0.09514586       0.63100360
H       -2.14545876       2.13406700       2.57961408       0.28180204      -0.14807316       0.10831106
H       -0.91738445       2.36848110       3.86169723      -0.09399856      -0.10932150      -0.97212553
H        0.76915967       2.82067961       1.93926540      -1.53744872       0.60217943      -0.67757444
H       -0.49176455       4.18055242       1.99291841       0.10711279      -0.56280920       0.44348628
