39
Properties=species:S:1:pos:R:3:forces:R:3 id=20213 bond=C-O smiles="[H:20][c:5]1[c:6]([c:8]([c:10]([c:9]([c:7]1[H:22])[H:24])[C:15]2([C:16]([N:11]3[C:4](=[N:1]2)[C:14]([C:18]([C:19]([C:17]3([H:34])[H:35])([H:38])[H:39])([H:36])[H:37])([O:2][C:12]([H:25])([H:26])[H:27])[O:3][C:13]([H:28])([H:29])[H:30])([H:32])[H:33])[H:31])[H:23])[H:21]" dataset=PubChem energy=-22963.78522160275 pbc="F F F"
N        0.06080596      -0.30968411       0.00737642      -1.13640425       1.70132785       3.93089421
O       -1.45614462      -0.37052405       3.53443722       1.32362487       1.56883785      -0.15588661
O        1.17392589       1.07534509       2.45404053      -2.35644861      -0.62305858       1.52528705
C       -0.23571613       0.86172797       0.59285227      -0.15475807      -3.27864082      -1.76804091
C        3.92981789      -0.66083891      -3.16648840      -2.65150766      -0.20496846      -0.48292860
C        2.77496574      -1.14306719      -3.90517592      -0.76109516       3.55515872       4.45703182
C        3.80448887      -0.02756632      -1.90817427       2.30387817      -0.54882860       1.68926114
C        1.46169839      -0.87079186      -3.29001474       3.20429485      -1.79182004      -0.83689979
C        2.56567857       0.09734099      -1.28326595       0.27686909      -1.83821225      -3.22760948
C        1.42541645      -0.40341062      -1.97846293       0.56060171      -0.00759551      -0.38743967
N       -0.45204832       1.87832301      -0.31776303       0.26113896      -0.55557084       0.61336602
C       -1.27914386      -0.31084777       4.97488860       0.14257968      -0.06316638      -1.75825681
C        1.73299132      -0.27675385       2.58983564       0.68100654       1.01354105      -0.57460607
C       -0.19377669       1.20121872       2.09988940       2.99973751      -0.35816714      -0.84727991
C        0.07760654      -0.17353971      -1.39358949       1.44592239       2.45893067      -0.71192891
C       -0.10603430       1.37355511      -1.64109945      -1.65260408      -0.66885729       1.05987890
C       -0.61020233       3.27137845      -0.03392970       1.86705482       0.70376515       1.31551747
C       -0.66407873       2.61470490       2.32987118      -0.84786619       0.03927414       2.17103672
C        0.06142852       3.59407942       1.40341449      -0.25645614      -0.91675484      -1.83123950
H        4.88545153      -0.69501287      -3.60051083       1.03786528      -0.29346613      -0.52960779
H        2.77481518      -1.33759934      -4.92114567       0.48277034      -0.95359053      -1.66793683
H        4.84590600       0.20318716      -1.24216675      -3.10744726      -0.36183313      -2.19329444
H        0.60398375      -1.26366646      -3.86696457       0.25645000       0.60562540       0.79370999
H        2.48496650       0.48524444      -0.33041918      -0.29734695       0.72505809       1.70302638
H       -2.22594135       0.00945476       5.43338326       0.27369900      -0.09089299       0.05146886
H       -0.47638737       0.38614427       5.29981402      -0.31881973      -0.33148781      -0.22869035
H       -1.00628465      -1.34053386       5.29277114      -0.12024465       0.60530116       0.09696432
H        2.57756219      -0.30038578       3.28370595      -0.14648475       0.82372509      -0.11696812
H        1.03228072      -0.96641953       2.97474528      -1.17015676      -0.48019140       0.01356362
H        2.07857333      -0.52226300       1.60410559       0.02241644      -0.64463339      -0.27485953
H       -0.61839249      -0.75748427      -1.97115683      -0.65373883      -0.24403639       0.36344170
H        0.72072043       1.91036205      -2.04332065       0.64448693       0.16165277      -0.38853122
H       -0.96764126       1.43573927      -2.23538112      -0.99154028       0.73469209      -1.30606552
H       -0.07888093       3.89769285      -0.73912483       0.29362152      -0.24549457      -0.52808763
H       -1.64973642       3.57794135      -0.13968265      -0.15824229       0.08213593       0.65316070
H       -1.74479415       2.63292449       2.12430108       0.32398788       0.02498545       0.19145914
H       -0.51671984       2.86733859       3.40638423      -0.08960538      -0.27337372      -0.77972801
H        1.16982428       3.31953710       1.48395240      -1.51899244       0.69938791      -0.70116169
H       -0.09109994       4.67940991       1.53760541      -0.01331744      -0.72741714       0.66412676
