20
Properties=species:S:1:pos:R:3:forces:R:3 id=33530 bond=N-N smiles="[H:15][C:10]([H:16])([H:17])[N:9]([C:11]([H:18])([H:19])[H:20])[N:8]([H:14])[C:7](=[S:6])[C:13]([C:12]([F:1])([F:2])[F:3])([F:4])[F:5]" dataset=PubChem energy=-32708.318194030657 pbc="F F F"
F        0.92598411       2.58395724       2.79582179      -1.16318432      -0.99289633      -0.04765086
F        0.80253139       1.01286283       4.27710975       0.48199504      -0.67106653      -0.43231670
F       -0.82209632       2.32779698       4.13274801       0.15131094      -0.11931956      -1.50115614
F        0.22970648      -0.35737426       2.02683091       0.34120295       0.91210837       0.25139659
F       -1.63028929       0.09115891       3.00622928       0.49153678       0.48854752       0.03993069
S       -2.55812523       2.26468889       1.25661415       0.75030889      -0.22842728       0.29344401
C       -1.10099599       1.44213770       1.16051391      -0.23237803       0.73795012      -4.65833870
N       -0.50166413       1.48988359      -0.11706435       0.36521604      -1.11217635       3.25746825
N        1.28341027      -0.17343599      -0.81872042       0.42621840      -1.47935483       1.49616263
C        0.79189036      -1.14783597      -1.81476267      -1.14126271       2.82833735      -0.31273792
C        2.68650391       0.29348506      -0.91524239      -1.12636461       0.53294002       0.63999298
C        0.08323632       1.67025690       3.36036695       0.88898484       1.03646984       2.37731063
C       -0.57412288       0.67868459       2.37390221      -0.76736913      -0.54439815      -1.07963569
H       -0.98315296       2.06317238      -0.81813883      -0.04845374      -0.35824315       0.48286285
H        1.42353727      -2.00615847      -1.90869935       0.85926277      -0.33410411       0.19774099
H        0.75826094      -0.62568390      -2.79546316      -0.01640874      -0.60974910       0.13458312
H       -0.23166512      -1.48851812      -1.56405910       0.69594961       0.38997700       0.08824777
H        3.01390363       0.69894350       0.07728807      -0.58817262      -0.26659005      -0.91972036
H        3.33978464      -0.55624193      -1.14331420      -0.32960100      -0.11328032      -0.21400386
H        2.85323479       1.06130159      -1.67644890      -0.04195389      -0.10044724      -0.10279851
