44
Properties=species:S:1:pos:R:3:forces:R:3 id=39316 bond=C-S smiles="[H:22][c:2]1[c:4]([c:8]([c:12]([c:9]([c:5]1[H:25])[H:29])[C:15]([H:33])([c:13]2[c:10]([c:6]([c:3]([c:7]([c:11]2[H:31])[H:27])[H:23])[H:26])[H:30])[S:1][C:16]([H:34])([H:35])[C:17]([H:36])([H:37])[N:14]([H:32])[C:18]([H:38])([H:39])[C:21]3([C:19]([C:20]3([H:42])[H:43])([H:40])[H:41])[H:44])[H:28])[H:24]" dataset=PubChem energy=-32414.51763434425 pbc="F F F"
S        0.60687098       3.09474861       1.68039347       0.34410525      -0.41522447      -1.35946066
C        0.97864796       0.56915135       6.35933770      -0.74684819       0.13912681       0.80522610
C       -3.60963718      -0.27073205       1.13349327       0.01642245       0.53369281      -0.21281246
C       -0.32501571       0.81792184       5.91750134      -0.60161177       0.28383983      -0.92985785
C        2.03634150       0.66330319       5.47223557       0.47069969       0.18478819      -1.39849535
C       -3.44905822       1.14079963       1.05231377       0.44692831      -1.51795747       0.32829891
C       -2.52246039      -1.09504832       1.47208429      -1.07805550       0.16578263      -0.53965939
C       -0.56034027       1.08203124       4.54878248       0.00929212       0.11939153       0.60418820
C        1.81460078       0.98994749       4.11802662      -0.42014058      -0.25387576       0.13050896
C       -2.19177525       1.68640613       1.33035355       0.28827237       0.35817930      -0.10797483
C       -1.30490462      -0.53656924       1.74992261       0.92998905      -0.03455684       0.35683821
C        0.50184665       1.16045886       3.64909971       0.15208443      -0.00351479       0.05714858
C       -1.10731094       0.84400704       1.68588663      -0.16302704       0.46207490       0.28578015
N        0.79160554       0.86006870      -2.58447370      -0.92649111      -0.62038716      -0.12096452
C        0.27035950       1.34016096       2.14521117      -0.11355279       0.46449297      -0.56029372
C        1.01592875       3.08946007      -1.64025971       1.77237061       0.55242579      -1.61049269
C        1.70650670       1.90172153      -2.26290544       0.89151160      -0.51460937       2.82440657
C        1.29810867      -0.26405508      -3.36879644      -0.36265304      -0.72687219      -0.07588919
C        3.50394580      -1.79175980      -3.29897627      -0.70742039       1.19570183       0.56708985
C        3.72600981      -0.54416568      -2.46455225      -0.26340475      -0.22463760       0.85694367
C        2.32572672      -1.10902817      -2.60781106       0.08640232       0.48386302      -0.62579583
H        1.13292368       0.33665601       7.42518795       0.08047085       0.10250692      -0.71506511
H       -4.57470743      -0.72857977       0.89803906       0.35404289       0.24128852       0.12460871
H       -1.22304766       0.83820182       6.56721342       0.99920561      -0.23358720      -0.21748849
H        3.06603487       0.46178839       5.75263632      -0.25923628       0.07135279       0.28892777
H       -4.28486388       1.78842437       0.79034118       0.24854396      -0.25894592       0.05262933
H       -2.59152786      -2.17983044       1.47871413      -0.33834186       0.24347962       0.07273519
H       -1.58247774       1.23821890       4.18229497       0.51436143      -0.12027159       0.25743623
H        2.62140877       1.06844538       3.36759580      -0.34494554      -0.09369905       0.77619849
H       -2.08965247       2.79598962       1.23690083       0.27045585      -1.28155743       0.27591443
H       -0.49662118      -1.22321904       2.07617570      -0.41061403       0.77541922      -0.31557656
H        0.34382075       0.54159705      -1.73431643      -0.08525352      -0.12046056      -0.13225698
H        1.05363662       0.74002891       1.66531671      -0.33651350       0.11687082      -0.03584751
H        1.59144309       4.00385230      -1.91487667      -0.23740517      -0.43089270       1.54396430
H        0.05948791       3.20341151      -2.07456037      -1.57728546      -0.04242068       0.67149341
H        2.55389378       1.57249813      -1.55155548      -0.89977486       0.48606946      -1.02069238
H        2.17874512       2.21510010      -3.17668184       0.38388074       0.53214924      -0.47637176
H        1.70199582       0.13384657      -4.31561121       0.12010184      -0.14572251       0.40974031
H        0.42652415      -0.90774054      -3.68049844       0.78258597       0.67875422       0.42757409
H        3.76639816      -2.70961244      -2.82944163       0.42814888      -0.55029749      -0.13680217
H        3.62323472      -1.68791944      -4.37089189      -0.11781524      -0.21490292       0.16386838
H        3.89860126       0.41714816      -2.96292266       0.14643953      -0.66985946       0.19372580
H        4.15580866      -0.65318377      -1.44621870      -0.05759285       0.17611332      -1.05284482
H        1.89744780      -1.60305149      -1.72685334       0.31383949       0.10656409      -0.43132428
