43
Properties=species:S:1:pos:R:3:forces:R:3 id=11766 bond=C-N smiles="[H:21][c:4]1[c:8]2[c:7]([c:9]([c:5]([c:6]1[Cl:1])[H:22])[C:14]([H:28])([H:29])[N:10]([H:23])[C:19]([H:40])([H:41])[C:20]([H:42])([H:43])[N:11]([C:17]([H:36])([H:37])[C:15]([H:30])([H:31])[H:32])[C:18]([H:38])([H:39])[C:16]([H:33])([H:34])[H:35])[O:2][C:12]([O:3][C:13]2([H:26])[H:27])([H:24])[H:25]" dataset=PubChem energy=-35536.92059078874 pbc="F F F"
Cl      -5.00542712       0.14916845       3.51101221       1.51848191       0.75769239      -0.69357914
O        0.23322827       2.79164447       1.71524086      -0.66980588      -1.23902555      -0.26173859
O       -0.73315895       4.90478576       2.07218780       2.68849162      -0.43956936      -0.45917577
C       -3.34789109       2.29032553       2.75386133       1.92991875       0.90709794       0.14079849
C       -2.48507523       0.18311401       2.24703993       1.10608056      -0.35597225       1.09261274
C       -3.51753926       0.91507144       2.83116485       0.45559473       0.96639767      -1.11055882
C       -1.03194880       2.12299766       1.87928231      -0.57120741       1.69761013       1.80405822
C       -2.11479330       2.93030943       2.30923869      -1.05850017      -2.69698332      -0.50331102
C       -1.20234155       0.72819536       1.90091713      -0.38144688      -0.55284248      -1.64398454
N        1.02971596      -0.05624954       2.40583636      -1.98044660      -0.32322400       1.17895639
N        2.37601201      -1.31631931      -1.03055427      -0.38206701      -0.39644176       0.83831740
C        0.36170423       3.99932446       2.42250504      -1.89271122       1.76434921      -2.81945481
C       -1.98841333       4.41186799       2.34593906      -0.85378814       0.10361283       0.65783326
C       -0.05848044      -0.19369756       1.41081845       1.26701180       2.03026673       0.42900479
C        1.40903018      -2.52143249      -2.95276794      -0.19202172      -1.04350149       0.56287751
C        2.62378434       0.87127098      -2.31350479      -0.31393284      -1.55196690      -0.49226151
C        2.21714262      -2.67204961      -1.60494849      -0.75189982       3.04641194      -1.04797385
C        3.23379091      -0.49559221      -1.88238308       0.19087443       0.58744608       1.69505544
C        2.39289594      -0.17777912       2.07488550       1.17100464      -0.45089535      -1.17669133
C        2.90203881      -1.43609320       1.38213768      -0.51796496       0.05547277       1.49671076
H       -4.03394150       2.94289268       3.22422399      -0.88234533       0.54263559       0.16294576
H       -2.62780404      -0.87827764       2.36566748       0.50523220      -0.34223231      -0.56733798
H        0.91188091       0.86983658       2.79034235       0.07366019      -0.24073906       0.21481839
H        1.25881225       4.57409013       2.18640162      -0.04562802      -0.65835209      -0.67147065
H        0.36422077       3.89657224       3.43660177      -0.32023917      -0.96178864       2.96697626
H       -2.22569131       4.65399946       3.37867941      -0.56908405       0.56893423       0.18139007
H       -2.64303565       4.93510593       1.63130988      -0.11994345      -0.40595357       0.48426279
H       -0.44282436      -1.15278373       1.31332656      -0.51191051      -1.97731073       0.30844601
H        0.43248424      -0.01157938       0.44494040      -0.88059411       0.66767974      -0.25016258
H        1.91638271      -1.83817634      -3.64925656      -0.41246297      -0.26912409       0.23546223
H        0.36301426      -2.14335403      -2.67477450       1.56453320      -0.60023955      -0.70870220
H        1.38385133      -3.56806525      -3.42342672      -0.28710516       1.58195206       0.54199461
H        2.49874167       1.44190273      -1.40468332       0.44595010       0.73386365      -0.19524296
H        3.38092307       1.12590876      -3.06828723      -0.38680566       1.22009249       0.47219136
H        1.61499922       0.87115330      -2.80572257       0.97282908      -0.57395196       0.36708971
H        3.12984518      -3.18580088      -1.70433018       1.16688881      -0.79068660      -0.37019437
H        1.56671278      -3.13532791      -0.96266219      -1.19620307      -1.65830372       1.62599344
H        4.12643007      -0.25758156      -1.29103527      -0.04358054       0.32239050       0.02747591
H        3.68737940      -0.97828802      -2.73425112      -0.31241372      -0.73334511      -0.40241187
H        2.75572014       0.69479868       1.57832922       0.43911332       0.87319369      -0.76549728
H        2.94945550      -0.20051269       3.01963128       0.03275601      -0.06022709       0.09781003
H        4.00810981      -1.39783893       1.55701717      -0.89302791      -0.53741503      -1.04522521
H        2.39558446      -2.23140345       2.08131267       0.90166282       0.43095267      -2.39408177
