43
Properties=species:S:1:pos:R:3:forces:R:3 id=11766 bond=C-N smiles="[H:21][c:4]1[c:8]2[c:7]([c:9]([c:5]([c:6]1[Cl:1])[H:22])[C:14]([H:28])([H:29])[N:10]([H:23])[C:19]([H:40])([H:41])[C:20]([H:42])([H:43])[N:11]([C:17]([H:36])([H:37])[C:15]([H:30])([H:31])[H:32])[C:18]([H:38])([H:39])[C:16]([H:33])([H:34])[H:35])[O:2][C:12]([O:3][C:13]2([H:26])[H:27])([H:24])[H:25]" dataset=PubChem energy=-35536.852468872945 pbc="F F F"
Cl      -5.00305763       0.14862893       3.52188019       1.51855631       0.75772305      -0.69361865
O        0.23559776       2.79110495       1.72610884      -0.67008335      -1.23912299      -0.26188619
O       -0.73078946       4.90424624       2.08305578       2.68843475      -0.43947645      -0.45909084
C       -3.34552160       2.28978601       2.76472931       1.92984224       0.90721683       0.14085677
C       -2.48270574       0.18257449       2.25790791       1.10608825      -0.35618540       1.09262888
C       -3.51516977       0.91453192       2.84203283       0.45558303       0.96643207      -1.11037780
C       -1.02957931       2.12245814       1.89015029      -0.57100713       1.69777554       1.80380658
C       -2.11242381       2.92976991       2.32010667      -1.05847759      -2.69724061      -0.50326698
C       -1.19997206       0.72765584       1.91178511      -0.38141077      -0.55222756      -1.64416225
N        1.03208545      -0.05678906       2.41670434      -1.97838426      -0.32062498       1.18001177
N        2.37364252      -1.31577979      -1.04142225      -0.37994514      -0.37744105       0.77569868
C        0.36407372       3.99878494       2.43337302      -1.89264130       1.76433014      -2.81932488
C       -1.98604384       4.41132847       2.35680704      -0.85386487       0.10383140       0.65780030
C       -0.05611095      -0.19423708       1.42168643       1.26752339       2.02738429       0.42986064
C        1.40666069      -2.52089297      -2.96363592      -0.19523996      -1.03907613       0.55768719
C        2.62141485       0.87181050      -2.32437277      -0.31685217      -1.54796871      -0.48921250
C        2.21477313      -2.67151009      -1.61581647      -0.74502276       3.04789001      -1.04202659
C        3.23142142      -0.49505269      -1.89325106       0.18296424       0.56847992       1.68252863
C        2.39526543      -0.17831864       2.08575348       1.16353968      -0.45481446      -1.18916945
C        2.90440830      -1.43663272       1.39300566      -0.51591510       0.04754384       1.57476274
H       -4.03157201       2.94235316       3.23509197      -0.88233159       0.54260895       0.16290596
H       -2.62543455      -0.87881716       2.37653546       0.50523624      -0.34218862      -0.56741458
H        0.91425040       0.86929706       2.80121033       0.07350087      -0.24044694       0.21425783
H        1.26118174       4.57355061       2.19726960      -0.04566205      -0.65836991      -0.67145006
H        0.36659026       3.89603272       3.44746975      -0.32023013      -0.96177383       2.96690757
H       -2.22332182       4.65345994       3.38954739      -0.56905745       0.56893922       0.18130364
H       -2.64066616       4.93456641       1.64217786      -0.11990233      -0.40595937       0.48431839
H       -0.44045487      -1.15332325       1.32419454      -0.51196334      -1.97696499       0.30855775
H        0.43485373      -0.01211890       0.45580838      -0.87981845       0.66809903      -0.25128119
H        1.91401322      -1.83763682      -3.66012454      -0.41235990      -0.26931303       0.23559764
H        0.36064477      -2.14281451      -2.68564248       1.56459852      -0.60063839      -0.70903356
H        1.38148184      -3.56752573      -3.43429470      -0.28682271       1.58179337       0.54350990
H        2.49637218       1.44244225      -1.41555130       0.44600728       0.73366215      -0.19538538
H        3.37855358       1.12644828      -3.07915521      -0.38695373       1.21851052       0.47267911
H        1.61262973       0.87169282      -2.81659055       0.97325229      -0.57415914       0.36714568
H        3.12747569      -3.18526136      -1.71519816       1.16666773      -0.78870521      -0.37140422
H        1.56434329      -3.13478839      -0.97353017      -1.19521612      -1.65717624       1.62677098
H        4.12406058      -0.25704204      -1.30190325      -0.04641990       0.32085831       0.03128969
H        3.68500991      -0.97774850      -2.74511910      -0.30957696      -0.73150877      -0.40516800
H        2.75808963       0.69425916       1.58919720       0.43891287       0.87552012      -0.76370200
H        2.95182499      -0.20105221       3.03049926       0.03597332      -0.06201781       0.09946792
H        4.01047930      -1.39837845       1.56788515      -0.89144306      -0.53772501      -1.04950527
H        2.39795395      -2.23194297       2.09218065       0.90274801       0.43063012      -2.38990302
