43
Properties=species:S:1:pos:R:3:forces:R:3 id=11766 bond=C-N smiles="[H:21][c:4]1[c:8]2[c:7]([c:9]([c:5]([c:6]1[Cl:1])[H:22])[C:14]([H:28])([H:29])[N:10]([H:23])[C:19]([H:40])([H:41])[C:20]([H:42])([H:43])[N:11]([C:17]([H:36])([H:37])[C:15]([H:30])([H:31])[H:32])[C:18]([H:38])([H:39])[C:16]([H:33])([H:34])[H:35])[O:2][C:12]([O:3][C:13]2([H:26])[H:27])([H:24])[H:25]" dataset=PubChem energy=-35520.48498527709 pbc="F F F"
Cl      -5.17603041       0.18801404       2.72851752       1.51981886       0.75861646      -0.69392879
O        0.06262498       2.83049006       0.93274617      -0.68159614      -1.23949789      -0.29601396
O       -0.90376224       4.94363135       1.28969311       2.67793810      -0.43753478      -0.47146796
C       -3.51849438       2.32917112       1.97136664       1.93072338       0.90534750       0.13910287
C       -2.65567852       0.22195960       1.46454524       1.10457238      -0.35594306       1.08145626
C       -3.68814255       0.95391703       2.04867016       0.45640044       0.96202294      -1.10290300
C       -1.20255209       2.16184325       1.09678762      -0.54066908       1.69351229       1.80990457
C       -2.28539659       2.96915502       1.52674400      -1.06040924      -2.69939157      -0.50170660
C       -1.37294484       0.76704095       1.11842244      -0.42614227      -0.56162303      -1.68841846
N        0.85911267      -0.01740395       1.62334167      -2.21848151      -0.39012544       0.85436563
N        2.54661530      -1.35516490      -0.24805958     -24.00412239      -0.10439377    -117.04126193
C        0.19110094       4.03817005       1.64001035      -1.87661109       1.76844762      -2.79676837
C       -2.15901662       4.45071358       1.56344437      -0.84758582       0.10671909       0.65995045
C       -0.22908373      -0.15485197       0.62832376       1.28985846       2.04477475       0.62613296
C        1.57963347      -2.56027808      -2.17027325      -0.00990100      -1.52110382       0.51515749
C        2.79438763       0.83242539      -1.53101010      -0.05482634      -1.40743401      -0.89084636
C        2.38774591      -2.71089520      -0.82245380      -1.93205859       1.69426008      -5.21103655
C        3.40439420      -0.53443780      -1.09988839      -0.78400674       2.38096803      -1.54144495
C        2.22229265      -0.13893353       1.29239081       2.14448052       1.66768911       4.38017045
C        2.73143552      -1.39724761       0.59964299      21.55909294      -2.52430125     115.06831928
H       -4.20454479       2.98173827       2.44172930      -0.88170342       0.54205477       0.16341421
H       -2.79840733      -0.83943205       1.58317279       0.50367057      -0.34374789      -0.56516889
H        0.74127762       0.90868217       2.00784766       0.04306232      -0.27069894       0.20484880
H        1.08820896       4.61293572       1.40390693      -0.04545345      -0.66139154      -0.66870722
H        0.19361748       3.93541783       2.65410708      -0.31610916      -0.96592834       2.95883331
H       -2.39629460       4.69284505       2.59618472      -0.56872820       0.56727572       0.18054564
H       -2.81363894       4.97395152       0.84881519      -0.12178022      -0.40601908       0.48473319
H       -0.61342765      -1.11393814       0.53083187      -0.56292319      -1.99130343       0.28838100
H        0.26188095       0.02726621      -0.33755429      -0.94304218       0.73385600      -0.28601404
H        2.08698600      -1.87702193      -2.86676187      -0.40921999      -0.27830354       0.24548264
H        0.53361755      -2.18219962      -1.89227981       1.56255317      -0.61106426      -0.70678457
H        1.55445462      -3.60691084      -2.64093203      -0.35775396       1.61844999       0.44874451
H        2.66934496       1.40305714      -0.62218863       0.50218487       0.87015596      -0.74096305
H        3.55152636       1.08706317      -2.28579254      -0.43400983       1.21282026       0.42039288
H        1.78560251       0.83230771      -2.02322788       1.01137230      -0.53243466       0.33662888
H        3.30044847      -3.22464647      -0.92183549       1.43325032      -0.58543255      -0.03942741
H        1.73731607      -3.17417350      -0.18016750      -1.11808238      -1.28069074       1.66618791
H        4.29703336      -0.29642715      -0.50854058      -0.28747267      -0.06866752       0.42470890
H        3.85798269      -1.01713361      -1.95175643      -0.68580728      -0.76828268      -0.38831279
H        2.58511685       0.73364427       0.79583453       0.31742806       0.35912406      -0.32456637
H        2.77885221      -0.16166710       2.23713659      -0.16088903       0.38893894       0.26599079
H        3.83750652      -1.35899334       0.77452248       2.38045339      -0.96090513       3.02727136
H        2.22498117      -2.19255786       1.29881798       0.90277350       0.69018903      -0.29866848
