11
Properties=species:S:1:pos:R:3:forces:R:3 id=8362 bond=C-C smiles="[H:6][C:3]([H:7])([H:8])[C:5]([H:10])([H:11])[C:4]([H:9])([F:1])[F:2]" dataset="DES370K Monomers" energy=-8643.530349199604 pbc="F F F"
F        0.69723596       1.59594530      -0.22694680      -0.09161669       0.42295002       0.01657423
F       -0.58192227      -0.19510161      -0.19369113      -0.31716228       0.34212029      -0.02882001
C        2.41841588      -0.08938143       1.25104761      20.72761162       9.79839704      20.35040405
C        0.41950234       0.46471847       0.46159103      -0.08384214      -1.50407805      -1.14568137
C        1.64380588      -0.42675825       0.50296053     -20.35282154      -9.53627215     -21.65098479
H        2.62603126       0.96381133       1.07735717       1.12510015       0.43153135       0.55753935
H        1.98453866      -0.15530200       2.22556364       0.52661867       0.22293560       1.66618095
H        3.31696377      -0.68535120       1.21609974       0.75919391       0.21960377       0.54941913
H        0.09283790       0.69917888       1.45378244      -0.43507875       0.44730796       0.59334414
H        2.10689999      -0.40730586      -0.51260114      -1.12679257      -0.38106331      -0.20074310
H        1.32243683      -1.44141441       0.72360045      -0.73973958      -0.45953480      -0.71215417
