49
Properties=species:S:1:pos:R:3:forces:R:3 id=15533 bond=C-O smiles="[H:20][C:4]1=[C:3]([C:15]2([C:14]([C:19]([C:16]1([C:17]([C:13]2([H:41])[H:42])([H:47])[C:12]([H:40])([O:1][C:10]([H:36])([H:37])[C:6]([H:24])([H:25])[H:26])[O:2][C:11]([H:38])([H:39])[C:7]([H:27])([H:28])[H:29])[H:46])([H:49])[C:18]([H:48])([C:8]([H:30])([H:31])[H:32])[C:9]([H:33])([H:34])[H:35])([H:43])[H:44])[H:45])[C:5]([H:21])([H:22])[H:23]" dataset=PubChem energy=-22225.04768615199 pbc="F F F"
O        2.05429173       1.31834754       2.36493620      -1.42525453       0.54652873      -0.85885619
O        1.77202130       3.29606106       1.12676152       2.40559755      -0.94360907      -1.71032568
C        0.28980516      -1.47494313       1.01027926      -1.48171250       0.90145869       1.70536653
C       -0.58268260      -0.51027450       1.45018455       2.09411037      -0.87172051      -0.44240092
C        0.60673231      -2.72809527       1.78017184      -0.79210449       0.08999664      -1.54074361
C        1.87520075       0.94385397       4.72053691      -0.60625251      -0.34300343       0.18570254
C        4.13669852       4.42413832      -0.02404169      -1.65560172       0.90066450       0.90344857
C       -3.77536082       0.37442210      -0.16443512      -0.18188526      -1.07008949       0.26044387
C       -3.20092701      -0.99091384      -2.10947922       0.33906676      -1.22272844      -0.00914829
C        2.12492526       1.94624522       3.63151022      -0.58102966       1.21256341       0.12174782
C        3.41002492       3.09930970       0.03303697      -0.89875600      -0.09662441       1.37239160
C        1.14454705       2.04514566       1.49993321       2.83353817       0.55633214      -1.21977338
C        1.69421566       0.08400508      -0.20979015      -0.15111087       0.58823786      -0.30532537
C       -0.30583363      -1.05666670      -1.26744989      -0.11217312      -0.21515952       0.27467917
C        0.89960111      -1.22992108      -0.32645646      -0.02765893       0.00619774      -0.10429701
C       -0.71820354       0.67140416       0.51162167      -0.32092482      -0.86770179       0.56689485
C        0.72711480       1.26009055       0.24886727      -0.27802919      -1.34870776       0.30782955
C       -2.69646430      -0.59850130      -0.69856170      -1.05423732       1.11543742      -0.58643552
C       -1.30406725       0.04284015      -0.77068451       0.80527956      -0.29135808      -0.58218803
H       -0.98555981      -0.51110646       2.45554908      -0.16422134      -0.17090087      -0.15234946
H        0.35951845      -3.57714030       1.08821868       0.24893910       0.39632577       0.97707886
H        0.04466123      -2.74658629       2.69382044      -0.37192441      -0.31530114       0.32562847
H        1.64255500      -2.75978491       2.02740761       0.89877618      -0.17816831       0.07692045
H        2.63472510       0.16521981       4.69801828      -0.06815270      -0.10294207      -0.06585565
H        0.87388081       0.48127355       4.60915109       0.60274175       0.20789727       0.07202815
H        1.93316794       1.42580440       5.69377586      -0.05677279       0.03464988       0.08880139
H        3.48716167       5.21095468      -0.48842142       0.55182075      -0.67018568       0.47873632
H        4.40194396       4.74745609       1.00256516       0.01877459      -0.07976109      -0.74230505
H        5.02330998       4.34756829      -0.65190975       0.06618325      -0.27790585       0.10362167
H       -3.82500481       1.23064616      -0.83391884      -0.08350181       0.16916441       0.16670106
H       -4.77075600      -0.14786336      -0.17303059       0.90152279       0.62302483       0.09198906
H       -3.54552864       0.67679614       0.85824969      -0.17819766       0.19281270      -0.12375504
H       -4.27539753      -1.21202621      -2.07377843       0.27470734       0.08131462       0.00672736
H       -3.04539894      -0.22542677      -2.86775569       0.06398528       0.19438994       0.18110610
H       -2.71485280      -1.91775510      -2.48017529      -0.19221493       0.57820341       0.14943398
H        1.40545965       2.81457951       3.66106769       0.49912884      -0.97113995       0.13945923
H        3.08745408       2.42900684       3.78390261       0.31911251      -0.11869255      -0.20750798
H        3.18240360       2.76266362      -0.96847634      -1.05077298      -0.10235861       0.10704353
H        4.02374558       2.32246985       0.50963946      -0.83062821       0.28787477       0.36934184
H        0.23745510       2.32075193       2.02048870      -0.01961692       0.28934646       0.48082460
H        2.13601768       0.32454492      -1.19313184      -0.21238678      -0.01365583       0.35127063
H        2.53325606      -0.11524675       0.46972477      -0.39465244       0.49654393      -0.00006783
H        0.02310691      -0.80246184      -2.24289706       0.44707313       0.22642500      -1.01929837
H       -0.80444026      -2.03034398      -1.36972216       0.03891559       0.32866882       0.16944400
H        1.58926869      -2.05537149      -0.64989260      -0.77791686       0.67770435       0.25770302
H       -1.40937745       1.44155135       0.92595344       0.66089393      -0.42279483      -0.41229568
H        0.63080964       1.99788287      -0.54076639       0.09967709       0.05746857      -0.08286646
H       -2.66586208      -1.49501702      -0.07988057       0.10322855       0.09115300       0.06292045
H       -1.30341577       0.85586274      -1.50359729      -0.30465163      -0.15641593      -0.19147308
