49
Properties=species:S:1:pos:R:3:forces:R:3 id=15533 bond=C-O smiles="[H:20][C:4]1=[C:3]([C:15]2([C:14]([C:19]([C:16]1([C:17]([C:13]2([H:41])[H:42])([H:47])[C:12]([H:40])([O:1][C:10]([H:36])([H:37])[C:6]([H:24])([H:25])[H:26])[O:2][C:11]([H:38])([H:39])[C:7]([H:27])([H:28])[H:29])[H:46])([H:49])[C:18]([H:48])([C:8]([H:30])([H:31])[H:32])[C:9]([H:33])([H:34])[H:35])([H:43])[H:44])[H:45])[C:5]([H:21])([H:22])[H:23]" dataset=PubChem energy=-22224.281294930686 pbc="F F F"
O        2.41037947       1.27557551       2.12716999      -1.55214754       0.89815344      -1.16435151
O        2.12810904       3.25328903       0.88899531     -20.94127278       1.52450005      13.71834272
C        0.64589290      -1.51771516       0.77251305      -1.47493478       0.89035795       1.69669335
C       -0.22659486      -0.55304653       1.21241834       2.09498563      -0.88093196      -0.41022950
C        0.96282005      -2.77086730       1.54240563      -0.79910404       0.09153501      -1.53320170
C        2.23128849       0.90108194       4.48277070      -0.60868912      -0.35684430       0.16388801
C        3.78061078       4.46691035       0.21372452       0.51332593       1.03886996      -0.52542102
C       -3.41927308       0.33165007      -0.40220133      -0.18182826      -1.06872576       0.25775024
C       -2.84483927      -1.03368587      -2.34724543       0.34830066      -1.22035201      -0.01440541
C        2.48101300       1.90347319       3.39374401      -0.59423699       1.27683844       0.30994365
C        3.05393718       3.14208173       0.27080318      18.23672589      -1.74891530     -11.04311781
C        1.50063479       2.00237363       1.26216700       0.87541139      -0.42361286       0.10176284
C        2.05030340       0.04123305      -0.44755636      -0.13874558       0.53780889      -0.38317133
C        0.05025411      -1.09943873      -1.50521610      -0.11049004      -0.22372807       0.27197106
C        1.25568885      -1.27269311      -0.56422267      -0.04069217       0.01791416      -0.09095979
C       -0.36211580       0.62863213       0.27385546      -0.30913863      -0.79899421       0.66840456
C        1.08320254       1.21731852       0.01110106      -0.15717084      -1.27375955       0.22937803
C       -2.34037656      -0.64127333      -0.93632791      -1.06201653       1.11772567      -0.56592681
C       -0.94797951       0.00006812      -1.00845072       0.83871354      -0.27617738      -0.61588338
H       -0.62947207      -0.55387849       2.21778287      -0.17195726      -0.16887436      -0.15661337
H        0.71560619      -3.61991233       0.85045247       0.25052865       0.40365473       0.97717390
H        0.40074897      -2.78935832       2.45605423      -0.37281441      -0.31799776       0.32565963
H        1.99864274      -2.80255694       1.78964140       0.89629162      -0.17781151       0.07098850
H        2.99081284       0.12244778       4.46025207      -0.06882852      -0.08984013      -0.06770824
H        1.22996855       0.43850152       4.37138488       0.60529179       0.21398140       0.07261661
H        2.28925568       1.38303237       5.45600965      -0.05496725       0.03706244       0.06624839
H        3.13107393       5.25372671      -0.25065521       0.40218149      -0.68720210       0.49220949
H        4.04585622       4.79022812       1.24033137      -0.06351350      -0.13762633      -0.62648778
H        4.66722224       4.39034032      -0.41414354       0.15927180       0.09703452       0.18118875
H       -3.46891707       1.18787413      -1.07168505      -0.08531537       0.16803598       0.16611124
H       -4.41466826      -0.19063539      -0.41079680       0.90634824       0.62592568       0.09349668
H       -3.18944090       0.63402411       0.62048348      -0.18139990       0.19276514      -0.11887404
H       -3.91930979      -1.25479824      -2.31154464       0.27933338       0.08290745       0.01040277
H       -2.68931120      -0.26819880      -3.10552190       0.06328222       0.19246154       0.18172047
H       -2.35876506      -1.96052713      -2.71794150      -0.19409554       0.58097539       0.15036532
H        1.76154739       2.77180748       3.42330148       0.47652885      -0.98051261       0.14329177
H        3.44354182       2.38623481       3.54613640       0.33523696      -0.13785471      -0.23476928
H        2.82631586       2.80543565      -0.73071013       0.61964355      -0.35557683      -1.57308887
H        3.66765784       2.36524188       0.74740567       1.55886025      -0.15880787      -0.71441426
H        0.59354284       2.27797990       1.78272249       0.12436096       0.17060560       0.40931330
H        2.49210542       0.28177289      -1.43089805      -0.21534250       0.02650417       0.40726838
H        2.88934380      -0.15801878       0.23195856      -0.39816276       0.51514228      -0.02264994
H        0.37919465      -0.84523387      -2.48066327       0.44690484       0.22624861      -1.00855104
H       -0.44835252      -2.07311601      -1.60748837       0.03592724       0.33406880       0.17003990
H        1.94535643      -2.09814352      -0.88765881      -0.77572329       0.69614031       0.26041605
H       -1.05328971       1.39877932       0.68818723       0.65032125      -0.42144326      -0.40943517
H        0.98689738       1.95511084      -0.77853260       0.03946715       0.02035078      -0.18593180
H       -2.30977434      -1.53778905      -0.31764678       0.10455496       0.09230054       0.06207778
H       -0.94732803       0.81309071      -1.74136350      -0.30622629      -0.16022195      -0.19390589
