49
Properties=species:S:1:pos:R:3:forces:R:3 id=15533 bond=C-O smiles="[H:20][C:4]1=[C:3]([C:15]2([C:14]([C:19]([C:16]1([C:17]([C:13]2([H:41])[H:42])([H:47])[C:12]([H:40])([O:1][C:10]([H:36])([H:37])[C:6]([H:24])([H:25])[H:26])[O:2][C:11]([H:38])([H:39])[C:7]([H:27])([H:28])[H:29])[H:46])([H:49])[C:18]([H:48])([C:8]([H:30])([H:31])[H:32])[C:9]([H:33])([H:34])[H:35])([H:43])[H:44])[H:45])[C:5]([H:21])([H:22])[H:23]" dataset=PubChem energy=-22223.088547765965 pbc="F F F"
O        1.84954127       1.34294146       2.50165176      -1.43326017       0.50051473      -0.75801814
O        1.56727084       3.32065498       1.26347708       1.15093041      -1.35102923      -0.87516739
C        0.08505470      -1.45034921       1.14699482      -1.48672279       0.90333792       1.70580955
C       -0.78743306      -0.48568058       1.58690011       2.09035726      -0.87416760      -0.45029621
C        0.40198185      -2.70350135       1.91688740      -0.79003664       0.08946119      -1.54116386
C        1.67045029       0.96844789       4.85725247      -0.60878500      -0.34124900       0.19105334
C        4.34144898       4.39954440      -0.16075725      -2.07195467       0.89431374       1.19736268
C       -3.98011128       0.39901602      -0.02771956      -0.18231830      -1.07022741       0.26137295
C       -3.40567747      -0.96631992      -1.97276366       0.33646192      -1.22363479      -0.00753158
C        1.92017480       1.97083914       3.76822578      -0.56972119       1.19471880       0.07417813
C        3.61477538       3.07471578      -0.10367859       0.96805117       0.05772886       0.12437825
C        0.93979659       2.06973958       1.63664877       3.15223777       1.02399904      -1.36187051
C        1.48946520       0.10859900      -0.07307459      -0.14483894       0.60755542      -0.28635101
C       -0.51058409      -1.03207278      -1.13073433      -0.11324005      -0.21681278       0.27650146
C        0.69485065      -1.20532716      -0.18974090      -0.02843009       0.01175830      -0.10558051
C       -0.92295400       0.69599808       0.64833723      -0.31812358      -0.88221118       0.55806870
C        0.52236434       1.28468447       0.38558283      -0.32916426      -1.34842618       0.27309493
C       -2.90121476      -0.57390738      -0.56184614      -1.05138098       1.11545561      -0.59095461
C       -1.50881771       0.06743407      -0.63396895       0.80097933      -0.29368035      -0.57433167
H       -1.19031027      -0.48651254       2.59226464      -0.16195391      -0.17168744      -0.15031727
H        0.15476799      -3.55254638       1.22493424       0.24841802       0.39396025       0.97676247
H       -0.16008923      -2.72199237       2.83053600      -0.37206713      -0.31498899       0.32607041
H        1.43780454      -2.73519099       2.16412317       0.89966502      -0.17807306       0.07857301
H        2.42997464       0.18981373       4.83473384      -0.06724952      -0.10604040      -0.06569862
H        0.66913035       0.50586747       4.74586665       0.60175032       0.20538615       0.07274888
H        1.72841748       1.45039832       5.83049142      -0.05689679       0.03467704       0.09472168
H        3.69191213       5.18636076      -0.62513698       0.58342643      -0.66076293       0.44640262
H        4.60669442       4.72286217       0.86584960       0.05455050      -0.07550795      -0.75638412
H        5.22806044       4.32297437      -0.78862531       0.10681874      -0.36434556       0.02818644
H       -4.02975527       1.25524008      -0.69720328      -0.08315266       0.16941296       0.16713563
H       -4.97550646      -0.12326944      -0.03631503       0.89968649       0.62205175       0.09157904
H       -3.75027910       0.70139006       0.99496525      -0.17719902       0.19280904      -0.12534546
H       -4.48014799      -1.18743229      -1.93706287       0.27285833       0.08080333       0.00577671
H       -3.25014940      -0.20083285      -2.73104013       0.06429212       0.19502764       0.18099883
H       -2.91960326      -1.89316118      -2.34345973      -0.19148913       0.57746248       0.14928564
H        1.20070919       2.83917343       3.79778325       0.50255342      -0.96632514       0.13943084
H        2.88270362       2.45360076       3.92061817       0.31434371      -0.11500455      -0.20686910
H        3.38715406       2.73806970      -1.10519190      -1.30060501      -0.10718498       0.14461601
H        4.22849604       2.29787593       0.37292390      -1.06158975       0.23564422       0.62356906
H        0.03270464       2.34534585       2.15720426      -0.12496583       0.27694644       0.51734510
H        1.93126722       0.34913884      -1.05641628      -0.21565988      -0.01529058       0.34437151
H        2.32850560      -0.09065283       0.60644033      -0.39314581       0.50129919       0.00603177
H       -0.18164355      -0.77786792      -2.10618150       0.44752353       0.22722353      -1.02178406
H       -1.00919072      -2.00575006      -1.23300660       0.03796631       0.32615728       0.16860772
H        1.38451823      -2.03077757      -0.51317704      -0.77789696       0.67157976       0.25666365
H       -1.61412791       1.46614527       1.06266900       0.66101468      -0.42305421      -0.41272801
H        0.42605918       2.02247679      -0.40405083       0.12252710       0.06284174      -0.06086410
H       -2.87061254      -1.47042310       0.05683499       0.10281468       0.09071328       0.06323805
H       -1.50816623       0.88045666      -1.36688173      -0.30368203      -0.15579608      -0.19051692
