49
Properties=species:S:1:pos:R:3:forces:R:3 id=15533 bond=C-O smiles="[H:20][C:4]1=[C:3]([C:15]2([C:14]([C:19]([C:16]1([C:17]([C:13]2([H:41])[H:42])([H:47])[C:12]([H:40])([O:1][C:10]([H:36])([H:37])[C:6]([H:24])([H:25])[H:26])[O:2][C:11]([H:38])([H:39])[C:7]([H:27])([H:28])[H:29])[H:46])([H:49])[C:18]([H:48])([C:8]([H:30])([H:31])[H:32])[C:9]([H:33])([H:34])[H:35])([H:43])[H:44])[H:45])[C:5]([H:21])([H:22])[H:23]" dataset=PubChem energy=-22226.428893056378 pbc="F F F"
O        2.35696631       1.28199131       2.16283492      -1.49621259       0.78497885      -1.08193852
O        2.07469588       3.25970483       0.92466024      -8.23809574       0.24322445       5.28186956
C        0.59247974      -1.51129936       0.80817798      -1.47560198       0.89304760       1.69856696
C       -0.28000802      -0.54663073       1.24808327       2.09681267      -0.87712262      -0.41712576
C        0.90940689      -2.76445150       1.57807056      -0.79766043       0.09094495      -1.53506457
C        2.17787533       0.90749774       4.51843563      -0.60679370      -0.35244179       0.16932714
C        3.83402394       4.46049455       0.17805959      -0.06182820       0.87783988      -0.17999854
C       -3.47268624       0.33806587      -0.36653640      -0.18163131      -1.06887668       0.25833602
C       -2.89825243      -1.02727007      -2.31158050       0.34623835      -1.22101544      -0.01341188
C        2.42759984       1.90988899       3.42940894      -0.59574994       1.26281171       0.26448404
C        3.10735034       3.13566593       0.23513825       6.65373440      -0.81465386      -3.47734553
C        1.44722163       2.00878943       1.29783193       1.49016534      -0.06621606      -0.30517347
C        1.99689024       0.04764885      -0.41189143      -0.14493590       0.54112080      -0.36618664
C       -0.00315905      -1.09302293      -1.46955117      -0.11069541      -0.22123108       0.27245495
C        1.20227569      -1.26627731      -0.52855774      -0.03679150       0.01372829      -0.09438728
C       -0.41552896       0.63504793       0.30952039      -0.31244209      -0.81434875       0.63606937
C        1.02978938       1.22373432       0.04676599      -0.18764933      -1.31119237       0.24658995
C       -2.39378972      -0.63485753      -0.90066298      -1.06083530       1.11723303      -0.57081067
C       -1.00139267       0.00648392      -0.97278579       0.83005368      -0.28090923      -0.60744733
H       -0.68288523      -0.54746269       2.25344780      -0.17019098      -0.16915330      -0.15627986
H        0.66219303      -3.61349653       0.88611740       0.25022860       0.40219076       0.97727703
H        0.34733581      -2.78294252       2.49171916      -0.37265748      -0.31730080       0.32544137
H        1.94522958      -2.79614114       1.82530633       0.89665748      -0.17782061       0.07227806
H        2.93739968       0.12886358       4.49591700      -0.06898254      -0.09294308      -0.06714063
H        1.17655539       0.44491732       4.40704981       0.60473698       0.21294809       0.07205934
H        2.23584252       1.38944817       5.49167458      -0.05564281       0.03632519       0.07139024
H        3.18448709       5.24731091      -0.28632014       0.43974567      -0.68138700       0.49685080
H        4.09926938       4.78381232       1.20466644      -0.04626896      -0.11761729      -0.65901104
H        4.72063540       4.38392452      -0.44980847       0.11884417       0.02611741       0.18574395
H       -3.52233023       1.19428993      -1.03602012      -0.08510679       0.16816598       0.16635016
H       -4.46808142      -0.18421959      -0.37513187       0.90553455       0.62535968       0.09321285
H       -3.24285406       0.64043991       0.65614841      -0.18083934       0.19279976      -0.11996732
H       -3.97272295      -1.24838244      -2.27587971       0.27857336       0.08256243       0.00959532
H       -2.74272436      -0.26178300      -3.06985697       0.06334764       0.19285926       0.18157305
H       -2.41217822      -1.95411133      -2.68227657      -0.19380033       0.58039155       0.15009827
H        1.70813423       2.77822328       3.45896641       0.48308839      -0.97951639       0.14171669
H        3.39012866       2.39265061       3.58180133       0.33202450      -0.13276196      -0.22498635
H        2.87972902       2.79901985      -0.76637506       0.20295913      -0.22679808      -0.89656978
H        3.72107100       2.35882608       0.71174074       0.78151171       0.07839186      -0.50272321
H        0.54012968       2.28439570       1.81838742       0.11188454       0.19240858       0.41495391
H        2.43869226       0.28818869      -1.39523312      -0.21334915       0.01493481       0.39394385
H        2.83593064      -0.15160298       0.26762349      -0.39774075       0.50813119      -0.01857411
H        0.32578149      -0.83881807      -2.44499834       0.44682344       0.22587432      -1.01089026
H       -0.50176568      -2.06670021      -1.57182344       0.03707238       0.33323498       0.17004887
H        1.89194327      -2.09172772      -0.85199388      -0.77630023       0.69252409       0.26000433
H       -1.10670287       1.40519512       0.72385216       0.65432921      -0.42137081      -0.41018011
H        0.93348422       1.96152664      -0.74286767       0.04411178       0.02463883      -0.16135095
H       -2.36318750      -1.53137325      -0.28198185       0.10435484       0.09211186       0.06223600
H       -1.00074119       0.81950651      -1.70569857      -0.30616399      -0.15934426      -0.19346517
