49
Properties=species:S:1:pos:R:3:forces:R:3 id=15533 bond=C-O smiles="[H:20][C:4]1=[C:3]([C:15]2([C:14]([C:19]([C:16]1([C:17]([C:13]2([H:41])[H:42])([H:47])[C:12]([H:40])([O:1][C:10]([H:36])([H:37])[C:6]([H:24])([H:25])[H:26])[O:2][C:11]([H:38])([H:39])[C:7]([H:27])([H:28])[H:29])[H:46])([H:49])[C:18]([H:48])([C:8]([H:30])([H:31])[H:32])[C:9]([H:33])([H:34])[H:35])([H:43])[H:44])[H:45])[C:5]([H:21])([H:22])[H:23]" dataset=PubChem energy=-22225.83949678107 pbc="F F F"
O        2.12550927       1.30979314       2.31738296      -1.42669263       0.57257091      -0.89694943
O        1.84323884       3.28750666       1.07920828       2.53074698      -0.80633556      -1.80395712
C        0.36102270      -1.48349753       0.96272602      -1.48015768       0.89972028       1.70440900
C       -0.51146506      -0.51882890       1.40263131       2.09516397      -0.87168187      -0.43826804
C        0.67794985      -2.73664967       1.73261860      -0.79305269       0.08997138      -1.54023627
C        1.94641829       0.93529957       4.67298367      -0.60560338      -0.34415355       0.18342954
C        4.06548098       4.43269272       0.02351155      -1.42156458       0.88205487       0.73805501
C       -3.70414328       0.36586770      -0.21198836      -0.18198366      -1.07005876       0.26029727
C       -3.12970947      -0.99946824      -2.15703246       0.34020477      -1.22248294      -0.00997144
C        2.19614280       1.93769082       3.58395698      -0.58542188       1.22102792       0.14556270
C        3.33880738       3.10786410       0.08059021      -1.42090794      -0.15227711       1.72512887
C        1.21576459       2.03659126       1.45237997       2.66167659       0.41511717      -1.11110575
C        1.76543320       0.07545068      -0.25734339      -0.15230549       0.57713913      -0.31590722
C       -0.23461609      -1.06522110      -1.31500313      -0.11175061      -0.21537162       0.27423362
C        0.97081865      -1.23847548      -0.37400970      -0.02906507       0.00625742      -0.10242128
C       -0.64698600       0.66284976       0.46406843      -0.32108293      -0.85913263       0.57501213
C        0.79833234       1.25153615       0.20131403      -0.26081479      -1.35061277       0.30308591
C       -2.62524676      -0.60705570      -0.74611494      -1.05555759       1.11565241      -0.58413409
C       -1.23284971       0.03428575      -0.81823775       0.80882825      -0.28979380      -0.58687744
H       -0.91434227      -0.51966086       2.40799584      -0.16540007      -0.17052031      -0.15328701
H        0.43073599      -3.58569470       1.04066544       0.24917585       0.39737172       0.97710747
H        0.11587877      -2.75514069       2.64626720      -0.37199742      -0.31566400       0.32553100
H        1.71377254      -2.76833931       1.97985437       0.89840155      -0.17811612       0.07609930
H        2.70594264       0.15666541       4.65046504      -0.06841333      -0.10134248      -0.06598903
H        0.94509835       0.47271915       4.56159785       0.60308748       0.20889293       0.07188374
H        2.00438548       1.41725000       5.64622262      -0.05667102       0.03476617       0.08590565
H        3.41594413       5.21950908      -0.44086818       0.53482042      -0.67179772       0.48810448
H        4.33072642       4.75601049       1.05011840       0.00536065      -0.08231594      -0.73182140
H        4.95209244       4.35612269      -0.60435651       0.05945110      -0.22486454       0.13225229
H       -3.75378727       1.22209176      -0.88147208      -0.08394377       0.16900302       0.16663320
H       -4.69953846      -0.15641776      -0.22058383       0.90231156       0.62338489       0.09224312
H       -3.47431110       0.66824174       0.81069645      -0.17872513       0.19283642      -0.12302525
H       -4.20417999      -1.22058061      -2.12133167       0.27550496       0.08153612       0.00723944
H       -2.97418140      -0.23398117      -2.91530893       0.06385595       0.19408319       0.18114800
H       -2.64363526      -1.92630950      -2.52772853      -0.19254312       0.57855612       0.14952870
H        1.47667719       2.80602511       3.61351445       0.49686508      -0.97319567       0.14007196
H        3.15867162       2.42045244       3.73634937       0.32146478      -0.12077271      -0.20862827
H        3.11118606       2.77121802      -0.92092310      -0.88676044      -0.10193416       0.04829323
H        3.95252804       2.33102425       0.55719270      -0.66275898       0.29884423       0.22889039
H        0.30867264       2.31219753       1.97293546       0.01761241       0.27901964       0.46477843
H        2.20723522       0.31599052      -1.24068508      -0.21176838      -0.01111288       0.35711963
H        2.60447360      -0.12380115       0.42217153      -0.39512598       0.49594068      -0.00341136
H        0.09432445      -0.81101624      -2.29045030       0.44701052       0.22602060      -1.01791146
H       -0.73322272      -2.03889838      -1.41727540       0.03888378       0.32962229       0.16975949
H        1.66048623      -2.06392589      -0.69744584      -0.77772849       0.68052933       0.25822247
H       -1.33815991       1.43299695       0.87840020       0.66048919      -0.42235701      -0.41203991
H        0.70202718       1.98932847      -0.58831963       0.08782804       0.05136073      -0.09535009
H       -2.59464454      -1.50357142      -0.12743381       0.10345628       0.09133201       0.06273984
H       -1.23219823       0.84730834      -1.55115053      -0.30490315      -0.15693103      -0.19200743
