49
Properties=species:S:1:pos:R:3:forces:R:3 id=15533 bond=C-O smiles="[H:20][C:4]1=[C:3]([C:15]2([C:14]([C:19]([C:16]1([C:17]([C:13]2([H:41])[H:42])([H:47])[C:12]([H:40])([O:1][C:10]([H:36])([H:37])[C:6]([H:24])([H:25])[H:26])[O:2][C:11]([H:38])([H:39])[C:7]([H:27])([H:28])[H:29])[H:46])([H:49])[C:18]([H:48])([C:8]([H:30])([H:31])[H:32])[C:9]([H:33])([H:34])[H:35])([H:43])[H:44])[H:45])[C:5]([H:21])([H:22])[H:23]" dataset=PubChem energy=-22226.230896459296 pbc="F F F"
O        2.16111805       1.30551593       2.29360634      -1.42910235       0.59052139      -0.91799500
O        1.87884762       3.28322945       1.05543166       2.50112186      -0.75926223      -1.79286503
C        0.39663148      -1.48777474       0.93894940      -1.47949282       0.89899901       1.70384068
C       -0.47585628      -0.52310611       1.37885469       2.09569744      -0.87168668      -0.43582287
C        0.71355863      -2.74092688       1.70884198      -0.79356450       0.08989323      -1.53973066
C        1.98202707       0.93102236       4.64920705      -0.60544393      -0.34485623       0.18211781
C        4.02987220       4.43696993       0.04728817      -1.28250298       0.86606595       0.63918151
C       -3.66853450       0.36159049      -0.23576498      -0.18210048      -1.06982529       0.26017820
C       -3.09410069      -1.00374545      -2.18080908       0.34086212      -1.22236729      -0.01051415
C        2.23175158       1.93341361       3.56018036      -0.58752390       1.22601905       0.15884954
C        3.30319860       3.11214131       0.10436683      -1.64484941      -0.17056095       1.88049021
C        1.25137337       2.03231405       1.42860335       2.55973498       0.35684647      -1.04243884
C        1.80104198       0.07117347      -0.28112001      -0.15239731       0.57082367      -0.32197338
C       -0.19900731      -1.06949831      -1.33877975      -0.11156557      -0.21591245       0.27375927
C        1.00642743      -1.24275269      -0.39778632      -0.02995940       0.00676367      -0.10137504
C       -0.61137722       0.65857255       0.44029181      -0.32051836      -0.85441479       0.58012368
C        0.83394112       1.24725894       0.17753741      -0.25173323      -1.34917673       0.29829246
C       -2.58963798      -0.61133291      -0.76989156      -1.05618082       1.11565113      -0.58261840
C       -1.19724093       0.03000854      -0.84201437       0.81104165      -0.28876428      -0.58938155
H       -0.87873349      -0.52393807       2.38421922      -0.16599587      -0.17037119      -0.15386288
H        0.46634477      -3.58997191       1.01688882       0.24932140       0.39799115       0.97714350
H        0.15148755      -2.75941790       2.62249058      -0.37208109      -0.31586378       0.32545399
H        1.74938132      -2.77261652       1.95607775       0.89813781      -0.17807602       0.07563380
H        2.74155142       0.15238820       4.62668842      -0.06856440      -0.10038085      -0.06606670
H        0.98070713       0.46844194       4.53782123       0.60331434       0.20945484       0.07182975
H        2.03999426       1.41297279       5.62244600      -0.05660491       0.03486203       0.08420822
H        3.38033535       5.22378629      -0.41709156       0.52466293      -0.67308323       0.49209399
H        4.29511764       4.76028770       1.07389502      -0.00188544      -0.08489043      -0.72536249
H        4.91648366       4.36039990      -0.58057989       0.05861400      -0.19383284       0.14599206
H       -3.71817849       1.21781455      -0.90524870      -0.08420437       0.16883614       0.16668708
H       -4.66392968      -0.16069497      -0.24436045       0.90279086       0.62362746       0.09238729
H       -3.43870232       0.66396453       0.78691983      -0.17904684       0.19282481      -0.12271132
H       -4.16857121      -1.22485782      -2.14510829       0.27597381       0.08165910       0.00752047
H       -2.93857262      -0.23825838      -2.93908555       0.06376462       0.19386535       0.18120787
H       -2.60802648      -1.93058671      -2.55150515      -0.19274418       0.57879236       0.14959400
H        1.51228597       2.80174790       3.58973783       0.49554430      -0.97427733       0.14032058
H        3.19428040       2.41617523       3.71257275       0.32276008      -0.12200822      -0.20962248
H        3.07557728       2.77549523      -0.89714648      -0.78085726      -0.10249309       0.00286579
H        3.91691926       2.33530146       0.58096932      -0.55241623       0.30251033       0.14296495
H        0.34428142       2.30792032       1.94915884       0.03559675       0.27045817       0.45622038
H        2.24284400       0.31171331      -1.26446170      -0.21163678      -0.00919020       0.36103914
H        2.64008238      -0.12807836       0.39839491      -0.39544548       0.49636717      -0.00542145
H        0.12993323      -0.81529345      -2.31422692       0.44691649       0.22573298      -1.01699070
H       -0.69761394      -2.04317559      -1.44105202       0.03885726       0.33019469       0.16988799
H        1.69609501      -2.06820310      -0.72122246      -0.77764568       0.68206027       0.25854992
H       -1.30255113       1.42871974       0.85462358       0.66015818      -0.42220818      -0.41188620
H        0.73763596       1.98505126      -0.61209625       0.08119168       0.04756352      -0.10248286
H       -2.55903576      -1.50784863      -0.15121043       0.10356036       0.09147934       0.06263087
H       -1.19658945       0.84303113      -1.57492715      -0.30501987      -0.15729043      -0.19213883
