49
Properties=species:S:1:pos:R:3:forces:R:3 id=15533 bond=C-O smiles="[H:20][C:4]1=[C:3]([C:15]2([C:14]([C:19]([C:16]1([C:17]([C:13]2([H:41])[H:42])([H:47])[C:12]([H:40])([O:1][C:10]([H:36])([H:37])[C:6]([H:24])([H:25])[H:26])[O:2][C:11]([H:38])([H:39])[C:7]([H:27])([H:28])[H:29])[H:46])([H:49])[C:18]([H:48])([C:8]([H:30])([H:31])[H:32])[C:9]([H:33])([H:34])[H:35])([H:43])[H:44])[H:45])[C:5]([H:21])([H:22])[H:23]" dataset=PubChem energy=-22216.32055715863 pbc="F F F"
O        2.48159702       1.26702110       2.07961675      -1.69390121       1.12882885      -1.32319654
O        2.19932659       3.24473462       0.84144207     -60.31652910       5.85555073      39.92457612
C        0.71711045      -1.52626957       0.72495981      -1.47525120       0.88642466       1.69444855
C       -0.15537731      -0.56160094       1.16486510       2.08817368      -0.88900271      -0.39890944
C        1.03403760      -2.77942171       1.49485239      -0.80105453       0.09236033      -1.53003188
C        2.30250604       0.89252753       4.43521746      -0.61425535      -0.36537074       0.15468355
C        3.70939323       4.47546476       0.26127776       1.60712222       1.59681708      -1.11676132
C       -3.34805553       0.32309566      -0.44975457      -0.18270424      -1.06810501       0.25677555
C       -2.77362172      -1.04224028      -2.39479867       0.35154720      -1.21919546      -0.01638668
C        2.55223055       1.89491878       3.34619077      -0.58599490       1.29878052       0.39232118
C        2.98271963       3.15063614       0.31835642      55.71089641      -5.16033964     -35.66234503
C        1.57185234       1.99381922       1.21461376      -0.42786548      -1.42831648       0.93569012
C        2.12152095       0.03267864      -0.49510960      -0.12536103       0.54100387      -0.40996127
C        0.12147166      -1.10799314      -1.55276934      -0.10996428      -0.22816594       0.27006802
C        1.32690640      -1.28124752      -0.61177591      -0.04864683       0.02658120      -0.08462866
C       -0.29089825       0.62007772       0.22630222      -0.30488388      -0.77964289       0.73593150
C        1.15442009       1.20876411      -0.03645218      -0.10394130      -1.18285480       0.20467171
C       -2.26915901      -0.64982774      -0.98388115      -1.06325318       1.11774327      -0.55709114
C       -0.87676196      -0.00848629      -1.05600396       0.85474679      -0.26615064      -0.63078993
H       -0.55825452      -0.56243290       2.17022963      -0.17490471      -0.16936646      -0.15661274
H        0.78682374      -3.62846674       0.80289923       0.25102425       0.40594879       0.97708902
H        0.47196652      -2.79791273       2.40850099      -0.37319580      -0.31913242       0.32605022
H        2.06986029      -2.81111135       1.74208816       0.89574156      -0.17805418       0.06895200
H        3.06203039       0.11389337       4.41269883      -0.06820005      -0.08443536      -0.06868801
H        1.30118610       0.42994711       4.32383164       0.60648151       0.21537236       0.07427124
H        2.36047323       1.37447796       5.40845641      -0.05334892       0.03837650       0.05749770
H        3.05985638       5.26228112      -0.20310197       0.33406532      -0.70202345       0.48213885
H        3.97463867       4.79878253       1.28788461      -0.09640793      -0.17971102      -0.56674946
H        4.59600469       4.39889473      -0.36659030       0.22866179       0.19755471       0.16601100
H       -3.39769952       1.17931972      -1.11923829      -0.08568409       0.16768597       0.16591178
H       -4.34345071      -0.19918980      -0.45835004       0.90760564       0.62676405       0.09396399
H       -3.11822335       0.62546970       0.57293024      -0.18226212       0.19260531      -0.11730361
H       -3.84809224      -1.26335265      -2.35909788       0.28054288       0.08344558       0.01172023
H       -2.61809365      -0.27675321      -3.15307514       0.06319917       0.19161436       0.18208037
H       -2.28754751      -1.96908154      -2.76549474      -0.19456778       0.58201440       0.15092119
H        1.83276494       2.76325307       3.37574824       0.46342840      -0.98146198       0.14746188
H        3.51475937       2.37768040       3.49858316       0.34003018      -0.14734383      -0.25579915
H        2.75509831       2.81399006      -0.68315689       1.26073357      -0.66802280      -3.09060419
H        3.59644029       2.37379629       0.79495891       3.13408659      -0.73763799      -0.95855354
H        0.66476039       2.26942549       1.73516925       0.13115768       0.14538564       0.41177017
H        2.56332297       0.27321848      -1.47845129      -0.21928645       0.04672733       0.42826136
H        2.96056135      -0.16657319       0.18440532      -0.39814084       0.52697410      -0.02869615
H        0.45041220      -0.85378828      -2.52821651       0.44689806       0.22670610      -1.00440173
H       -0.37713497      -2.08167042      -1.65504161       0.03407622       0.33533960       0.17008577
H        2.01657398      -2.10669793      -0.93521205      -0.77464708       0.70177800       0.26111966
H       -0.98207216       1.39022491       0.64063399       0.64258358      -0.42222652      -0.40827037
H        1.05811493       1.94655643      -0.82608584       0.04604891       0.01834303      -0.22524820
H       -2.23855679      -1.54634346      -0.36520002       0.10454445       0.09276707       0.06173889
H       -0.87611048       0.80453630      -1.78891674      -0.30577181      -0.16194321      -0.19406895
