34
Properties=species:S:1:pos:R:3:forces:R:3 id=29751 bond=O-P smiles="[H:31][C:15]1([C:16]([C:17]([C:14]([O:5][C:13]1([H:29])[H:30])([S:8][P:18](=[S:1])([O:6][C:11]([H:25])([H:26])[C:9]([H:19])([H:20])[H:21])[O:7][C:12]([H:27])([H:28])[C:10]([H:22])([H:23])[H:24])[Cl:2])([Cl:3])[Cl:4])([H:33])[H:34])[H:32]" dataset=PubChem energy=-84284.01316621853 pbc="F F F"
S        1.35036304      -2.40318390      -2.48230474       0.24475892       1.26648876       0.74081583
Cl       2.96872475       1.63421587       0.89477922      -0.91368644       0.06657217       0.45362123
Cl      -0.07483188       3.92408732      -1.46450369      -0.44100523      -1.32913567       0.25183257
Cl       2.67199686       4.10278825      -0.91872875      -0.28341390      -0.62146770      -0.00691251
O        0.24928870       1.38985137       0.82981722       0.59447086      -1.64445986      -1.14002282
O        2.39554157      -1.44877692       0.13292117      -2.69865394       0.48462752      -0.29652988
O       -0.30773536      -1.38504027      -0.33124414       1.05511468       0.63662682      -0.23846891
S        1.53470316       0.86236913      -1.52793853      -0.98750059      -0.38558433       0.74317655
C        3.05779388      -2.40908213       2.17531187       0.01404503      -0.07979736       0.28291791
C       -2.51491973      -0.42084890      -0.63132229      -0.37997701      -0.10551297       1.46028964
C        1.86760499      -2.11011239       1.31892926      -1.10850747       0.28093054       0.05251783
C       -1.48259542      -1.34901070      -1.26119378       0.19147529       0.56336999      -0.05529895
C        0.08451631       1.90041057       2.12464030      -0.17297515       2.95207595      -0.11976646
C        1.31963101       1.79937247       0.07416896       0.20747679       0.65957495      -1.08536992
C       -0.17309949       3.45342115       1.92244442      -1.14323117      -0.99068672       1.58321274
C        0.87210693       4.11895470       1.02995063      -0.61977662      -0.35274548       1.08095675
C        1.11661532       3.33415154      -0.26962774       1.98510330       1.89035978       0.59152186
P        1.20768508      -1.15967937      -0.94745450      -0.33495503      -1.83199973      -1.96478481
H        3.37787130      -3.45003219       2.02200968       0.04967475       0.51572168       0.40751086
H        3.86898353      -1.71957942       1.95456214       0.02379966      -0.12126709      -0.28470591
H        2.78229144      -2.15987893       3.18922360       0.10352314      -0.61317846       0.52570268
H       -2.23343060       0.64366168      -0.64349213      -0.06459511      -0.49112732      -0.21798226
H       -2.60974047      -0.70730638       0.45976048       0.17742534       0.29487764      -1.12329212
H       -3.54246304      -0.56185185      -1.02876833       0.82507860       0.11747092      -0.15550261
H        1.30359277      -3.01210137       1.01634626       0.49206390       0.30063062       0.08423459
H        1.08003213      -1.44889637       1.78853829       1.16472849      -0.49127472      -0.30482313
H       -1.94276593      -2.34471535      -1.35903421       0.80722325       0.18886232       0.20990078
H       -1.12499759      -1.02408587      -2.25877741      -0.31483954      -0.20054415       0.68086902
H       -0.85433838       1.55629018       2.50697870      -0.21883628      -0.82412380       0.09026452
H        0.89629506       1.64023844       2.78718479       0.34025565      -0.03022100       0.00118613
H       -1.22546360       3.41099290       1.48140450       1.44200714       0.74047371       0.44367317
H       -0.20173559       3.95520738       2.96419604      -0.11105182      -0.65814737      -1.79232270
H        1.75988164       4.27323273       1.65350683       0.13805410      -0.48113087      -0.60001972
H        0.53791268       5.11042574       0.78027085      -0.07463477       0.29404523      -0.29178709
