34
Properties=species:S:1:pos:R:3:forces:R:3 id=29751 bond=O-P smiles="[H:31][C:15]1([C:16]([C:17]([C:14]([O:5][C:13]1([H:29])[H:30])([S:8][P:18](=[S:1])([O:6][C:11]([H:25])([H:26])[C:9]([H:19])([H:20])[H:21])[O:7][C:12]([H:27])([H:28])[C:10]([H:22])([H:23])[H:24])[Cl:2])([Cl:3])[Cl:4])([H:33])[H:34])[H:32]" dataset=PubChem energy=-84259.29800672457 pbc="F F F"
S        1.04968438      -2.44789837      -2.36004078       2.15907870       0.06048537      -0.87430965
Cl       2.66804609       1.58950140       1.01704318      -0.95992216       0.08155486       0.47641558
Cl      -0.37551054       3.87937285      -1.34223973      -0.46736233      -1.32130257       0.24508106
Cl       2.37131820       4.05807378      -0.79646479      -0.32014995      -0.61275606       0.01723073
O       -0.05138996       1.34513690       0.95208118       0.40800094      -1.75074508      -0.94004299
O        2.09486291      -1.49349139       0.25518513      -1.56966867       0.36997634      -0.17744277
O       -0.00705670      -1.34032580      -0.45350810    -139.15607282     -18.90314964      55.21023946
S        1.23402450       0.81765466      -1.40567457      -0.31635245       0.33614249       0.34497594
C        2.75711522      -2.45379660       2.29757583      -0.02612629      -0.08218834       0.37005976
C       -2.21424107      -0.37613443      -0.75358625      -0.39485870       0.01191760       1.75537884
C        1.56692633      -2.15482686       1.44119322      -0.85131896       0.60233044      -0.59160250
C       -1.18191676      -1.30429623      -1.38345774      -4.90930215       0.65697018      -0.19267306
C       -0.21616235       1.85569610       2.24690426      -0.17188972       2.95236829      -0.09789604
C        1.01895235       1.75465800       0.19643292       0.45121304       0.61692785      -1.48090071
C       -0.47377815       3.40870668       2.04470838      -1.13253361      -0.99208805       1.58125077
C        0.57142827       4.07424023       1.15221459      -0.62169444      -0.32376875       1.05064682
C        0.81593666       3.28943707      -0.14736378       2.04361506       1.86161823       0.66543981
P        0.90700642      -1.20439384      -0.82519054     140.70596110      17.89490908     -55.74732558
H        3.07719264      -3.49474666       2.14427364       0.03954674       0.51666060       0.39936547
H        3.56830487      -1.76429389       2.07682610      -0.01449579      -0.13385262      -0.31031290
H        2.48161278      -2.20459340       3.31148756       0.10820652      -0.62657928       0.55200955
H       -1.93275194       0.68837615      -0.76575609      -0.08479201      -0.53840106      -0.22731711
H       -2.30906181      -0.66259191       0.33749652       0.08722623       0.34453406      -1.12012781
H       -3.24178438      -0.51713738      -1.15103229       0.91240644       0.03941381      -0.20599657
H        1.00291411      -3.05681584       1.13861022       0.48455613       0.18167932       0.10645563
H        0.77935347      -1.49361084       1.91080225       1.10385436      -0.42646974      -0.18582181
H       -1.64208727      -2.30000088      -1.48129817       1.05907339       0.31979855       0.33816964
H       -0.82431893      -0.97937140      -2.38104137      -0.04631250      -0.18748649       1.16340272
H       -1.15501704       1.51157571       2.62924266      -0.23353815      -0.81065132       0.11255426
H        0.59561640       1.59552397       2.90944875       0.33965972      -0.03022253      -0.00432158
H       -1.52614226       3.36627843       1.60366846       1.43458204       0.74346332       0.44314144
H       -0.50241425       3.91049291       3.08646000      -0.11441124      -0.66225108      -1.79006148
H        1.45920298       4.22851826       1.77577079       0.13518002      -0.48324562      -0.60136155
H        0.23723402       5.06571127       0.90253481      -0.07938622       0.29938329      -0.27673541
