42
Properties=species:S:1:pos:R:3:forces:R:3 id=25628 bond=C-N smiles="[H:27][c:8]1[c:7]([c:10]([c:13]2[c:14]([c:11]1[H:29])[c:12]([c:9]3[c:6]([n:2]2)[C:19]([C:21]([C:22]([C:20]3([H:37])[H:38])([H:41])[H:42])([H:39])[H:40])([H:35])[H:36])[N:16]([H:31])[N:15]([H:30])[C:3](=[S:1])[N:17]([H:32])[C:18]([H:33])([H:34])[C:5](=[C:4]([H:23])[H:24])[H:25])[H:28])[H:26]" dataset=PubChem energy=-34763.0505882614 pbc="F F F"
S        2.32509694      -3.57008324       3.15943593       0.88956163       1.27161265      -1.00128048
N       -0.87456860       1.13251784      -2.23763447       0.80827234       0.90098428       1.61978214
C        2.34763775      -1.98729215       2.60536379      -3.03796433       1.35813948       3.46668766
C       -0.66364174       0.26838502       3.43234954       3.41732705      -0.18545388       2.64488002
C        0.32588340       0.09751721       4.40262732      -5.56684635       0.09181331      -0.45083133
C       -0.08418717       1.91537394      -1.46721535       0.07864103      -1.15481735      -1.97142272
C       -2.14700522      -2.26977596      -2.39113169       2.26452877       1.49657686       1.46505846
C       -1.34289959      -2.87918458      -1.33226340       0.41237439       3.14341869      -0.87700426
C        0.94380242       1.36429765      -0.66214662      -0.57991749       0.33724506       0.30761188
C       -1.85649314      -0.92400775      -2.72865348      -1.09991228      -2.76022062       1.19846392
C       -0.39808019      -2.19525848      -0.57693558      -1.32976050       0.54941755      -0.86388965
C        0.77581150       0.04383903      -0.19849603      -0.97856517      -0.36090790      -2.40485352
C       -0.85707476      -0.20456830      -1.99504833      -0.65111431       0.01178998      -0.12008038
C       -0.11840513      -0.83361957      -0.93292146       0.02330106       0.67634240       0.47603558
N        1.70821152      -1.67918692       1.38067473       1.58053168       0.10419461       0.87406144
N        1.53966651      -0.34446982       0.82905883       1.43155736      -1.49725421       1.59108775
N        2.52833599      -0.86977861       3.92317567       0.52354306      -0.68702117      -1.89871072
C        1.75303430       0.36358710       4.25660309      -0.42361583      -0.70080641      -2.94541003
C       -0.19469490       3.41102948      -1.75252681       3.16253361      -0.08383937       0.41274554
C        1.98770175       2.31207874      -0.06920146      -0.14324176      -1.20049185      -1.37256867
C        0.81121132       4.31544771      -0.89344602      -1.36958973      -1.36155307      -0.90214379
C        2.12195668       3.59827961      -0.82175761       0.87733686       1.88271573       1.87883375
H       -0.35214161       0.66067491       2.49874029       0.00790351       0.11412596      -0.97686400
H       -1.70121413       0.10487290       3.60596141      -0.41381229      -0.15782986       0.21496376
H       -0.12289356      -0.13426588       5.41921648       1.06086837      -0.14548675      -1.16960816
H       -3.02312770      -2.80505905      -2.72093802       0.12323413       0.06471305      -0.42764124
H       -1.50181951      -3.82060251      -0.99292379      -0.98279702      -2.79096945       0.58510153
H       -2.61266770      -0.41890583      -3.32815271       0.76295412       0.25281587      -0.08401469
H       -0.12099101      -2.61895142       0.39921211       0.08650910       0.16193020      -0.92584143
H        1.74058196      -2.53365240       0.72834468       0.08052686       2.28633899       1.09587315
H        1.98153326       0.41965574       1.30384059       0.55298684      -0.57941593       0.46831876
H        2.78560728      -1.29200087       4.82854209      -0.15832413      -0.90959439      -1.62434231
H        2.03541584       0.88526280       5.14086947       1.22861979      -0.12322870       0.66006984
H        1.84197242       1.06538188       3.42187056       0.25772103       0.11630716       0.12542395
H       -1.16252997       3.75730600      -1.59094398      -1.73689958       0.34566120       0.01723890
H        0.10364321       3.55643549      -2.80506735      -0.45370340      -0.08204093       0.34862382
H        1.57580576       2.42688217       0.89005906       0.30259775       0.90461821       1.88074121
H        3.00406012       1.92893841      -0.06553262      -0.13882003      -0.81703925       0.44905469
H        0.39377005       4.46848096       0.09540708      -0.02615560       0.26884735       0.13058517
H        0.90594268       5.22931232      -1.44262200      -0.03204143       0.73642736       0.07186833
H        2.44015298       3.44632186      -1.80936294       0.60837738      -0.60071484      -1.42259836
H        2.96271882       4.23477234      -0.34635769      -1.41885939      -0.87412549      -0.54771813
