35
Properties=species:S:1:pos:R:3:forces:R:3 id=38251 bond=N-P smiles="[H:16][C:5](=[S:1])[N:6]([C:12]([H:31])([H:32])[C:8]([H:20])([H:21])[H:22])[P:15](=[S:2])([O:3][C:11]([H:29])([H:30])[C:7]([H:17])([H:18])[H:19])[S:4][C:14]([H:35])([C:10]([H:26])([H:27])[H:28])[C:13]([H:33])([H:34])[C:9]([H:23])([H:24])[H:25]" dataset=PubChem energy=-55004.65862137989 pbc="F F F"
S       -2.54296275      -0.18648155      -4.27584159       0.68786054      -0.01748332       0.63627942
S        2.51259256       1.38884902      -0.89089688      -1.46470873      -0.15088184      -0.02743641
O       -0.00253158       2.36748558       0.35549865       0.15811397      -1.53685977      -0.67327881
S        1.03993214      -0.12313348       1.62699709      -0.52353168      -0.69857635      -0.42203212
C       -1.47162183       0.28619449      -3.07810676       1.06433446      -2.56467224       1.72418411
N       -0.87565228      -0.52986129      -2.10272514      -1.27800239       1.81277158      -1.30781593
C       -1.78332662       3.63533383       1.38426379      -0.26354633      -1.20254671       0.24391274
C        0.44591117      -2.24732091      -3.28983962      -0.17802786      -0.55243700       0.23223403
C        4.13727475       0.70481100       4.26349870       0.01674838       1.09641501       0.04075433
C        1.42756493       1.73020512       3.56141988      -0.89562215       0.86085897       0.43593173
C       -1.29251241       2.23301941       0.97423791      -1.74263642       0.27325943       0.02463859
C       -0.71214893      -1.99755551      -2.30471289       0.33854087       0.65971768      -0.39464506
C        3.24053145       0.01139533       3.22088019      -0.15339843       0.10386713       0.79725308
C        2.21903897       0.94684578       2.55823461       0.74725664       0.55091208      -0.30886261
P        0.75961214       0.99679364      -0.11348065       1.62317462       0.91900390      -0.57466721
H       -1.19367858       1.31606756      -3.02165496       0.07870906       0.60360576       0.42352139
H       -1.80372190       4.29448896       0.54519520       0.23244256       0.48639919      -0.49259207
H       -2.81097077       3.59337169       1.76885054       0.29100386      -0.24761020      -0.08340518
H       -1.16033553       4.01252705       2.18516818       0.18288725       0.24420319      -0.03821389
H        0.58651135      -3.31044866      -3.50893247      -0.21667924       0.02971929       0.17174849
H        1.38734749      -1.90489651      -2.86982571      -0.00546766       0.25173427      -0.02513628
H        0.25413591      -1.76769031      -4.24467313      -0.01905370       0.22177504       0.07387855
H        4.52835894       1.70950812       3.88559810      -0.45625399      -1.37815017       0.49966046
H        3.56988288       0.88098129       5.19054309       0.23715334       0.13769982      -0.36194934
H        4.98720122       0.07486951       4.55798379      -0.22782036       0.17644506      -0.35055244
H        0.75067771       2.45898741       3.05626456       0.50845403      -0.57554111       0.41423679
H        2.09379400       2.29913980       4.23339311      -0.36134106      -0.27722807      -0.30828696
H        0.80391254       1.03904898       4.15672008       0.30466134       0.44157355      -0.10149998
H       -1.98721360       1.71395224       0.28367809       0.36812921       0.61806892       0.04469094
H       -1.29108237       1.57974851       1.84374515       0.61990033       0.03025575       0.14601614
H       -0.53859260      -2.48184229      -1.35005378       0.21378238       0.19727874       0.20281702
H       -1.64128098      -2.44629218      -2.67737996       0.07983085       0.45173966      -0.05939866
H        2.74044896      -0.83970994       3.71377603       0.03498672       0.32316679      -0.24947976
H        3.86648298      -0.38543552       2.46424226       0.48281636      -0.52491759      -0.83546657
H        2.74176121       1.63588852       1.84961085      -0.47866712      -0.75985337       0.50607040
