15
Properties=species:S:1:pos:R:3:forces:R:3 id=13523 bond=C-S smiles="[H:6][C:2]([H:7])([H:8])[C:4]([H:12])([H:13])[S:1][C:5]([H:14])([H:15])[C:3]([H:9])([H:10])[H:11]" dataset="DES370K Monomers" energy=-15150.705185892002 pbc="F F F"
S       -0.40994209      -0.19677918      -0.93026578      -1.02209362       1.87597194       0.94531669
C        1.10103524      -1.78105592       0.54570562       1.45439537       1.99371759       2.22417086
C        0.04928353       2.51443647      -0.93662310      -0.41641867       1.85338891      -0.64679712
C        0.48772321      -0.35928439       0.62194330      -0.97134855      -1.96223470       1.02627547
C       -1.04640532       1.56957721      -0.53009570      -0.10208795      -1.11374484      -0.23713210
H        0.32764846      -2.49459576       0.42417067      -0.38090513      -0.78170018      -0.24767800
H        1.66893673      -1.92650079       1.49280125      -0.72503068      -0.31240476      -0.32397117
H        1.89399755      -1.80199432      -0.15499001       0.31790617      -0.36665584      -1.29411867
H       -0.26073560       3.57834839      -0.70663870       0.62354776      -1.02946893       0.35946524
H        1.03208744       2.23705339      -0.50545174      -0.72336849       0.39014265      -0.21995661
H        0.11857274       2.56918406      -2.01599330       0.37957532      -0.38046820      -0.26560550
H        1.16830802       0.44421864       0.82695383       0.65935495       0.19481452      -0.36838260
H       -0.15977755      -0.40241255       1.54577119       0.05179789       0.30346330      -1.22813898
H       -1.08814860       1.66180395       0.56448948      -0.64688669      -0.52443610      -0.36709896
H       -2.06373870       1.73344778      -1.01250715       1.50347998      -0.13870792       0.64483642
