44
Properties=species:S:1:pos:R:3:forces:R:3 id=7031 bond=C-O smiles="[H:32][c:11]1[c:17]([c:20]2[c:19]([c:16]([c:10]1[H:31])[O:3][C:22]([H:34])([H:35])[H:36])[n:2][c:6]([c:13]3[c:18]2[N:21]([C:4](=[C:5]3[C:25]([H:43])([H:44])[C:24]([H:40])([H:41])[H:42])[H:26])[c:14]4[c:8]([c:7]([c:12]([c:9]([c:15]4[C:23]([H:37])([H:38])[H:39])[H:30])[F:1])[H:28])[H:29])[H:27])[H:33]" dataset=PubChem energy=-29848.788954058527 pbc="F F F"
F        2.34377108       0.21359152      -5.65813579      -0.45727740       0.13190170       0.73110513
N       -0.28590323      -0.31766274       3.07600770      -1.09661472       1.71971163       0.29421054
O        0.37885320      -3.21850877       4.10496348       0.72329577       2.10370580      -3.88135314
C       -0.05554869       2.77174888      -0.31519415      -0.50459716      -0.21738299       1.69110600
C       -0.49534370       2.78639731       0.98905156       0.75478914       0.38088308      -0.33190737
C       -0.60411455       0.95881794       2.76021896       0.82465054      -3.12885548       1.24254531
C        0.59583660       0.16025669      -4.00629749      -0.08050703      -0.18744681      -1.52538675
C        0.11224188       0.48770382      -2.75978650       1.42278088       0.77424308       0.69322362
C        2.76920209       1.08908061      -3.48853792      -0.31010815       0.37531368      -0.88698318
C        1.09210209      -3.37736406       1.55269645      -1.01046839       0.48601018       1.57813609
C        1.35547576      -2.91000285       0.24326478      -0.34377550       1.32668856       0.58335641
C        1.89644061       0.50232923      -4.40645017       0.16850778      -0.20656223       1.01509515
C       -0.26874890       1.45835129       1.52990709      -0.33641496       1.64845652      -1.96697540
C        0.97595106       1.16471837      -1.85576810      -0.48825227      -1.26340496      -1.78879781
C        2.29393480       1.45875780      -2.23745145       0.18485817       0.69692184       1.33723522
C        0.54076913      -2.52123489       2.53966365       0.89961991      -1.17211338       1.00220371
C        1.11744813      -1.58372154      -0.10412948       0.57302306      -1.89469696      -0.10090763
C        0.28139741       0.66094696       0.51075783      -0.37385270       1.26097594       0.55654633
C        0.25300215      -1.14624705       2.14190398      -0.08102305      -0.25441876       1.10853304
C        0.54629550      -0.69990602       0.80354239       0.30452498      -0.27520172       0.04800030
N        0.41874505       1.48864774      -0.60910250       0.15572058       0.03312813       0.86235490
C        0.57312931      -2.39302926       5.28775591      -0.52322964      -0.03125451      -0.56207803
C        3.22489510       2.23065684      -1.28219475       0.20551645      -0.38396227      -0.67257839
C       -2.51428856       3.90553436       1.89096079      -0.81561065       0.88458655       2.01280822
C       -1.02049961       3.96733031       1.77614294       0.40361655      -0.06668200      -0.09429984
H       -0.09889306       3.61043510      -1.00675239       0.33170401      -0.64998077      -0.08501590
H       -1.12141587       1.55944405       3.50758539       0.27085046      -0.23089866      -0.06469897
H       -0.06341662      -0.30614587      -4.74069442       0.27453532       0.05930264       0.23260922
H       -0.89770915       0.25640801      -2.44388451       0.14325796      -0.01229913      -0.13518895
H        3.77363978       1.41044107      -3.77346553      -0.37355632      -0.37213281      -0.03025862
H        1.27221958      -4.42521968       1.78537999       0.06318819       0.34756615       0.13984059
H        1.80947731      -3.54190984      -0.49674477       0.02607411      -0.35046560       0.02732357
H        1.43582366      -1.28934314      -1.08576991      -0.16740856       0.31968773      -0.17155471
H       -0.41176379      -2.01803189       5.60320276       0.45493138       0.12241860      -0.07973750
H        1.27858424      -1.56084089       5.17706102      -0.27517669      -0.24176911      -0.29268933
H        0.96420536      -3.04701143       6.08094495      -0.11818704      -0.06439485      -0.45278337
H        4.14389358       2.57807515      -1.77549495      -0.35412498      -0.35641680      -0.08188242
H        3.53337655       1.63110695      -0.43275394      -0.09359792      -0.20906577       0.09050827
H        2.77176247       3.12095365      -0.88772621      -0.49700191       0.27285154       0.16892325
H       -2.79428519       2.98612819       2.36006556      -0.26480986      -0.78631866       0.12621416
H       -3.02438249       3.95858393       0.95523898      -0.29858438       0.26641281      -0.59767795
H       -2.88979496       4.67854056       2.63055430       0.30363522      -0.53791353      -1.16706822
H       -0.77449371       4.93130336       1.30457829       0.36415873      -0.45245326       0.17101232
H       -0.60698010       3.94385037       2.80773459       0.01079671       0.13574903      -0.74729326
