44
Properties=species:S:1:pos:R:3:forces:R:3 id=7031 bond=C-O smiles="[H:32][c:11]1[c:17]([c:20]2[c:19]([c:16]([c:10]1[H:31])[O:3][C:22]([H:34])([H:35])[H:36])[n:2][c:6]([c:13]3[c:18]2[N:21]([C:4](=[C:5]3[C:25]([H:43])([H:44])[C:24]([H:40])([H:41])[H:42])[H:26])[c:14]4[c:8]([c:7]([c:12]([c:9]([c:15]4[C:23]([H:37])([H:38])[H:39])[H:30])[F:1])[H:28])[H:29])[H:27])[H:33]" dataset=PubChem energy=-29845.600357217572 pbc="F F F"
F        2.37514229       0.34868833      -5.96141263      -0.45754311       0.13456410       0.74906422
N       -0.25453202      -0.18256593       2.77273086      -1.07004880       1.77543296       0.24878362
O        0.34748199      -3.35360558       4.40824032       0.85731605       1.75143789      -1.62081295
C       -0.02417748       2.90684569      -0.61847099      -0.50829691      -0.22438660       1.70126399
C       -0.46397249       2.92149412       0.68577472       0.75566947       0.38007764      -0.32901646
C       -0.57274334       1.09391475       2.45694212       0.83546933      -3.14302161       1.21840478
C        0.62720781       0.29535350      -4.30957433      -0.08330138      -0.19041177      -1.52502078
C        0.14361309       0.62280063      -3.06306334       1.41951423       0.77064551       0.69421705
C        2.80057330       1.22417742      -3.79181476      -0.30907295       0.37560748      -0.88583760
C        1.12347330      -3.24226725       1.24941961      -1.08250084       0.18536240       2.32890051
C        1.38684697      -2.77490604      -0.06001206      -0.29764419       1.52869917       0.42218047
C        1.92781182       0.63742604      -4.70972701       0.17445767      -0.20868710       0.99942933
C       -0.23737769       1.59344810       1.22663025      -0.33812866       1.66401645      -1.97354686
C        1.00732227       1.29981518      -2.15904494      -0.48262069      -1.27001037      -1.79804163
C        2.32530601       1.59385461      -2.54072829       0.19005844       0.69900803       1.34033137
C        0.57214034      -2.38613808       2.23638681       1.03604003      -0.26565648      -1.85984329
C        1.14881934      -1.44862473      -0.40740632       0.56501930      -1.95400187      -0.01892418
C        0.31276862       0.79604377       0.20748099      -0.38459601       1.30144509       0.56763020
C        0.28437336      -1.01115024       1.83862714      -0.25544116      -0.19776739       1.67092844
C        0.57766671      -0.56480921       0.50026555       0.35113947      -0.32238957      -0.05952737
N        0.45011626       1.62374455      -0.91237934       0.15626241       0.01485947       0.87046000
C        0.54175810      -2.52812607       5.59103275      -0.82904961      -0.40122228      -1.24288520
C        3.25626631       2.36575365      -1.58547159       0.20624539      -0.38282395      -0.67318370
C       -2.48291735       4.04063117       1.58768395      -0.81721387       0.88325952       2.01134901
C       -0.98912840       4.10242712       1.47286610       0.40316765      -0.06243370      -0.08843919
H       -0.06752185       3.74553191      -1.31002923       0.33241204      -0.65190140      -0.08600339
H       -1.09004466       1.69454086       3.20430855       0.27300222      -0.23826472      -0.06290406
H       -0.03204541      -0.17104906      -5.04397126       0.27446121       0.06020932       0.23308795
H       -0.86633794       0.39150482      -2.74716135       0.14027408      -0.01094173      -0.13741216
H        3.80501099       1.54553788      -4.07674237      -0.37425838      -0.37223006      -0.02990378
H        1.30359079      -4.29012287       1.48210315       0.07088213       0.30143277       0.07257494
H        1.84084852      -3.40681303      -0.80002161       0.02111512      -0.38692507       0.05742436
H        1.46719487      -1.15424633      -1.38904675      -0.17049776       0.31456999      -0.17485963
H       -0.44313500      -2.15312870       5.90647960       0.39390841       0.15219493      -0.01173314
H        1.24721303      -1.69593770       5.48033786      -0.16296297      -0.23876587      -0.24064278
H        0.93283415      -3.18210824       6.38422179      -0.00356927      -0.09819218      -0.33006529
H        4.17526479       2.71317196      -2.07877179      -0.35574234      -0.35714073      -0.08022203
H        3.56474776       1.76620376      -0.73603078      -0.09180757      -0.20770608       0.09089665
H        2.80313368       3.25605046      -1.19100305      -0.49596742       0.27299497       0.16847315
H       -2.76291398       3.12122500       2.05678872      -0.26658451      -0.78524168       0.12720272
H       -2.99301128       4.09368074       0.65196214      -0.29896550       0.26660535      -0.59715972
H       -2.85842375       4.81363737       2.32727746       0.30616170      -0.54079101      -1.16924723
H       -0.74312250       5.06640017       1.00130145       0.36535400      -0.45514333       0.17112530
H       -0.57560889       4.07894718       2.50445775       0.01120984       0.13573776      -0.74964215
