44
Properties=species:S:1:pos:R:3:forces:R:3 id=7031 bond=C-O smiles="[H:32][c:11]1[c:17]([c:20]2[c:19]([c:16]([c:10]1[H:31])[O:3][C:22]([H:34])([H:35])[H:36])[n:2][c:6]([c:13]3[c:18]2[N:21]([C:4](=[C:5]3[C:25]([H:43])([H:44])[C:24]([H:40])([H:41])[H:42])[H:26])[c:14]4[c:8]([c:7]([c:12]([c:9]([c:15]4[C:23]([H:37])([H:38])[H:39])[H:30])[F:1])[H:28])[H:29])[H:27])[H:33]" dataset=PubChem energy=-29849.027841703868 pbc="F F F"
F        2.34174713       0.20487559      -5.63856954      -0.45715291       0.13165016       0.72942066
N       -0.28792718      -0.32637867       3.09557395      -1.10300376       1.72120051       0.28977182
O        0.38087715      -3.20979284       4.08539723       0.69984106       2.12095213      -3.86001174
C       -0.05757264       2.76303295      -0.29562790      -0.50408561      -0.21729106       1.68955370
C       -0.49736765       2.77768138       1.00861781       0.75509791       0.38155885      -0.33226092
C       -0.60613850       0.95010201       2.77978521       0.82279419      -3.12733882       1.24617993
C        0.59381265       0.15154076      -3.98673124      -0.08040254      -0.18714706      -1.52564584
C        0.11021793       0.47898789      -2.74022025       1.42248534       0.77464940       0.69331135
C        2.76717814       1.08036468      -3.46897167      -0.31027979       0.37513596      -0.88703978
C        1.09007814      -3.38607999       1.57226270      -0.99754815       0.51783196       1.47564160
C        1.35345181      -2.91871878       0.26283103      -0.34692051       1.30807667       0.59771127
C        1.89441666       0.49361330      -4.38688392       0.16800425      -0.20609993       1.01677999
C       -0.27077285       1.44963536       1.54947334      -0.33602593       1.64664217      -1.96634338
C        0.97392711       1.15600244      -1.83620185      -0.48815380      -1.26305831      -1.78944898
C        2.29191085       1.45004187      -2.21788520       0.18350366       0.69676659       1.33751316
C        0.53874518      -2.52995082       2.55922990       0.90650686      -1.21020276       1.08440745
C        1.11542418      -1.59243747      -0.08456323       0.57353289      -1.88754463      -0.11156448
C        0.27937346       0.65223103       0.53032408      -0.37395728       1.25811989       0.55800887
C        0.25097820      -1.15496298       2.16147023      -0.06626162      -0.24925986       1.04736191
C        0.54427155      -0.70862195       0.82310864       0.30310058      -0.27243323       0.05446602
N        0.41672110       1.47993181      -0.58953625       0.15594040       0.03563188       0.86093286
C        0.57515326      -2.38431333       5.26818966      -0.51966848      -0.04351609      -0.49046859
C        3.22287115       2.22194091      -1.26262850       0.20618578      -0.38379762      -0.67202942
C       -2.51631251       3.89681843       1.91052704      -0.81586480       0.88472600       2.01300385
C       -1.02252356       3.95861438       1.79570919       0.40377201      -0.06682232      -0.09480130
H       -0.10091701       3.60171917      -0.98718614       0.33154445      -0.64995479      -0.08483236
H       -1.12343982       1.55072812       3.52715164       0.27065581      -0.23026261      -0.06504450
H       -0.06544057      -0.31486180      -4.72112817       0.27466294       0.05924393       0.23266516
H       -0.89973310       0.24769208      -2.42431826       0.14400727      -0.01243954      -0.13500826
H        3.77161583       1.40172514      -3.75389928      -0.37354792      -0.37220307      -0.03027236
H        1.27019563      -4.43393561       1.80494624       0.06169083       0.35014082       0.14439594
H        1.80745336      -3.55062577      -0.47717852       0.02697000      -0.34770956       0.02396367
H        1.43379971      -1.29805907      -1.06620366      -0.16723075       0.32000648      -0.17101463
H       -0.40973984      -2.00931596       5.58363651       0.46370736       0.11802384      -0.08488580
H        1.28060819      -1.55212496       5.15749477      -0.28049540      -0.24557595      -0.30420215
H        0.96622931      -3.03829550       6.06137870      -0.12443919      -0.05942661      -0.45813673
H        4.14186963       2.56935922      -1.75592870      -0.35413741      -0.35638974      -0.08195750
H        3.53135260       1.62239102      -0.41318769      -0.09386573      -0.20907098       0.09022267
H        2.76973852       3.11223772      -0.86815996      -0.49698202       0.27264536       0.16883781
H       -2.79630914       2.97741226       2.37963181      -0.26454562      -0.78627654       0.12602901
H       -3.02640644       3.94986800       0.97480523      -0.29844931       0.26637866      -0.59751342
H       -2.89181891       4.66982463       2.65012055       0.30340190      -0.53772584      -1.16696234
H       -0.77651766       4.92258743       1.32414454       0.36394481      -0.45233876       0.17115136
H       -0.60900405       3.93513444       2.82730084       0.01067853       0.13577342      -0.74726023
