14
Properties=species:S:1:pos:R:3:forces:R:3 id=22194 bond=C-S smiles="[H:10][C:5]([H:11])([H:12])[C:6]([H:13])([H:14])[S:3][S:1][S:2][C:4]([H:7])([H:8])[H:9]" dataset=PubChem energy=-35750.04352208572 pbc="F F F"
S        2.22377489       1.37879306      -0.73230820      -1.96617527       0.73490621      -0.55689415
S        1.87381540      -0.54771900      -1.10118922       1.00882137      -2.00579461       0.45798724
S        0.20343970       1.85878539      -0.89614405       0.71552015       1.08181185       1.63845409
C        1.97859357      -0.93068742      -2.86415257       1.40173097      -1.07778163       0.42677951
C       -0.64182311       0.71525711       3.32142109       1.03767665       0.58296346       1.09465595
C       -0.66699028       2.06393246       2.61165673       0.26801787      -0.26628296       3.42788968
H        1.87658916      -2.04690861      -2.78598632      -0.27221016       0.96794510      -0.34402876
H        1.14622335      -0.48078727      -3.38605346       0.21397860       0.04894881      -0.43710113
H        3.02411936      -0.80056548      -3.27158489      -1.43276765       0.37086205       0.23202561
H       -1.42240995       0.61975361       4.13902086       0.62929869       0.48879002      -0.95831629
H       -0.85654897      -0.02200438       2.63051075      -0.71964748      -1.82708889      -1.36316981
H        0.32853410       0.40089379       3.77902526      -0.61889816       0.66183606      -0.48106874
H       -1.66043776       2.44920461       2.78275973      -0.47472405       0.37130220      -1.51980339
H        0.00160179       2.75053291       3.18150514       0.20936703      -0.13303995      -1.62064968
