14
Properties=species:S:1:pos:R:3:forces:R:3 id=22194 bond=C-S smiles="[H:10][C:5]([H:11])([H:12])[C:6]([H:13])([H:14])[S:3][S:1][S:2][C:4]([H:7])([H:8])[H:9]" dataset=PubChem energy=-35708.19584574718 pbc="F F F"
S        1.90066073       1.45494614       0.56982997       1.86823709       0.17732305      -2.05338086
S        1.55070124      -0.47156592       0.20094895       1.10405176      -1.87675014      -0.18842563
S       -0.11967446       1.93493847       0.40599412      52.57863428      -9.28417491    -216.07672023
C        1.65547941      -0.85453434      -1.56201440       1.57341324      -1.13893940       0.47653867
C       -0.31870895       0.63910403       2.01928292      -1.45687263      -2.22709514       7.86912115
C       -0.34387612       1.98777938       1.30951856     -52.08311627      12.23901954     208.26668307
H        1.55347500      -1.97075553      -1.48384815      -0.27292073       0.94189002      -0.34788848
H        0.82310919      -0.40463419      -2.08391529       0.22727121       0.06770138      -0.39562446
H        2.70100520      -0.72441240      -1.96944672      -1.42932627       0.37700042       0.19769266
H       -1.09929579       0.54360053       2.83688269       0.78020860       0.22890649      -0.56611782
H       -0.53343481      -0.09815746       1.32837258      -0.70323087      -1.11773274      -1.43683733
H        0.65164826       0.32474071       2.47688709      -0.87065797       0.79213888      -0.18137541
H       -1.33732360       2.37305153       1.48062156      -0.58228114       0.20097477       1.22591556
H        0.32471595       2.67437983       1.87936697      -0.72801494       0.61847423       3.19497291
