10
Properties=species:S:1:pos:R:3:forces:R:3 id=11220 bond=N-O smiles="[H:7][C:3](=[S:1])[N:4]([C:5]([H:8])([H:9])[H:10])[O:2][H:6]" dataset=PubChem energy=-16527.41638516988 pbc="F F F"
S        0.33793206       2.00145131      -1.91616011       0.06735913      -0.25079685       0.01315110
O       -0.15220072       0.31179753       2.55665963       2.32247963       0.96542388      -2.23048393
C       -0.14036434       1.62114316      -0.39222512       0.94485850      -1.04936765       1.80251415
N        0.47120725       0.60458962       0.33617415      -2.36092223       1.57154960      -0.84111140
C        1.65647937      -0.15436203      -0.06465325      -0.07174613      -0.24724591       1.87161317
H       -1.04197177      -0.01118435       2.65237753      -0.92655464      -0.32899270      -0.79472156
H       -0.95275067       2.21142607       0.03339207       0.22667215      -0.70188547       0.55284684
H        2.50060547       0.15209445       0.58168864      -0.40104180      -0.48411129      -0.20449785
H        1.39726020      -1.22084147       0.02379344       0.47604105       0.46795802      -0.03066555
H        1.93288923       0.11255425      -1.07424009      -0.27522515       0.05549026      -0.13752696
