10
Properties=species:S:1:pos:R:3:forces:R:3 id=11220 bond=N-O smiles="[H:7][C:3](=[S:1])[N:4]([C:5]([H:8])([H:9])[H:10])[O:2][H:6]" dataset=PubChem energy=-16527.28092414201 pbc="F F F"
S        0.34349820       2.00406553      -1.93598587       0.07000956      -0.26774830      -0.00166924
O       -0.15776686       0.30918331       2.57648539       2.26031502       0.94176115      -2.11269555
C       -0.13479820       1.62375738      -0.41205088       0.96916532      -1.02093102       1.85217089
N        0.47677339       0.60720384       0.31634839      -2.35407859       1.55872002      -1.01362472
C        1.66204551      -0.15174781      -0.08447901      -0.06547469      -0.22196361       1.84467276
H       -1.04753791      -0.01379857       2.67220329      -0.92340199      -0.32550553      -0.76218143
H       -0.94718453       2.21404029       0.01356631       0.22408958      -0.70610716       0.55274331
H        2.50617161       0.15470867       0.56186288      -0.39785993      -0.48220376      -0.20316121
H        1.40282634      -1.21822725       0.00396768       0.47217582       0.47174012      -0.02442571
H        1.93845537       0.11516847      -1.09406585      -0.25297001       0.05028817      -0.13076060
