35
Properties=species:S:1:pos:R:3:forces:R:3 id=42507 bond=O-P smiles="[H:25][C:11]([H:26])([H:27])[C:13]([H:31])([H:32])[N:7]([C:6](=[S:1])[N:8]([H:18])[P:16](=[S:2])([O:4][C:9]([H:19])([H:20])[H:21])[O:5][C:10]([H:22])([H:23])[H:24])[C:14]([H:33])([H:34])[C:15]([H:35])([C:12]([H:28])([H:29])[H:30])[O:3][H:17]" dataset=PubChem energy=-48664.60483299634 pbc="F F F"
S        2.04361569      -1.74200366      -0.24008430       0.35145022      -2.02372956       0.61523784
S        0.33007788       1.11392577      -3.63358052       0.64223602      -1.53470708      -1.31920384
O        2.81157219       0.96193141       3.28459756       0.47109926      -0.44775388      -0.52515824
O       -1.19657314       0.19078584      -1.21685846       1.25205731      -0.17016810       0.48689490
O       -0.11471899       1.92678299      -1.40756965     -53.77543879     215.21122210      74.73675210
C        1.39614820      -0.27196548       0.07046180       1.16265727      -2.64335585       2.79985900
N        0.86743271       0.08117142       1.30737649       1.10679422       1.52531310      -1.73992751
N        1.54390657       0.55104505      -0.97866804      -1.05736102       2.35381036      -1.18956061
C       -1.27463556      -1.09559021      -1.71221764       0.27570157      -2.29249914      -1.07483052
C       -1.34596761       2.55864741      -1.89777530      -3.43398839       4.89876479       0.06268245
C       -0.99276519      -0.80329309       2.58518903      -0.38282243      -0.86334484      -0.40928122
C        2.39933789       3.24003794       3.00451724      -0.43790658      -0.16024104       0.07674605
C        0.48625285      -0.89568112       2.32605664       0.30592473       0.58544932       0.93181620
C        1.00990146       1.50823899       1.72522931      -0.36611160      -1.56892078       1.12486782
C        2.38444388       1.89443340       2.26966684       0.25172586       0.25657443       1.89358462
P        0.08176130       1.08068422      -1.70283158      53.25583616    -214.03279550     -75.34538527
H        3.72128903       1.18318342       3.56225316      -0.87296280      -0.13142469      -0.39202971
H        2.22854626       0.22743019      -1.67467005      -0.79895167      -0.07545891       0.72212198
H       -0.81440699      -1.14932750      -2.73144323      -0.40910414       0.01621732       0.77177982
H       -0.70945382      -1.78200934      -1.06177885      -0.42676989       0.08557616      -0.25802738
H       -2.31891048      -1.40880106      -1.80503995       0.17674912       0.11472322       0.20533079
H       -1.71157463       3.31679942      -1.19691646       0.47223629      -0.50037007       0.35312894
H       -1.15550597       3.08903220      -2.82402647       0.75298518      -0.33847834       0.22659148
H       -2.16883738       1.84979512      -2.10296286       1.32463593       0.03413373       0.49531984
H       -1.50444317      -0.85363553       1.60979937      -0.02074332       0.04754391       0.49756798
H       -1.28261256      -1.69302700       3.18193500      -0.09331861       0.79592435      -0.14834759
H       -1.23213184       0.12852915       3.07580416      -0.38054990       0.05105337       0.25060690
H        3.41782057       3.48300101       3.35324638      -0.45048918      -0.14415005      -0.23406976
H        1.72311818       3.21345546       3.88571970       0.43560623      -0.06237911      -0.61456878
H        2.07022917       4.00515153       2.33054630      -0.14236743       0.75600081      -0.23715813
H        1.04641271      -0.77680895       3.27816956      -0.11178165       0.39553180      -0.80708486
H        0.71441856      -1.88183091       2.02157085       0.41095803      -0.72313752      -0.79203412
H        0.80947757       2.12425461       0.89469592      -0.20006539       0.77257586      -0.86074051
H        0.21887070       1.67968543       2.45938842       0.25237271       0.12777148       0.05275092
H        3.06961095       1.94837298       1.44107424       0.45588156      -0.30794117      -0.35480832
