35
Properties=species:S:1:pos:R:3:forces:R:3 id=42507 bond=O-P smiles="[H:25][C:11]([H:26])([H:27])[C:13]([H:31])([H:32])[N:7]([C:6](=[S:1])[N:8]([H:18])[P:16](=[S:2])([O:4][C:9]([H:19])([H:20])[H:21])[O:5][C:10]([H:22])([H:23])[H:24])[C:14]([H:33])([H:34])[C:15]([H:35])([C:12]([H:28])([H:29])[H:30])[O:3][H:17]" dataset=PubChem energy=-48700.964763395095 pbc="F F F"
S        2.22044794      -2.50349256      -0.50582004       0.36095149      -1.68013546       0.25627275
S        0.50691013       0.35243687      -3.89931626      -0.15589911       0.36533489       1.15026704
O        2.98840444       0.20044251       3.01886182       0.53855700      -0.53475859      -0.50018129
O       -1.01974089      -0.57070306      -1.48259420       1.46324066       3.13209869       0.93851209
O       -0.29155124       2.68827189      -1.14183391      -0.87077413      -1.75073355      -0.70980563
C        1.57298045      -1.03345438      -0.19527394       0.58928795      -2.63432902       3.98169304
N        1.04426496      -0.68031748       1.04164075       1.38202599       1.36254907      -2.11126372
N        1.72073882      -0.21044385      -1.24440378      -1.96816080       3.23615073      -1.15424930
C       -1.09780331      -1.85707911      -1.97795338       0.53200439      -2.67334844      -1.52021002
C       -1.52279986       3.32013631      -1.63203956       1.02508945      -1.15564260      -0.14463811
C       -0.81593294      -1.56478199       2.31945329      -0.38649934      -0.83120262      -0.40921330
C        2.57617014       2.47854904       2.73878150      -0.46420677      -0.12442506       0.03288595
C        0.66308510      -1.65717002       2.06032090       0.32793997       0.47970443       0.92584303
C        1.18673371       0.74675009       1.45949357      -0.36572286      -1.23293519       1.10833803
C        2.56127613       1.13294450       2.00393110       0.18739111       0.22333207       1.89006420
P        0.25859355       0.31919532      -1.96856732      -0.88593514       1.85553725      -1.62784680
H        3.89812128       0.42169452       3.29651742      -0.88198217      -0.11896371      -0.37488299
H        2.40537851      -0.53405871      -1.94040579      -0.64912972       0.20072242       0.43103205
H       -0.63757474      -1.91081640      -2.99717897      -0.47178227      -0.05255881       0.80616968
H       -0.53262157      -2.54349824      -1.32751459      -0.40248587       0.17527302      -0.24054586
H       -2.14207823      -2.17028996      -2.07077569       0.20039386       0.28392021       0.24232144
H       -1.88840688       4.07828832      -0.93118072       0.26128299      -0.36293964       0.37171472
H       -1.33233822       3.85052110      -2.55829073       0.19783846      -0.01310970      -0.30746715
H       -2.34566963       2.61128402      -1.83722712       0.40072723       0.12157372       0.32141051
H       -1.32761092      -1.61512443       1.34406363      -0.03743680       0.05901374       0.51122883
H       -1.10578031      -2.45451590       2.91619926      -0.07615124       0.79234449      -0.15876683
H       -1.05529959      -0.63295975       2.81006842      -0.37425478       0.03322024       0.22190808
H        3.59465282       2.72151211       3.08751064      -0.43730096      -0.16344934      -0.23045183
H        1.89995043       2.45196656       3.61998396       0.43569197      -0.06715693      -0.62151494
H        2.24706142       3.24366263       2.06481056      -0.15238449       0.72332618      -0.22983617
H        1.22324496      -1.53829785       3.01243382      -0.10206050       0.42363019      -0.83447010
H        0.89125081      -2.64331981       1.75583511       0.39816293      -0.74945686      -0.76891468
H        0.98630982       1.36276571       0.62896018      -0.35045510       0.84092153      -0.87372668
H        0.39570295       0.91819653       2.19365268       0.25567932       0.12511764      -0.01534529
H        3.24644320       1.18688408       1.17533850       0.47566496      -0.29202981      -0.35275215
