35
Properties=species:S:1:pos:R:3:forces:R:3 id=42507 bond=O-P smiles="[H:25][C:11]([H:26])([H:27])[C:13]([H:31])([H:32])[N:7]([C:6](=[S:1])[N:8]([H:18])[P:16](=[S:2])([O:4][C:9]([H:19])([H:20])[H:21])[O:5][C:10]([H:22])([H:23])[H:24])[C:14]([H:33])([H:34])[C:15]([H:35])([C:12]([H:28])([H:29])[H:30])[O:3][H:17]" dataset=PubChem energy=-48702.46687774594 pbc="F F F"
S        2.08571860      -1.92331054      -0.30335471       0.36382196      -1.91416195       0.52561302
S        0.37218079       0.93261889      -3.69685093       0.15800378      -0.71524110      -0.13709119
O        2.85367510       0.78062453       3.22132715       0.50055288      -0.46357937      -0.50984725
O       -1.15447023       0.00947896      -1.28012887       1.39234463       1.74011496       0.65154467
O       -0.15682190       2.10808987      -1.34429924      -6.34720345      20.52543825       7.98856229
C        1.43825111      -0.45327236       0.00719139       0.97281580      -2.67605813       3.18452895
N        0.90953562      -0.10013546       1.24410608       1.18782290       1.48660430      -1.85039710
N        1.58600948       0.36973817      -1.04193845      -1.75089827       3.12549537      -1.09751996
C       -1.23253265      -1.27689709      -1.77548805       0.40119514      -2.35763812      -1.28789363
C       -1.38807052       2.73995429      -1.83450489      -1.23761232       1.32040391      -0.13899002
C       -0.95066228      -0.98459997       2.52191862      -0.38378464      -0.85541816      -0.40990250
C        2.44144080       3.05873106       2.94124683      -0.44240486      -0.15486513       0.06764621
C        0.52835576      -1.07698800       2.26278623       0.31148251       0.55609339       0.92364947
C        1.05200437       1.32693211       1.66195890      -0.35057479      -1.43357053       1.10491515
C        2.42654679       1.71312652       2.20639643       0.21746503       0.22753535       1.89671859
P        0.12386421       0.89937734      -1.76610199       5.23231117     -19.52669116      -9.23935415
H        3.76339194       1.00187654       3.49898275      -0.87435045      -0.13040115      -0.38597070
H        2.27064917       0.04612331      -1.73794046      -0.83258632       0.05494567       0.56860128
H       -0.77230408      -1.33063438      -2.79471364      -0.42411033      -0.00136218       0.77120659
H       -0.66735091      -1.96331622      -1.12504926      -0.41749799       0.12966345      -0.24955684
H       -2.27680757      -1.59010794      -1.86831036       0.19489614       0.19216688       0.22013934
H       -1.75367754       3.49810630      -1.13364605       0.52593572      -0.52862491       0.27981949
H       -1.19760888       3.27033908      -2.76075606       0.54733578      -0.28297698      -0.03823496
H       -2.21094029       2.03110200      -2.03969245       0.91950499       0.02492639       0.40115052
H       -1.46234026      -1.03494241       1.54652896      -0.02500993       0.05159855       0.50178325
H       -1.24050965      -1.87433388       3.11866459      -0.08874655       0.79444357      -0.15055000
H       -1.19002893      -0.05277773       3.01253375      -0.37841417       0.04601818       0.24280284
H        3.45992348       3.30169413       3.28997597      -0.44741301      -0.14707892      -0.23267684
H        1.76522109       3.03214858       3.82244929       0.43578314      -0.06352656      -0.61575094
H        2.11233208       3.82384465       2.26727589      -0.14327700       0.74856323      -0.23616878
H        1.08851562      -0.95811583       3.21489915      -0.10895095       0.40272257      -0.81483449
H        0.75652147      -2.06313779       1.95830044       0.40681932      -0.73057867      -0.78424781
H        0.85158048       1.94294773       0.83142551      -0.22466980       0.74097463      -0.83509202
H        0.26097361       1.49837855       2.39611801       0.25404611       0.12022497       0.04556647
H        3.11171386       1.76706610       1.37780383       0.46248121      -0.30279035      -0.35390055
