35
Properties=species:S:1:pos:R:3:forces:R:3 id=42507 bond=O-P smiles="[H:25][C:11]([H:26])([H:27])[C:13]([H:31])([H:32])[N:7]([C:6](=[S:1])[N:8]([H:18])[P:16](=[S:2])([O:4][C:9]([H:19])([H:20])[H:21])[O:5][C:10]([H:22])([H:23])[H:24])[C:14]([H:33])([H:34])[C:15]([H:35])([C:12]([H:28])([H:29])[H:30])[O:3][H:17]" dataset=PubChem energy=-48701.93201708976 pbc="F F F"
S        2.19237933      -2.38262130      -0.46363976       0.36137989      -1.70771656       0.29630985
S        0.47884152       0.47330813      -3.85713598      -0.13738743       0.28519468       1.13153233
O        2.96033583       0.32131377       3.06104210       0.53797638      -0.52254334      -0.49911311
O       -1.04780950      -0.44983180      -1.44041392       1.46922595       3.16091899       0.98811243
O       -0.26348263       2.56740063      -1.18401419      -0.40922165      -2.55597253      -0.67576645
C        1.54491184      -0.91258312      -0.15309366       0.63670735      -2.66687147       3.90057939
N        1.01619635      -0.55944622       1.08382103       1.35809590       1.38121282      -2.07831449
N        1.69267021      -0.08957259      -1.20222350      -2.06826828       3.36882242      -1.10114675
C       -1.12587192      -1.73620785      -1.93577310       0.54418923      -2.63855069      -1.52114135
C       -1.49473125       3.19926505      -1.67421984       0.66263470      -1.10072820      -0.26196182
C       -0.84400155      -1.44391073       2.36163357      -0.38574580      -0.83365363      -0.40903708
C        2.54810153       2.59942030       2.78096178      -0.46059935      -0.13071570       0.03859672
C        0.63501649      -1.53629876       2.10250118       0.32611030       0.48692821       0.92319635
C        1.15866510       0.86762135       1.50167385      -0.35441817      -1.25105498       1.10370759
C        2.53320752       1.25381576       2.04611138       0.18520184       0.21577410       1.89126986
P        0.23052494       0.44006658      -1.92638704      -1.06718676       2.59694463      -1.62027191
H        3.87005267       0.54256578       3.33869770      -0.88043643      -0.12153759      -0.37576672
H        2.37730990      -0.41318745      -1.89822551      -0.69198815       0.20782867       0.41681353
H       -0.66564335      -1.78994514      -2.95499869      -0.46547674      -0.04612405       0.80260472
H       -0.56069018      -2.42262698      -1.28533431      -0.40300798       0.17645206      -0.24034080
H       -2.17014684      -2.04941870      -2.02859541       0.20079510       0.28623400       0.24149735
H       -1.86033827       3.95741706      -0.97336100       0.33279146      -0.40087545       0.35334372
H       -1.30426961       3.72964984      -2.60047101       0.22765167      -0.04100572      -0.27971546
H       -2.31760102       2.49041276      -1.87940740       0.43793128       0.13826675       0.31011980
H       -1.35567953      -1.49425317       1.38624391      -0.03597913       0.05848544       0.51027779
H       -1.13384892      -2.33364464       2.95837954      -0.07777292       0.79238151      -0.15762014
H       -1.08336820      -0.51208849       2.85224870      -0.37484541       0.03491655       0.22422825
H        3.56658421       2.84238337       3.12969092      -0.43890593      -0.16033242      -0.23054752
H        1.87188182       2.57283782       3.66216424       0.43569826      -0.06683798      -0.62024952
H        2.21899281       3.36453389       2.10699084      -0.14994517       0.72676583      -0.23105537
H        1.19517635      -1.41742659       3.05461410      -0.10291976       0.42106928      -0.83222263
H        0.86318220      -2.52244855       1.79801539       0.39880222      -0.74643076      -0.76961332
H        0.95824121       1.48363697       0.67114046      -0.33851426       0.82152247      -0.86677199
H        0.36763434       1.03906779       2.23583296       0.25454226       0.12279835      -0.00610386
H        3.21837459       1.30775534       1.21751878       0.47434058      -0.29279444      -0.35266785
