13
Properties=species:S:1:pos:R:3:forces:R:3 id=38459 bond=C-S smiles="[H:12][C:5]([H:13])([C:3]([H:8])([H:9])[S:1][H:6])[C:4]([H:10])([H:11])[S:2][H:7]" dataset="DES370K Monomers" energy=-24916.9901732966 pbc="F F F"
S        0.41886241      -1.40761076      -1.76407360      -0.33409927      -0.65394529       0.42022202
S        0.29411491       2.15382634       2.21136831       3.99111823       5.91736647       4.28057348
C       -0.51019316      -0.77250097      -0.28126569       0.52926327       0.85470725      -0.99210715
C       -0.49251198       0.94881065       1.53373791      -4.32172959      -3.80649182      -3.52231114
C        0.25602951       0.39120521       0.35993780       0.12232714      -0.87685406      -0.55023904
H        0.87244374      -0.28647472      -2.33932637      -0.27073698       0.24143105       0.38948126
H        0.29517966       3.09163485       1.23967753      -0.15393800      -0.42184842       0.02704498
H       -1.49681645      -0.41714231      -0.61432366       0.32976062      -0.24062837       0.16247660
H       -0.65587204      -1.60354028       0.41728030       0.23354418       0.10357521      -0.33159343
H       -1.42216198       1.38447704       1.10494948      -0.01224166      -0.86228067       0.45379602
H       -0.77040618       0.17793253       2.27053286       0.16962991       0.36420190      -0.23369888
H        1.27030963       0.11590061       0.66175850      -0.18095573      -0.23275596      -0.05657122
H        0.38565738       1.22397329      -0.34643979      -0.10105418      -0.38200604      -0.04619387
