13
Properties=species:S:1:pos:R:3:forces:R:3 id=38459 bond=C-S smiles="[H:12][C:5]([H:13])([C:3]([H:8])([H:9])[S:1][H:6])[C:4]([H:10])([H:11])[S:2][H:7]" dataset="DES370K Monomers" energy=-24916.126085952594 pbc="F F F"
S        0.43920620      -1.37644656      -1.74654867      -0.33480614      -0.66002547       0.41362965
S        0.27377112       2.12266214       2.19384338       6.62001674      10.01259001       6.69662225
C       -0.48984937      -0.74133677      -0.26374076       0.54289643       0.83935162      -1.03142370
C       -0.47216819       0.97997485       1.55126284      -6.68638407      -7.43245793      -5.59330944
C        0.27637330       0.42236941       0.37746273       0.00458941      -1.16207586      -0.74182025
H        0.89278753      -0.25531052      -2.32180144      -0.27021268       0.24166247       0.38959468
H        0.27483587       3.06047065       1.22215260      -0.08502840      -0.32683349       0.06233526
H       -1.47647266      -0.38597811      -0.59679873       0.33180212      -0.24209613       0.16365933
H       -0.63552825      -1.57237608       0.43480523       0.23534632       0.10521492      -0.33207617
H       -1.40181819       1.41564124       1.12247441      -0.16870724      -1.04519748       0.34522694
H       -0.75006239       0.20909673       2.28805779       0.10434240       0.25740252      -0.30739962
H        1.29065342       0.14706481       0.67928343      -0.18260601      -0.21812981      -0.03299557
H        0.40600117       1.25513749      -0.32891486      -0.11126252      -0.36678761      -0.03165061
