13
Properties=species:S:1:pos:R:3:forces:R:3 id=38459 bond=C-S smiles="[H:12][C:5]([H:13])([C:3]([H:8])([H:9])[S:1][H:6])[C:4]([H:10])([H:11])[S:2][H:7]" dataset="DES370K Monomers" energy=-24916.951059831346 pbc="F F F"
S        0.27645581      -1.62576015      -1.88674806      -0.32354836      -0.60770772       0.46722522
S        0.43652151       2.37197573       2.33404277      -1.32996498      -2.30210980      -0.81069183
C       -0.65259976      -0.99065036      -0.40394015       0.34874322       0.85456609      -0.78928363
C       -0.63491858       0.73066126       1.41106345      -0.31631860       2.06206662       0.05055152
C        0.11362291       0.17305582       0.23726334       0.85210284       0.37438287       0.13012333
H        0.73003714      -0.50462411      -2.46200083      -0.27349246       0.24155785       0.38701210
H        0.43758626       3.30978424       1.36235199      -0.29550319      -0.55230467      -0.11007430
H       -1.63922305      -0.63529170      -0.73699812       0.32378465      -0.24301502       0.15269659
H       -0.79827864      -1.82168967       0.29460584       0.22457060       0.09110245      -0.33852740
H       -1.56456858       1.16632765       0.98227502       0.55353864       0.02633951       0.88004422
H       -0.91281278      -0.04021686       2.14785840       0.51612235       0.80129849       0.18966932
H        1.12790303      -0.10224878       0.53908404      -0.19771082      -0.29297750      -0.13996125
H        0.24325078       1.00582390      -0.46911425      -0.08356936      -0.44933631      -0.06886622
