11
Properties=species:S:1:pos:R:3:forces:R:3 id=30239 bond=C-C smiles="[H:4][C:1]([H:5])([H:6])[C:3]([H:10])([H:11])[C:2]([H:7])([H:8])[H:9]" dataset="DES370K Monomers" energy=-3232.9547034396696 pbc="F F F"
C        0.58070354      -0.27536183      -0.98765730       2.31578836      -0.75724904       0.41801402
C       -0.77622997       0.54931365       0.51167195     -46.57627320      36.26213873       5.53968594
C        0.00633648      -0.09054636       0.44086684      47.66508635     -36.16315561      -3.07585969
H        0.99554001       0.69286019      -1.38397299      -0.41236467      -0.80164705       0.61375185
H       -0.17825617      -0.59643589      -1.71665465       0.23869887      -0.27005003       0.40701898
H        1.45219051      -0.99917971      -0.84802340      -1.19032512       0.75005258      -0.95748829
H       -1.61816977       0.00363053       0.11205688      -2.27273280       0.84468159       0.04034891
H       -0.82633351       0.86234664       1.59812425      -2.30609594       0.37032711      -0.89865704
H       -0.78518777       1.43361114      -0.08078751       0.08371200       1.54760954      -0.25216539
H        0.77626639       0.33701677       1.19786514       1.25796715      -1.56868869      -1.69357710
H       -0.25132683      -1.08597027       0.87055774       1.19584292      -0.21381403      -0.14130864
