11
Properties=species:S:1:pos:R:3:forces:R:3 id=30239 bond=C-C smiles="[H:4][C:1]([H:5])([H:6])[C:3]([H:10])([H:11])[C:2]([H:7])([H:8])[H:9]" dataset="DES370K Monomers" energy=-3238.6718179913873 pbc="F F F"
C        1.30991320      -0.87159501      -1.05363480       0.34811233       1.24110032       0.78291091
C       -1.50543963       1.14554683       0.57764945       0.45827179      -0.57974323       1.34604199
C        0.73554614      -0.68677954       0.37488934       1.16489461       0.23425900       0.78822771
H        1.72474967       0.09662701      -1.44995049      -0.30329182      -0.98724155       0.46821167
H        0.55095349      -1.19266907      -1.78263215       0.46480626      -0.31142160       0.43729467
H        2.18140017      -1.59541289      -0.91400090      -1.18143217       0.68821471      -0.52494301
H       -2.34737943       0.59986371       0.17803438       0.09970806      -0.87220946       0.50212358
H       -1.55554317       1.45857982       1.66410175       0.22666425      -1.00526716      -1.29328991
H       -1.51439743       2.02984432      -0.01481001       1.15991253       0.66806215      -0.67087874
H        1.50547605      -0.25921641       1.13188764      -1.62527895      -0.08122280      -1.50304538
H        0.47788283      -1.68220345       0.80458024      -0.81273202       1.00532083      -0.33266275
