38
Properties=species:S:1:pos:R:3:forces:R:3 id=20110 bond=C-N smiles="[H:26][c:13]1[c:11]([c:15]([c:12]([c:14]([c:16]1[C:19]([H:31])([H:32])[S:5][c:8]2[n:3][c:9]([c:10]([n:4][n:2]2)[C:18]([H:28])([H:29])[H:30])/[C:6](=[C:7]([H:23])/[N:17]([C:20]([H:33])([H:34])[H:35])[C:21]([H:36])([H:37])[H:38])/[H:22])[H:27])[H:25])[Cl:1])[H:24]" dataset=PubChem energy=-45160.28429133776 pbc="F F F"
Cl      -0.20119894      -2.70651331       2.31901052      -0.25027382       0.22235843       0.32377084
N        1.87219691       4.14389524       2.25457205      -0.82062923      -0.25711207      -0.00677682
N        0.57524838       2.72971472       0.87754232      -0.04796383       0.07328229       0.39001797
N        2.98505985       3.55815515       1.82818755      -0.70940672      -0.81366950      -0.86920620
S       -0.82977701       4.12798127       2.65621008       0.34675459       0.23145994       0.28508519
C        1.49777680       1.05154328      -0.55243729      -2.07515966      -2.15520819      -2.28236289
C        0.24710059       0.63687366      -0.96718548       2.40253876       0.17893101       0.85949521
C        0.66976377       3.68670210       1.81695702       1.97621203      -1.35631425      -0.97013384
C        1.67568791       2.09571847       0.44044759      -0.34223935       1.79044238       0.93703540
C        2.92883574       2.52080330       0.95427620       0.18071141       0.19472589       0.40472365
C        0.81739431      -0.45731083       3.44780292       0.41876067      -0.81029447       0.25286431
C       -1.52997387      -0.34827057       2.94871523       0.98469818       0.09298331       0.61679662
C        0.83083264       0.87592308       3.86094226      -0.90330146       0.45282905      -0.22303934
C       -1.51953757       0.99380573       3.34499802       0.84421292      -0.42799625      -0.08692401
C       -0.33576667      -1.11045900       3.00001158      -0.30493662       1.96032241      -0.19186654
C       -0.34681261       1.63779464       3.77374663       0.02633229      -1.06285636      -0.15327813
N       -0.28594513      -1.06582896      -2.92717919       0.25987258       1.95057634      -1.86253459
C        4.26219427       1.87455543       0.58250960      -0.53304688      -0.33837753       0.65788486
C       -0.39107621       3.09556517       4.11377301       0.03011789      -0.07408748       0.05306554
C        0.77485444      -1.94345884      -3.47825322      -0.05013167       0.46009385       2.39139413
C       -1.70464094      -1.33283643      -3.26138768       1.08117265      -0.28312563       1.69672742
H        2.39386367       0.61570996      -0.99365363      -0.22399601       0.04724941       0.20024910
H       -0.61110687       1.12444608      -0.49377618      -0.37755425      -0.67871188      -0.67520631
H        1.71916949      -1.06846657       3.50865879      -0.13417181       0.37334966      -0.06678668
H       -2.46283901      -0.77920666       2.67121734      -0.36295252      -0.38625012      -0.36682620
H        1.72430086       1.37795952       4.23323574      -0.07954274      -0.42515964      -0.20723092
H       -2.41598928       1.58610162       3.27899636      -0.23926093      -0.07619148      -0.04569535
H        4.61796057       2.18983659      -0.38928876       0.06370313       0.20663685      -0.12534124
H        5.00515329       2.06589898       1.34973295       0.01251570       0.55781549      -0.07306298
H        4.22022139       0.78407541       0.57461184      -0.44337190       0.03831128      -0.20586738
H       -1.12009108       3.25780162       4.89823331      -0.29775501       0.28432025      -0.08644836
H        0.55654186       3.45928129       4.48590555       0.19234273      -0.00213412       0.02630671
H        1.17316161      -2.62172298      -2.67165837      -0.09059626       0.47836758      -0.94231898
H        1.57574706      -1.34829120      -3.93583474      -0.02731967       0.03897601       0.56846628
H        0.41687377      -2.55347471      -4.28643927      -0.77331490      -0.45077110      -0.17865229
H       -2.06485136      -2.26253657      -2.80284724      -0.26581192       0.05932874      -0.17383041
H       -1.82380660      -1.40227465      -4.34981570       0.42835858       0.01149242       0.10085764
H       -2.31976707      -0.49716876      -2.92694506       0.10649022      -0.10246493       0.03154668
