10
Properties=species:S:1:pos:R:3:forces:R:3 id=34534 bond=C-O smiles="[H:6][C:3]([H:7])([H:8])[S:2][C:4]([H:9])([H:10])[O:1][H:5]" dataset="DES370K Monomers" energy=-15055.876733268264 pbc="F F F"
O       -0.66444716       0.57523940      -1.45991592       2.56939622      -0.72640221       1.27238845
S        0.89921308      -0.30301044       1.19152884      -0.53798313       0.03089800      -1.60301920
C       -0.28140354      -1.72215450       1.14858667      -0.31430664       0.07238396      -0.73914359
C        1.14910919       0.03290506      -0.58109321      -1.63548133       0.66906145       1.05064260
H       -1.15378756       1.22276676      -0.89950160       1.18081995      -0.70218211      -0.09257345
H        0.22951242      -2.64292860       0.82845036      -0.25920410       0.45341986      -0.02111643
H       -0.70770585      -1.90559542       2.14032201       0.38554804       0.35436064      -0.09419034
H       -1.13325488      -1.46262861       0.46929357       0.96445482      -0.22720240       0.47116445
H        1.58571124      -0.81110216      -1.11805947      -1.34507904      -0.09385927      -0.41490452
H        1.87705732       0.84821236      -0.71485080      -1.00891677       0.16848922       0.16908476
