21
Properties=species:S:1:pos:R:3:forces:R:3 id=2495 bond=C-N smiles="[H:10][C:3]([H:11])([H:12])[N:1]([H:8])[C:5]([H:16])([H:17])[C:7]([H:20])([H:21])[C:6]([H:18])([H:19])[N:2]([H:9])[C:4]([H:13])([H:14])[H:15]" dataset="DES370K Monomers" energy=-8393.894719887154 pbc="F F F"
N       -0.24587161       1.19623715      -2.08578628      -1.41516338       1.29521058       1.40563546
N       -0.61578243      -0.92128145       1.72570891       0.57617501       2.47261244       2.53451327
C       -0.07177406       1.84174568      -3.40998679       1.21199565      -1.38491380       0.57033403
C        0.56429770      -0.97144759       3.76991682      -0.44904553      -0.79756614      -0.59285814
C        0.06363690      -0.22762304      -1.92002898      -1.23510935       1.37844190      -2.08752932
C        0.13420096      -0.39714187       0.57590962      -0.64961008      -4.55371521       0.35177416
C       -0.64214462      -0.85291218      -0.72861909       3.05671355       2.82776530       1.13327366
H       -1.22328081       1.33518619      -1.71297436       1.57533242       0.03775003      -0.88068857
H       -0.91091385      -1.83752924       1.50427086       0.26394036      -1.53799201       0.37212566
H       -0.66173118       1.30918771      -4.19056206       0.66552507       0.13341274       0.07842182
H        1.08950398       1.84104854      -3.65349440      -2.58143404       0.23236339       0.24847078
H       -0.51108348       2.83594317      -3.33268695       0.54683314       0.08709324      -0.08320130
H        1.57522192      -1.30699081       3.51053744      -0.53061043       0.09495703      -0.35735158
H        0.11061397      -1.66465396       4.52701764      -0.08095884       0.30207621      -1.44780615
H        0.60399326      -0.00258527       4.28266196      -0.41253871       0.13918761      -1.09988902
H        1.16726098      -0.29405039      -1.99073284      -0.69517708      -0.68821022       0.24699610
H       -0.47030553      -0.65725934      -2.78219180       0.91667410      -0.80426553      -0.26713098
H        0.21907515       0.62905402       0.61032082       0.24662975       2.09835208       0.04598287
H        1.09238908      -0.91855245       0.57372493       0.42246081       0.52402204      -0.44218723
H       -0.67493558      -1.84679573      -0.99016254       0.21525923      -2.62038527       0.45742720
H       -1.62952890      -0.53225970      -0.62141760      -1.64760543       0.76502573      -0.18661984
