21
Properties=species:S:1:pos:R:3:forces:R:3 id=2495 bond=C-N smiles="[H:10][C:3]([H:11])([H:12])[N:1]([H:8])[C:5]([H:16])([H:17])[C:7]([H:20])([H:21])[C:6]([H:18])([H:19])[N:2]([H:9])[C:4]([H:13])([H:14])[H:15]" dataset="DES370K Monomers" energy=-8397.392322661944 pbc="F F F"
N       -0.04548064       1.18771837      -1.73865664      -1.41183257       1.30232733       1.40974055
N       -0.41539146      -0.92980023       2.07283855       0.49519746       1.48758481       2.49233892
C        0.12861691       1.83322690      -3.06285715       1.20903594      -1.38291113       0.57664455
C        0.36390673      -0.96292881       3.42278718      -0.84312262      -0.51281603      -1.48151260
C        0.26402787      -0.23614182      -1.57289934      -1.30398048       1.29510680      -2.12042811
C        0.33459193      -0.40566065       0.92303926      -1.32937423      -4.46330484      -0.14912074
C       -0.44175365      -0.86143096      -0.38148945       3.29679208       3.06385908       1.16583633
H       -1.02288984       1.32666741      -1.36584472       1.57419411       0.03415140      -0.88172183
H       -0.71052288      -1.84604802       1.85140050      -0.19462887      -0.98273376       0.00397274
H       -0.46134021       1.30066893      -3.84343242       0.66577661       0.13229562       0.07870264
H        1.28989495       1.83252976      -3.30636476      -2.58089678       0.23194846       0.24797983
H       -0.31069251       2.82742439      -2.98555731       0.54664727       0.08932146      -0.08500390
H        1.37483095      -1.29847203       3.16340780       0.05192014       0.06170811       0.52108807
H       -0.08977700      -1.65613518       4.17988800       0.22670741       0.41873662      -1.10745383
H        0.40360229       0.00593351       3.93553232      -0.05264530      -0.05301489      -0.61639100
H        1.36765195      -0.30256917      -1.64360320      -0.68815305      -0.68537507       0.24207600
H       -0.26991456      -0.66577812      -2.43506216       0.93746111      -0.78886372      -0.29331994
H        0.41946612       0.62053524       0.95745046       0.27660555       2.12449954      -0.00445636
H        1.29278005      -0.92707123       0.92085457       0.54366927       0.49310324      -0.30091452
H       -0.47454461      -1.85531451      -0.64303290       0.22087975      -2.63142463       0.46148590
H       -1.42913793      -0.54077848      -0.27428796      -1.64067908       0.76397639      -0.15982930
