21
Properties=species:S:1:pos:R:3:forces:R:3 id=2495 bond=C-N smiles="[H:10][C:3]([H:11])([H:12])[N:1]([H:8])[C:5]([H:16])([H:17])[C:7]([H:20])([H:21])[C:6]([H:18])([H:19])[N:2]([H:9])[C:4]([H:13])([H:14])[H:15]" dataset="DES370K Monomers" energy=-8383.81172051711 pbc="F F F"
N        0.11037900       1.18109265      -1.46866691      -1.41524184       1.28240550       1.44910133
N       -0.25953182      -0.93642595       2.34282828     -41.54466900       1.34352433     -71.86646515
C        0.28447655       1.82660118      -2.79286742       1.21918619      -1.37136232       0.55510262
C        0.20804709      -0.95630309       3.15279745      38.69180430      -1.24199551      70.62848604
C        0.41988751      -0.24276754      -1.30290961      -1.33708496       1.27541006      -2.15672642
C        0.49045157      -0.41228637       1.19302899      -3.00483037      -3.64753930      -2.59629923
C       -0.28589401      -0.86805668      -0.11149972       3.27211887       3.19188831       0.95852440
H       -0.86703020       1.32004169      -1.09585499       1.56900132       0.03560985      -0.89184310
H       -0.55466324      -1.85267374       2.12139023      -1.31913753      -0.86958856      -2.25966335
H       -0.30548057       1.29404321      -3.57344269       0.66714101       0.13375090       0.08792893
H        1.44575459       1.82590404      -3.03637503      -2.58557252       0.23273884       0.25092751
H       -0.15483287       2.82079867      -2.71556758       0.54846902       0.08620566      -0.08303851
H        1.21897131      -1.29184631       2.89341807       3.61709200      -0.89556264       2.78690707
H       -0.24563664      -1.64950946       3.90989827       0.78373551       0.42583880       0.86532314
H        0.24774265       0.01255923       3.66554259       1.22930848       0.97262421       1.55168562
H        1.52351159      -0.30919489      -1.37361347      -0.68133435      -0.68658463       0.23862272
H       -0.11405492      -0.67240384      -2.16507243       0.95130692      -0.78753369      -0.29130325
H        0.57532576       0.61390952       1.22744019       0.30701075       2.17213137       0.15140389
H        1.44863969      -0.93369695       1.19084430       0.40834688       0.22456889       0.36099112
H       -0.31868497      -1.86194023      -0.37304317       0.23756922      -2.62846007       0.46528255
H       -1.27327829      -0.54740420      -0.00429823      -1.61439446       0.75206195      -0.20465230
