21
Properties=species:S:1:pos:R:3:forces:R:3 id=2495 bond=C-N smiles="[H:10][C:3]([H:11])([H:12])[N:1]([H:8])[C:5]([H:16])([H:17])[C:7]([H:20])([H:21])[C:6]([H:18])([H:19])[N:2]([H:9])[C:4]([H:13])([H:14])[H:15]" dataset="DES370K Monomers" energy=-8391.085300266443 pbc="F F F"
N        0.08254692       1.18227582      -1.51687936      -1.41426874       1.28862365       1.43766204
N       -0.28736390      -0.93524278       2.29461583     -22.04772124       1.05866062     -37.55073799
C        0.25664447       1.82778435      -2.84107987       1.21607885      -1.37424175       0.56170448
C        0.23587917      -0.95748626       3.20100990      20.02894463      -0.69624635      36.81815095
C        0.39205543      -0.24158437      -1.35112206      -1.33410446       1.27468535      -2.14979974
C        0.46261949      -0.41110320       1.14481654      -2.64587432      -4.00527433      -1.70081226
C       -0.31372609      -0.86687351      -0.15971217       3.30840091       3.17414601       1.01313669
H       -0.89486228       1.32122486      -1.14406744       1.57031967       0.03488661      -0.88915200
H       -0.58249532      -1.85149057       2.07317778      -1.01014192      -0.77390968      -1.58055052
H       -0.33331265       1.29522638      -3.62165514       0.66679662       0.13327417       0.08534579
H        1.41792251       1.82708721      -3.08458748      -2.58420869       0.23246006       0.25000791
H       -0.18266495       2.82198184      -2.76378003       0.54795171       0.08728600      -0.08380492
H        1.24680339      -1.29302948       2.94163052       2.45857785      -0.51231803       2.19904132
H       -0.21780456      -1.65069263       3.95811072       0.67917904       0.46492839       0.19347390
H        0.27557473       0.01137606       3.71375504       0.87513879       0.50300503       0.91058585
H        1.49567951      -0.30801172      -1.42182592      -0.68282772      -0.68598945       0.23919838
H       -0.14188700      -0.67122067      -2.21328488       0.94822264      -0.78674949      -0.29417611
H        0.54749368       0.61509269       1.17922774       0.31512567       2.16098693       0.09410831
H        1.42080761      -0.93251378       1.14263185       0.48854434       0.29647214       0.16645693
H       -0.34651705      -1.86075706      -0.42125562       0.23249010      -2.62984181       0.46661668
H       -1.30111037      -0.54622103      -0.05251068      -1.61767617       0.75534820      -0.18643228
