10
Properties=species:S:1:pos:R:3:forces:R:3 id=35473 bond=N-P smiles="[H:10][N:7]([P:8]([F:1])[F:2])[P:9]([F:3])([F:4])([F:5])[F:6]" dataset=PubChem energy=-36394.78331765441 pbc="F F F"
F        1.70958104      -0.30350161      -2.23994036      -0.17934336      -1.98518093      -1.22421853
F        2.34221162       1.70885682      -0.36395474       0.55084555       0.74111811       1.75543982
F       -1.23932467      -0.13371308       1.11865115      -0.12978020       1.73704898       0.64470250
F       -0.01606689       2.32618074       0.80759016      -0.40508661      -3.62557554       1.83275159
F        1.59234585       0.69067458       2.02064610      -2.45080797       0.65999424      -0.50667623
F       -0.53100489       0.89961999       2.95515823       1.29063304       0.72531872      -2.68469193
N        0.65342152      -0.12562706       0.07341019     -21.62455175     -13.48976108      23.41192069
P        1.45193806       0.38221017      -0.76992901      23.34806635      15.60185110     -26.76023532
P        0.07609137       0.80780298       1.41478932      -0.36897013       0.42868068       3.58124029
H       -0.14621268      -0.57837756      -0.35960442      -0.03872780      -0.78790904      -0.05431094
