10
Properties=species:S:1:pos:R:3:forces:R:3 id=35473 bond=N-P smiles="[H:10][N:7]([P:8]([F:1])[F:2])[P:9]([F:3])([F:4])([F:5])[F:6]" dataset=PubChem energy=-36399.51654454876 pbc="F F F"
F        2.15131359      -0.02257039      -2.70646843       0.10076171       1.42813993       1.32433358
F        2.78394417       1.98978804      -0.83048281      -0.88596623      -1.55111043      -1.23858474
F       -1.68105722      -0.41464430       1.58517922      -2.01780191       1.72384009       1.53972004
F       -0.45779944       2.04524952       1.27411823      -0.40035320      -2.23199677       1.89635190
F        1.15061330       0.40974336       2.48717417      -1.49430751       1.33868510       0.34768953
F       -0.97273744       0.61868877       3.42168630       1.24017627       0.92852892      -2.31945959
N        0.21168897      -0.40655828       0.53993826       1.61071782       2.62792063      -0.93258618
P        1.89367061       0.66314139      -1.23645708      -0.06366422      -0.65719684       1.11573834
P       -0.36564118       0.52687176       1.88131739       1.50385478      -3.43617623      -1.74836470
H       -0.58794523      -0.85930878       0.10692365       0.40832723      -0.15216250       0.05026807
