10
Properties=species:S:1:pos:R:3:forces:R:3 id=35473 bond=N-P smiles="[H:10][N:7]([P:8]([F:1])[F:2])[P:9]([F:3])([F:4])([F:5])[F:6]" dataset=PubChem energy=-36399.385636977444 pbc="F F F"
F        2.17679816      -0.00636281      -2.73338351       0.06965511       1.56042482       1.40277317
F        2.80942874       2.00599562      -0.85739789      -0.96930479      -1.60588435      -1.34856037
F       -1.70654179      -0.43085188       1.61209430      -2.06109736       1.71000098       1.57023373
F       -0.48328401       2.02904194       1.30103331      -0.40104740      -2.22844018       1.89432275
F        1.12512873       0.39353578       2.51408925      -1.49956570       1.32939489       0.35366383
F       -0.99822201       0.60248119       3.44860138       1.23667486       0.93065675      -2.31084363
N        0.18620440      -0.42276586       0.56685334       1.62013501       2.60469124      -0.96178524
P        1.91915518       0.67934897      -1.26337216       0.12212916      -0.72440979       1.11823342
P       -0.39112575       0.51066418       1.90823247       1.49492525      -3.42511421      -1.76867517
H       -0.61342980      -0.87551636       0.13383873       0.38866271      -0.13353417       0.08172371
