10
Properties=species:S:1:pos:R:3:forces:R:3 id=35473 bond=N-P smiles="[H:10][N:7]([P:8]([F:1])[F:2])[P:9]([F:3])([F:4])([F:5])[F:6]" dataset=PubChem energy=-36400.41001003814 pbc="F F F"
F        1.82850903      -0.22786628      -2.36554407       0.04521272      -1.53281140      -1.08002801
F        2.46113961       1.78449215      -0.48955845       0.47640542       0.54568275       1.36969961
F       -1.35825266      -0.20934841       1.24425486      -0.69655055       1.81716045       0.92901022
F       -0.13499488       2.25054541       0.93319387      -0.32470237      -3.28292099       1.81005493
F        1.47341786       0.61503925       2.14624981      -2.04916345       1.01501910      -0.29466665
F       -0.64993288       0.82398466       3.08076194       1.30453788       0.80112203      -2.63965066
N        0.53449353      -0.20126239       0.19901390      -0.63751309       0.49123439       1.67473007
P        1.57086605       0.45784550      -0.89553272       1.05631435       1.82947634      -2.77986886
P       -0.04283662       0.73216765       1.54039303       0.49575651      -1.26307356       1.34326329
H       -0.26514067      -0.65401289      -0.23400071       0.33794366      -0.42143959      -0.33584125
