28
Properties=species:S:1:pos:R:3:forces:R:3 id=48636 bond=N-N smiles="[H:27][C:9]1([C:10]([N:2]1[N:1]([C:7]([H:23])([H:24])[C:3]([H:11])([H:12])[H:13])[C:8]([H:25])([H:26])[C:4]([H:14])([H:15])[H:16])([C:5]([H:17])([H:18])[H:19])[C:6]([H:20])([H:21])[H:22])[H:28]" dataset=PubChem energy=-11573.851920690657 pbc="F F F"
N        1.25355302       0.56092463       0.80262888       0.23762629      -3.78267697       0.14708632
N        0.20075261       1.29519753       0.10055176       1.50033730       1.13064120      -0.35684444
C        2.33194058      -1.72966545       0.82808859      -1.08540344      -0.61439871      -2.47745273
C        2.02041667       2.33979410       2.12127507       1.19863512      -0.13674735       0.11339615
C       -1.62527014      -0.52682032       0.56665636      -2.00215078       0.87625545       0.05310488
C       -1.69967533       1.19272516      -1.46680315       1.74692316      -0.91550709      -1.66228054
C        1.72100883      -0.61915868      -0.02050018      -1.03626538       0.17537619      -0.00049968
C        2.51555436       1.22819466       1.24904454      -1.72139212       0.73590663      -0.36638170
C       -0.86927463       1.95353017       0.81003196      -0.77790819      -0.69666724       1.25074829
C       -1.18377722       0.80355320      -0.13164177       0.83214666       0.39302311       2.13115498
H        1.61229985      -2.05986422       1.50488288      -0.97408580      -0.73877964       1.31897607
H        2.73304372      -2.58658188       0.24930684      -0.65685000       0.49807014      -0.06611799
H        3.15779834      -1.36991590       1.29413403       2.26385104       1.05286038       1.78180032
H        1.57850927       3.08526952       1.48011661      -1.03294446       0.03327902       0.32734137
H        1.43949597       1.73980338       2.83863414      -0.36933443       1.37120670       0.01231120
H        2.85354810       2.85726696       2.57157386       0.23523524       0.00791469       0.58645959
H       -0.85727490      -0.98600592       1.17435948       0.24525077       0.26821644       0.06415719
H       -2.60169578      -0.45409985       1.23001704       1.98751147       0.22375466      -1.36332405
H       -1.88531257      -1.20640423      -0.23638453       0.00820618      -0.34531321      -0.02532604
H       -2.47052074       1.92473719      -1.45220145      -0.90888232       0.20990790       0.15078790
H       -1.94911409       0.28620184      -2.02585514      -0.44134108       0.31202035      -0.14291449
H       -0.84685303       1.65595089      -2.02839359      -0.74569294      -0.32107551       0.51785890
H        0.93075105      -1.01316422      -0.67115247      -0.13198627       0.22295171       0.48731127
H        2.48056453      -0.30618268      -0.69591593       0.72252689       0.60076697      -0.83517507
H        3.07973461       1.53942508       0.38957307       0.45723752       0.41399484      -0.52552538
H        3.16687231       0.59120074       1.86626351      -0.75672417      -0.33706794      -0.50801739
H       -1.18209053       1.54550169       1.80246297       0.91866813       0.84175574      -0.36225314
H       -1.06333376       3.05832885       0.68267288       0.28415485      -1.48128945      -0.24911989
