28
Properties=species:S:1:pos:R:3:forces:R:3 id=48636 bond=N-N smiles="[H:27][C:9]1([C:10]([N:2]1[N:1]([C:7]([H:23])([H:24])[C:3]([H:11])([H:12])[H:13])[C:8]([H:25])([H:26])[C:4]([H:14])([H:15])[H:16])([C:5]([H:17])([H:18])[H:19])[C:6]([H:20])([H:21])[H:22])[H:28]" dataset=PubChem energy=-11573.903014395473 pbc="F F F"
N        1.23032948       0.57712183       0.78714188       1.43201071      -4.63878393       0.81406318
N        0.22397615       1.27900033       0.11603876       0.31298831       1.99471740      -1.06003113
C        2.30871704      -1.71346825       0.81260159      -1.07803362      -0.62004769      -2.50098850
C        1.99719313       2.35599130       2.10578807       1.20550041      -0.13078425       0.10977411
C       -1.60204660      -0.54301752       0.58214336      -1.99443545       0.88068874       0.04607317
C       -1.67645179       1.17652796      -1.45131615       1.73330321      -0.90517406      -1.65737234
C        1.69778529      -0.60296148      -0.03598718      -0.92650341       0.07318546       0.08345436
C        2.49233082       1.24439186       1.23355754      -1.67060446       0.65648102      -0.29021213
C       -0.84605109       1.93733297       0.82551896      -0.90774255      -0.63077008       1.17987896
C       -1.16055368       0.78735600      -0.11615477       0.78050605       0.47478803       2.10586759
H        1.58907631      -2.04366702       1.48939588      -0.97294732      -0.73805048       1.31736792
H        2.70982018      -2.57038468       0.23381984      -0.65417531       0.49571871      -0.06245106
H        3.13457480      -1.35371870       1.27864703       2.26306030       1.05370359       1.78177950
H        1.55528573       3.10146672       1.46462961      -1.02684343       0.03806481       0.33356635
H        1.41627243       1.75600058       2.82314714      -0.36816939       1.37011538       0.01667468
H        2.83032456       2.87346416       2.55608686       0.23479270       0.00347958       0.58210770
H       -0.83405136      -1.00220312       1.18984648       0.24447181       0.26341685       0.06839660
H       -2.57847224      -0.47029705       1.24550404       1.99306439       0.22433804      -1.36101415
H       -1.86208903      -1.22260143      -0.22089753       0.00816935      -0.34559627      -0.02643220
H       -2.44729720       1.90853999      -1.43671445      -0.91077633       0.20634326       0.14474026
H       -1.92589055       0.27000464      -2.01036814      -0.44397632       0.30860988      -0.14404159
H       -0.82362949       1.63975369      -2.01290659      -0.74688213      -0.32298807       0.52043663
H        0.90752751      -0.99696702      -0.68663947      -0.13403543       0.23295993       0.49434378
H        2.45734099      -0.28998548      -0.71140293       0.72135411       0.61408390      -0.83839388
H        3.05651107       1.55562228       0.37408607       0.44520452       0.41870805      -0.54494151
H        3.14364877       0.60739794       1.85077651      -0.75317165      -0.32077409      -0.51365704
H       -1.15886699       1.52930449       1.81794997       0.94088662       0.83357882      -0.34653625
H       -1.04011022       3.04213165       0.69815988       0.27025100      -1.49217150      -0.25191244
