37
Properties=species:S:1:pos:R:3:forces:R:3 id=46932 bond=C-C smiles="[H:33][C:10]1([C:8]([C:12]([C:9]([C:11]2([C:13]1([C:14]([O:1][N:2]2[C:7]([H:27])([H:28])[C:3]([H:15])([H:16])[H:17])([C:5]([H:21])([H:22])[H:23])[C:6]([H:24])([H:25])[H:26])[H:37])[H:35])([H:31])[H:32])([H:36])[C:4]([H:18])([H:19])[H:20])([H:29])[H:30])[H:34]" dataset=PubChem energy=-16334.284140812897 pbc="F F F"
O        0.27280865       0.79001594      -1.53801684       3.86225970      -5.70966007      -0.48168027
N        1.37087415       0.85502626      -0.63754062       3.29724252      -1.90398892       1.36704090
C        2.53303890      -1.31671076      -1.10316793      -2.26969326       1.58851407      -1.03942895
C        1.71953027      -0.73207311       2.83250625      -0.18454591       0.80509580       0.52759509
C       -2.08865114       1.17665805      -1.36504082      -1.69761309      -4.00190026       1.51235695
C       -0.56754827       2.42387089      -1.43798355      14.96601313     141.76145947     -70.27208524
C        2.66280631       0.27753444      -1.08379976      -2.23549620      -1.54544226      -0.67892417
C       -0.35657658       0.79575944       2.66254910      -2.06223989      -1.36477266       2.29793770
C        1.83088187       1.58734836       1.90585585       1.29334773       0.09719739      -0.26304049
C       -0.90291234       0.63581447       1.26311524       0.39255674      -0.97859214      -0.75341563
C        1.19050829       1.72794373       0.49210454      -1.57069816       1.55154367      -0.75172766
C        1.13511531       0.71054186       2.97042568       1.26596591      -0.02118125      -2.28875872
C       -0.33663584       1.75233777       0.40105058      -0.88146174      -1.52600045       3.71900549
C       -0.65612371       1.68465657      -1.07314341     -18.63023826    -135.36132242      69.14483997
H        1.70832555      -1.54095845      -1.82532398       0.63513355       0.00483219       0.57554016
H        2.19989673      -1.71307497      -0.13807915       0.31383524       0.35634365      -0.13640981
H        3.38820151      -1.82652192      -1.44981806       1.18502414      -0.41125983      -0.27070338
H        1.43564705      -1.08035080       1.83859428       0.80736955      -0.14809083      -0.06008530
H        1.12977199      -1.35154562       3.51054104       0.53565340      -0.25903187       0.24766555
H        2.85356311      -0.71157651       3.09309776      -2.14013016      -0.34959625      -0.73641512
H       -2.24712487       0.05390836      -1.19774298      -0.06626729       1.58643650       0.19179967
H       -2.78585120       1.83896895      -0.81313197       0.33103859      -0.79488336      -0.06846142
H       -2.27960844       1.32491998      -2.40340225       0.05265462       0.24518189      -0.79198322
H        0.26249248       3.05792007      -1.13355008       1.00784210       0.84358911      -1.23219090
H       -1.40455890       3.12758598      -1.13565078       0.89005845       0.54417951      -1.32990598
H       -0.55736840       2.14888737      -2.57011512       0.09798443       2.85087132       0.09352194
H        3.46119503       0.42646213      -0.40034584       0.27390036       1.01978479       0.88487228
H        2.93944434       0.72364840      -2.05397765       0.02436479      -0.51464606       0.19038260
H       -0.95822724       1.59452153       3.11833294       0.96555495       0.43056842       0.12687968
H       -0.78828259      -0.06761990       3.17326601      -0.10558221      -0.12364022       0.38476682
H        2.80829219       1.16466139       1.60812195      -0.05354355       0.18749955       0.73955352
H        2.07090155       2.63049908       2.32550557      -0.66422616      -1.42066510      -0.88791562
H       -0.60127874      -0.41063528       0.92633565      -0.49949612       1.45060673      -0.16904015
H       -2.02942725       0.72076148       1.24077602       1.28848195      -0.37056032       0.32762680
H        1.57818655       2.70676012       0.25507843       0.10526274       0.78181841      -0.46095648
H        1.48338865       1.02295948       3.94406088      -0.70900844       0.51967780       0.33650419
H       -0.78090401       2.66959961       0.78856276       0.18229411       0.17699442       0.00763043
