13
Properties=species:S:1:pos:R:3:forces:R:3 id=18478 bond=C-N smiles="[H:9][C:4]1([C:6]([C:5]([S:2][S:1]1)([H:11])[H:12])([H:13])[N:3]([H:7])[H:8])[H:10]" dataset=PubChem energy=-26385.87720787653 pbc="F F F"
S       -0.86848092      -0.70835592      -0.67542060       0.19589596       0.05251937       0.12157346
S       -0.65889441      -0.98686649       1.38055835      -0.03509547      -0.00716675       1.09730387
N        1.85583774       0.11271859       0.45659411      31.22274271     -30.33550225      -3.07095486
C        0.24016479       0.72073887      -0.74551626      -1.16762444       2.32541811      -1.14127654
C        0.19811857       0.59076041       1.75416366      -3.27127282       1.98210311       0.30934137
C        1.09461201       0.82747571       0.53066140     -28.20418130      28.47635524       1.95196040
H        1.43857817      -0.74496382       0.08874572       1.58903348      -1.13912462       0.53078176
H        2.31809441      -0.01241773       1.34729279       1.05001592      -1.09384813      -0.34939470
H        0.87138389       0.64571018      -1.65407820      -0.14569527      -0.09820793       0.78484698
H       -0.36232769       1.62115107      -0.87472423      -0.12366367      -0.17307251       0.01495978
H        0.72124297       0.57801762       2.71970705       0.18650863      -0.51422031      -0.50632590
H       -0.51395297       1.44254599       1.83683995      -0.00861832      -0.72335134       0.10462951
H        1.57113803       1.82922302       0.61462959      -1.28574130       1.25224223       0.15168658
