13
Properties=species:S:1:pos:R:3:forces:R:3 id=18478 bond=C-N smiles="[H:9][C:4]1([C:6]([C:5]([S:2][S:1]1)([H:11])[H:12])([H:13])[N:3]([H:7])[H:8])[H:10]" dataset=PubChem energy=-26388.747682904184 pbc="F F F"
S       -1.36246783      -0.24452418      -0.62735566       0.04684816       0.08750114       0.10897098
S       -1.15288132      -0.52303475       1.42862329      -0.05543378       0.04569799       0.95139674
N        2.34982465      -0.35111315       0.40852917      -1.48314368       2.58644940      -1.17053710
C       -0.25382212       1.18457061      -0.69745132       1.56889644      -0.21627029      -0.22528734
C       -0.29586834       1.05459215       1.80222860       0.17900457      -0.11937279      -0.87272943
C        0.60062510       1.29130745       0.57872634       0.24875252      -0.45533583       0.21150381
H        1.93256508      -1.20879556       0.04068078      -0.34351125       0.36354599       0.75846740
H        2.81208132      -0.47624947       1.29922785      -0.67782914      -0.15206693       0.36678980
H        0.37739698       1.10954192      -1.60601326      -0.26535036      -0.07777471       0.63061738
H       -0.85631460       2.08498281      -0.82665929       0.09432944       0.09027374       0.32339317
H        0.22725606       1.04184936       2.76777199      -0.03369099      -0.50556851      -0.47676001
H       -1.00793988       1.90637773       1.88490489       0.26084423      -0.50620410      -0.32193761
H        1.07715112       2.29305476       0.66269453       0.46103333      -1.13584843      -0.28321055
