36
Properties=species:S:1:pos:R:3:forces:R:3 id=10726 bond=C-O smiles="[H:17][C:6]([H:18])([H:19])[N:4]([C:7]([H:20])([H:21])[H:22])[C:12]([H:31])([H:32])[C:10]([H:27])([H:28])[O:3][C:11]([H:29])([H:30])[C:14]([H:35])([H:36])[C:13]([H:33])([H:34])[N:5]([C:8]([H:23])([H:24])[O:1][H:15])[C:9]([H:25])([H:26])[O:2][H:16]" dataset=PubChem energy=-18821.413071588577 pbc="F F F"
O       -4.06878738       0.85128881      -3.61603060       0.40283495       0.37260459       1.79582287
O       -0.90923838       3.55979781      -3.46316185      -0.01029974       1.14982004       0.50223951
O        0.75915543      -0.32735641       1.03999046       2.51079989      -1.50921813       0.69468022
N        3.27880701      -0.47237701       3.99065585       0.33603406       1.32308255       1.73368769
N       -1.98288946       1.73691182      -2.55569187      -0.75696806      -0.97894734      -0.26423930
C        3.88865384      -1.76060105       4.07342644      -0.09445794      -1.30781677      -0.63031382
C        3.26385340       0.08953013       5.38437123       1.49211838       0.18150961      -2.12291415
C       -3.32209472       1.13993334      -2.38173523       2.14810106       0.42132357      -2.33784173
C       -1.92971234       3.20474701      -2.51094332       1.78417725      -2.38695726      -0.12682728
C        2.17064652      -0.89956511       1.74466366      -2.59600794       1.63064962       0.33478877
C        0.86197434       0.37003889      -0.23282513       1.71337556       1.09772399       2.85155095
C        2.11777219      -0.14121026       3.13799424       1.63192447       0.04766819      -1.01122178
C       -0.77923457       0.90846198      -2.13331737      -0.60343569       2.86350554       1.75782083
C       -0.52109818       1.02950110      -0.58903554       3.50809812       0.01363603      -1.58909735
H       -3.44779019       0.57880238      -4.27274838       0.67107267      -0.29358190      -0.50620276
H       -0.83338575       2.98198562      -4.25402536      -0.93392955       0.28295640       1.34053131
H        4.76874193      -1.71500492       4.77064700      -0.66814941       0.02824831      -1.00650696
H        3.21330913      -2.53170491       4.52320856       0.32484088       0.14543582      -0.38016631
H        4.20532879      -2.09084392       3.05032749      -0.10776547      -0.00187674       1.00284354
H        3.09258779       1.12760924       5.26924509      -0.37457255       1.16496736       0.19007383
H        4.29386148      -0.01400510       5.75593276      -0.35164242       0.09555352      -0.04333087
H        2.62551793      -0.29977787       6.14168210      -1.02051000      -0.81738296       0.25045773
H       -3.90731315       1.82608013      -1.89799681      -1.67645775       1.64083299       1.16965793
H       -3.19160966       0.32861166      -1.73192825      -0.14315975      -1.74636360       0.44168140
H       -2.90415673       3.59760027      -2.66563406      -0.87006483       0.20107544      -1.14587889
H       -1.74879197       3.57858591      -1.47112181       1.11433625      -0.03493976      -0.93212311
H        3.13439068      -0.70635963       1.24681855      -0.79499939       0.55784126      -0.36532240
H        2.08651873      -2.00115371       1.79218299      -0.48515555       0.76798794       0.13176152
H        1.39319689      -0.22386641      -0.93155971      -0.45116785      -1.11807048      -1.28548165
H        1.70678444       1.11469047      -0.00513935      -1.48707148      -0.03194895      -0.65111963
H        2.07235393       0.97957479       2.96852250       0.55147301      -1.23942575      -0.14180265
H        1.22233185      -0.29720319       3.66716285      -1.49589447      -0.88751346       0.36747613
H       -0.94507114      -0.10822530      -2.40081420      -0.12656564      -0.66364137      -0.29561560
H        0.16470067       1.29122691      -2.56138554      -0.81524580      -0.19494754      -0.46356011
H       -1.27416222       0.64271089      -0.00788542      -1.68582967      -1.22580475       1.26166412
H       -0.32561539       2.03470974      -0.23327043      -0.63981996       0.45266318      -0.53280836
