36
Properties=species:S:1:pos:R:3:forces:R:3 id=10726 bond=C-O smiles="[H:17][C:6]([H:18])([H:19])[N:4]([C:7]([H:20])([H:21])[H:22])[C:12]([H:31])([H:32])[C:10]([H:27])([H:28])[O:3][C:11]([H:29])([H:30])[C:14]([H:35])([H:36])[C:13]([H:33])([H:34])[N:5]([C:8]([H:23])([H:24])[O:1][H:15])[C:9]([H:25])([H:26])[O:2][H:16]" dataset=PubChem energy=-18815.441087365572 pbc="F F F"
O       -3.78829877       0.73758067      -3.47599939       0.43147824       0.38291033       1.83273661
O       -0.62874977       3.44608967      -3.32313064      -0.01476883       1.12556781       0.52816895
O        1.03964404      -0.44106455       1.18002167     -39.83643828      17.00909931     -24.46912572
N        2.99831840      -0.35866887       3.85062464       0.15232481       1.76027454       2.37092573
N       -1.70240085       1.62320368      -2.41566066      -0.70256628      -1.00772362      -0.23163706
C        3.60816523      -1.64689291       3.93339523      -0.08784883      -1.24333727      -0.71401490
C        2.98336479       0.20323827       5.24434002       1.64054156       0.07407203      -2.11613194
C       -3.04160611       1.02622520      -2.24170402       2.09949438       0.39651981      -2.37384884
C       -1.64922373       3.09103887      -2.37091211       1.80357432      -2.35092085      -0.14827691
C        1.89015791      -0.78585697       1.60463245      35.06759113     -14.72203340      21.07129388
C        1.14246295       0.25633075      -0.09279392      -0.23348927       1.97660746       1.78386319
C        1.83728358      -0.02750212       2.99796303       4.35737970      -0.46338924       1.80871840
C       -0.49874596       0.79475384      -1.99328616      -0.66887473       2.90588406       1.71217084
C       -0.24060957       0.91579296      -0.44900433       3.54147590       0.06702447      -1.73067247
H       -3.16730158       0.46509424      -4.13271717       0.66502756      -0.29781884      -0.51535170
H       -0.55289714       2.86827748      -4.11399415      -0.93491794       0.29270690       1.32635870
H        4.48825332      -1.60129678       4.63061579      -0.65497982       0.04127134      -0.96604995
H        2.93282052      -2.41799677       4.38317735       0.31231078       0.13192749      -0.38117780
H        3.92484018      -1.97713578       2.91029628      -0.15235948       0.01517740       1.02608624
H        2.81209918       1.24131738       5.12921388      -0.38055495       1.18087663       0.18454694
H        4.01337287       0.09970304       5.61590155      -0.32755065       0.10902342       0.02691665
H        2.34502932      -0.18606973       6.00165089      -1.02996028      -0.81645799       0.29407584
H       -3.62682454       1.71237199      -1.75796560      -1.67107540       1.63920891       1.17087784
H       -2.91112105       0.21490352      -1.59189704      -0.14846504      -1.75104034       0.44570705
H       -2.62366812       3.48389213      -2.52560285      -0.86657841       0.19575339      -1.14159729
H       -1.46830336       3.46487777      -1.33109060       1.10761844      -0.03060204      -0.93077621
H        2.85390207      -0.59265149       1.10678734       0.93271854       0.11626737       0.16981063
H        1.80603012      -1.88744557       1.65215178       1.62394487      -1.38508816       1.36157961
H        1.67368550      -0.33757455      -0.79152850      -0.31245426      -1.35620157      -1.04198579
H        1.98727305       1.00098233       0.13489186      -1.41787096      -0.27025986      -0.30927079
H        1.79186532       1.09328293       2.82849129       0.56167756      -1.12707149      -0.30941895
H        0.94184324      -0.18349505       3.52713164      -1.62397751      -0.98958586       0.32630835
H       -0.66458253      -0.22193344      -2.26078299      -0.12509260      -0.66641041      -0.29503335
H        0.44518928       1.17751877      -2.42135433      -0.81174216      -0.19009538      -0.47647344
H       -0.99367361       0.52900275       0.13214579      -1.64821554      -1.21457480       1.24859223
H       -0.04512678       1.92100160      -0.09323922      -0.65023296       0.46162323      -0.54182951
