36
Properties=species:S:1:pos:R:3:forces:R:3 id=10726 bond=C-O smiles="[H:17][C:6]([H:18])([H:19])[N:4]([C:7]([H:20])([H:21])[H:22])[C:12]([H:31])([H:32])[C:10]([H:27])([H:28])[O:3][C:11]([H:29])([H:30])[C:14]([H:35])([H:36])[C:13]([H:33])([H:34])[N:5]([C:8]([H:23])([H:24])[O:1][H:15])[C:9]([H:25])([H:26])[O:2][H:16]" dataset=PubChem energy=-18820.321348757334 pbc="F F F"
O       -4.16831560       0.89163686      -3.66571909       0.39935022       0.37177707       1.79035538
O       -1.00876660       3.60014586      -3.51285034      -0.01007647       1.15309640       0.49853585
O        0.65962721      -0.28700836       0.99030197       2.63007672      -1.53173361       0.94434052
N        3.37833523      -0.51272506       4.04034434       0.39464492       1.25265524       1.63406389
N       -2.08241768       1.77725987      -2.60538036      -0.76251641      -0.97556723      -0.26562964
C        3.98818206      -1.80094910       4.12311493      -0.09232810      -1.33575620      -0.62060951
C        3.36338162       0.04918208       5.43405972       1.45846362       0.21023722      -2.10720465
C       -3.42162294       1.18028139      -2.43142372       2.15373805       0.42428373      -2.33162333
C       -2.02924056       3.24509506      -2.56063181       1.78158550      -2.39033692      -0.12341212
C        2.27017474      -0.93991316       1.79435215      -2.01135774       1.45546223       0.58295074
C        0.76244612       0.41038694      -0.28251362       1.88578187       1.02053629       2.93465938
C        2.21730041      -0.18155831       3.18768273       1.18619273       0.26208069      -1.21795428
C       -0.87876279       0.94881003      -2.18300586      -0.59234512       2.84820510       1.75465418
C       -0.62062640       1.06984915      -0.63872403       3.45401000       0.02819630      -1.56804035
H       -3.54731841       0.61915043      -4.32243687       0.67196015      -0.29327120      -0.50485537
H       -0.93291397       3.02233367      -4.30371385      -0.93352222       0.28141431       1.34267190
H        4.86827015      -1.75535297       4.82033549      -0.67146764       0.02896673      -1.01361925
H        3.31283735      -2.57205296       4.57289705       0.32790192       0.15096758      -0.38214695
H        4.30485701      -2.13119197       3.10001598      -0.10108095      -0.00461092       0.99769053
H        3.19211601       1.08726119       5.31893358      -0.37280168       1.16154233       0.19114705
H        4.39338970      -0.05435315       5.80562125      -0.35372310       0.09097655      -0.05896636
H        2.72504615      -0.34012592       6.19137059      -1.01880006      -0.81785142       0.24106297
H       -4.00684137       1.86642818      -1.94768530      -1.67721155       1.64106478       1.16950891
H       -3.29113788       0.36895971      -1.78161674      -0.14223124      -1.74549143       0.44093749
H       -3.00368495       3.63794832      -2.71532255      -0.87068541       0.20180782      -1.14661505
H       -1.84832019       3.61893396      -1.52081030       1.11504553      -0.03579705      -0.93273008
H        3.23391890      -0.74670768       1.29650704      -0.88644384       0.61335639      -0.46637475
H        2.18604695      -2.04150176       1.84187148      -0.76855714       0.81666452      -0.03787692
H        1.29366867      -0.18351836      -0.98124820      -0.47423808      -1.10022133      -1.30433012
H        1.60725622       1.15503852      -0.05482784      -1.50863086      -0.01774425      -0.67530698
H        2.17188215       0.93922674       3.01821099       0.54896489      -1.25283554      -0.11932934
H        1.32186007      -0.33755124       3.71685134      -1.48131369      -0.87629712       0.37104913
H       -1.04459936      -0.06787725      -2.45050269      -0.12632328      -0.66283266      -0.29536128
H        0.06517245       1.33157496      -2.61107403      -0.81617962      -0.19546402      -0.45953661
H       -1.37369044       0.68305894      -0.05757391      -1.70019096      -1.22235033       1.25963967
H       -0.42514361       2.07505779      -0.28295892      -0.63420691       0.44649181      -0.52760482
