36
Properties=species:S:1:pos:R:3:forces:R:3 id=10726 bond=C-O smiles="[H:17][C:6]([H:18])([H:19])[N:4]([C:7]([H:20])([H:21])[H:22])[C:12]([H:31])([H:32])[C:10]([H:27])([H:28])[O:3][C:11]([H:29])([H:30])[C:14]([H:35])([H:36])[C:13]([H:33])([H:34])[N:5]([C:8]([H:23])([H:24])[O:1][H:15])[C:9]([H:25])([H:26])[O:2][H:16]" dataset=PubChem energy=-18818.128753515863 pbc="F F F"
O       -4.39451609       0.98333697      -3.77864749       0.39706934       0.37244302       1.78415172
O       -1.23496709       3.69184597      -3.62577874      -0.01100004       1.15570441       0.49470448
O        0.43342672      -0.19530825       0.87737357       1.64218907      -0.82413361       0.09579713
N        3.60453572      -0.60442517       4.15327274       0.50966638       1.16095312       1.51627293
N       -2.30861817       1.86895998      -2.71830876      -0.76297184      -0.97456554      -0.25897794
C        4.21438255      -1.89264921       4.23604333      -0.08305884      -1.38739130      -0.61103037
C        3.58958211      -0.04251803       5.54698812       1.40087375       0.25793932      -2.06925289
C       -3.64782343       1.27198150      -2.54435212       2.15596038       0.42551632      -2.32301333
C       -2.25544105       3.33679517      -2.67356021       1.77907866      -2.38946834      -0.11878789
C        2.49637523      -1.03161327       1.90728055      -0.10144616       0.69182553       1.65947524
C        0.53624563       0.50208705      -0.39544202       1.92028189       0.80818721       3.26625437
C        2.44350090      -0.27325842       3.30061113       0.65923995       0.54789313      -1.39779027
C       -1.10496328       1.04051014      -2.29593426      -0.57687277       2.82253270       1.73510153
C       -0.84682689       1.16154926      -0.75165243       3.30998321       0.10696693      -1.57146484
H       -3.77351890       0.71085054      -4.43536527       0.67280143      -0.29355259      -0.50342707
H       -1.15911446       3.11403378      -4.41664225      -0.93249594       0.27966258       1.34498740
H        5.09447064      -1.84705308       4.93326389      -0.67797281       0.03257897      -1.02194091
H        3.53903784      -2.66375307       4.68582545       0.33312857       0.16085116      -0.38589561
H        4.53105750      -2.22289208       3.21294438      -0.09416396      -0.00642305       0.99179276
H        3.41831650       0.99556108       5.43186198      -0.36967067       1.15707353       0.19344532
H        4.61959019      -0.14605326       5.91854965      -0.35483096       0.08271669      -0.08435671
H        2.95124664      -0.43182603       6.30429899      -1.01571123      -0.81808922       0.22777739
H       -4.23304186       1.95812829      -2.06061370      -1.67780524       1.64127554       1.16936218
H       -3.51733837       0.46065982      -1.89454514      -0.14091792      -1.74387472       0.43965916
H       -3.22988544       3.72964843      -2.82825095      -0.87152935       0.20246963      -1.14771214
H       -2.07452068       3.71063407      -1.63373870       1.11518025      -0.03740972      -0.93450142
H        3.46011939      -0.83840779       1.40943544      -0.94425896       0.65602551      -0.56450687
H        2.41224744      -2.13320187       1.95479988      -1.04043052       0.79299180      -0.22071599
H        1.06746818      -0.09181825      -1.09417660      -0.50768210      -1.11311888      -1.32196945
H        1.38105573       1.24673863      -0.16775624      -1.53721413      -0.00435958      -0.66512522
H        2.39808264       0.84752663       3.13113939       0.55320286      -1.25940377      -0.08762053
H        1.54806056      -0.42925135       3.82977974      -1.46330932      -0.86788331       0.38023581
H       -1.27079985       0.02382286      -2.56343109      -0.12588981      -0.66134123      -0.29479322
H       -0.16102804       1.42327507      -2.72400243      -0.81664168      -0.19539750      -0.45223298
H       -1.59989093       0.77475905      -0.17050231      -1.71500271      -1.21471660       1.24905960
H       -0.65134410       2.16675790      -0.39588732      -0.62363176       0.43593370      -0.51747472
