36
Properties=species:S:1:pos:R:3:forces:R:3 id=10726 bond=C-O smiles="[H:17][C:6]([H:18])([H:19])[N:4]([C:7]([H:20])([H:21])[H:22])[C:12]([H:31])([H:32])[C:10]([H:27])([H:28])[O:3][C:11]([H:29])([H:30])[C:14]([H:35])([H:36])[C:13]([H:33])([H:34])[N:5]([C:8]([H:23])([H:24])[O:1][H:15])[C:9]([H:25])([H:26])[O:2][H:16]" dataset=PubChem energy=-18811.49530289617 pbc="F F F"
O       -3.76115471       0.72657666      -3.46244798       0.43740702       0.38527003       1.83989313
O       -0.60160571       3.43508566      -3.30957923      -0.01555269       1.12082139       0.53316795
O        1.06678810      -0.45206856       1.19357308     -58.87372928      25.05041137     -34.81017725
N        2.97117434      -0.34766486       3.83707323       0.11932145       1.83768769       2.46605252
N       -1.67525679       1.61219967      -2.40210925      -0.69108650      -1.01294162      -0.22466050
C        3.58102117      -1.63588890       3.91984382      -0.08647897      -1.24241261      -0.73060341
C        2.95622073       0.21424228       5.23078861       1.66432687       0.06188542      -2.10530952
C       -3.01446205       1.01522119      -2.22815261       2.08941506       0.39129482      -2.38042594
C       -1.62207967       3.08003486      -2.35736070       1.80735748      -2.34345890      -0.15234172
C        1.86301385      -0.77485296       1.59108104      53.30560811     -22.37045633      30.63419844
C        1.16960701       0.24532674      -0.07924251      -0.63590221       2.28553226       1.34961978
C        1.81013952      -0.01649811       2.98441162       4.77596092      -0.39191540       2.54854152
C       -0.47160190       0.78374983      -1.97973475      -0.68178239       2.90878365       1.69861957
C       -0.21346551       0.90478895      -0.43545292       3.53213983       0.08172588      -1.75276097
H       -3.14015752       0.45409023      -4.11916576       0.66384508      -0.29883218      -0.51709721
H       -0.52575308       2.85727347      -4.10044274      -0.93506215       0.29454043       1.32362900
H        4.46110926      -1.59029277       4.61706438      -0.65290222       0.04551145      -0.96006610
H        2.90567646      -2.40699276       4.36962594       0.31105389       0.13165479      -0.38269130
H        3.89769612      -1.96613177       2.89674487      -0.15945780       0.01668733       1.02911464
H        2.78495512       1.25232139       5.11566247      -0.38130575       1.18245954       0.18311704
H        3.98622881       0.11070705       5.60235014      -0.32188521       0.11008684       0.03790784
H        2.31788526      -0.17506572       5.98809948      -1.03175323      -0.81680238       0.29969461
H       -3.59968048       1.70136798      -1.74441419      -1.67000009       1.63890408       1.17114148
H       -2.88397699       0.20389951      -1.57834563      -0.14945789      -1.75190701       0.44645989
H       -2.59652406       3.47288812      -2.51205144      -0.86593445       0.19469711      -1.14079802
H       -1.44115930       3.45387376      -1.31753919       1.10621195      -0.02981136      -0.93058832
H        2.82675801      -0.58164748       1.09323593       1.41909143       0.03731828       0.23390772
H        1.77888606      -1.87644156       1.63860037       1.95327788      -2.05544782       1.58185466
H        1.70082956      -0.34857856      -0.77797709      -0.29053002      -1.41337173      -0.97768192
H        2.01441711       0.98997832       0.14844327      -1.41629592      -0.33349725      -0.22658433
H        1.76472126       1.10428694       2.81493988       0.55938607      -1.10418922      -0.33841814
H        0.91469918      -0.17249104       3.51358023      -1.65242907      -1.00661759       0.31786271
H       -0.63743847      -0.23293745      -2.24723158      -0.12457151      -0.66675610      -0.29479959
H        0.47233334       1.16651476      -2.40780292      -0.81163217      -0.18896646      -0.47829717
H       -0.96652955       0.51799874       0.14569720      -1.64859890      -1.21080182       1.24654930
H       -0.01798272       1.90999759      -0.07968781      -0.65104330       0.46121600      -0.54179896
