36
Properties=species:S:1:pos:R:3:forces:R:3 id=10726 bond=C-O smiles="[H:17][C:6]([H:18])([H:19])[N:4]([C:7]([H:20])([H:21])[H:22])[C:12]([H:31])([H:32])[C:10]([H:27])([H:28])[O:3][C:11]([H:29])([H:30])[C:14]([H:35])([H:36])[C:13]([H:33])([H:34])[N:5]([C:8]([H:23])([H:24])[O:1][H:15])[C:9]([H:25])([H:26])[O:2][H:16]" dataset=PubChem energy=-18817.107092975984 pbc="F F F"
O       -4.54833243       1.04569305      -3.85543880       0.39819460       0.37410704       1.78302780
O       -1.38878343       3.75420205      -3.70257005      -0.01223674       1.15513022       0.49433062
O        0.27961038      -0.13295217       0.80058226       1.04126209      -0.36654545      -0.56514860
N        3.75835206      -0.66678125       4.23006405       0.56443213       1.13316274       1.48714148
N       -2.46243451       1.93131606      -2.79510007      -0.75771465      -0.97666588      -0.25015526
C        4.36819889      -1.95500529       4.31283464      -0.07658607      -1.41128568      -0.60886538
C        3.74339845      -0.10487411       5.62377943       1.37502524       0.27767102      -2.04814621
C       -3.80163977       1.33433758      -2.62114343       2.15239535       0.42365190      -2.31994318
C       -2.40925739       3.39915125      -2.75035152       1.77897635      -2.38514260      -0.11725576
C        2.65019157      -1.09396935       1.98407186       0.82556411       0.31001256       2.20267341
C        0.38242929       0.56444313      -0.47223333       1.84079923       0.65403615       3.49630512
C        2.59731724      -0.33561450       3.37740244       0.50741305       0.63339211      -1.44114435
C       -1.25877962       1.10286622      -2.37272557      -0.56981814       2.81135152       1.71851032
C       -1.00064323       1.22390534      -0.82844374       3.22396956       0.17889698      -1.59245149
H       -3.92733524       0.77320662      -4.51215658       0.67279670      -0.29420591      -0.50329076
H       -1.31293080       3.17638986      -4.49343356      -0.93180701       0.27937240       1.34529469
H        5.24828698      -1.90940916       5.01005520      -0.68157859       0.03526777      -1.02419310
H        3.69285418      -2.72610915       4.76261676       0.33555086       0.16546938      -0.38782426
H        4.68487384      -2.28524816       3.28973569      -0.09327274      -0.00589709       0.99000191
H        3.57213284       0.93320500       5.50865329      -0.36829899       1.15558922       0.19447790
H        4.77340653      -0.20840934       5.99534096      -0.35454242       0.07901834      -0.09497202
H        3.10506298      -0.49418211       6.38109030      -1.01398449      -0.81782767       0.22308288
H       -4.38685820       2.02048437      -2.13740501      -1.67761121       1.64129817       1.16936695
H       -3.67115471       0.52301590      -1.97133645      -0.14042971      -1.74303737       0.43899777
H       -3.38370178       3.79200451      -2.90504226      -0.87184303       0.20240938      -1.14815947
H       -2.22833702       3.77299015      -1.71053001       1.11456471      -0.03844642      -0.93576567
H        3.61393573      -0.90076387       1.48622675      -0.94089779       0.65962810      -0.58410162
H        2.56606378      -2.19555795       2.03159119      -1.10033527       0.76060063      -0.26791598
H        0.91365184      -0.02946217      -1.17096791      -0.52076189      -1.13904279      -1.32831476
H        1.22723939       1.30909471      -0.24454755      -1.54067099       0.00502512      -0.63050747
H        2.55189898       0.78517055       3.20793070       0.55999100      -1.25418303      -0.07298698
H        1.70187690      -0.49160743       3.90657105      -1.45752485      -0.86694366       0.38961594
H       -1.42461619       0.08617894      -2.64022240      -0.12575251      -0.66064174      -0.29449911
H       -0.31484438       1.48563115      -2.80079374      -0.81634742      -0.19489052      -0.44904706
H       -1.75370727       0.83711513      -0.24729362      -1.71298384      -1.21278071       1.24217162
H       -0.80516044       2.22911398      -0.47267863      -0.62059034       0.43235068      -0.51324759
