32
Properties=species:S:1:pos:R:3:forces:R:3 id=38881 bond=C-O smiles="[H:20][c:9]1[c:13]2[c:12]([c:8]([c:10]([c:11]1[O:4][C:15]([H:24])([H:25])[H:26])[O:3][C:14]([H:21])([H:22])[H:23])[H:19])[O:5][C:18]([C:7](=[C:6]2[Cl:1])[Cl:2])([C:16]([H:27])([H:28])[H:29])[C:17]([H:30])([H:31])[H:32]" dataset=PubChem energy=-44908.52903600632 pbc="F F F"
Cl       2.52987314      -2.78870835       0.32232657      -0.23001839       0.48634744       0.00142098
Cl       4.17321503      -1.20695045      -1.92824325      -1.17005444       0.51666077       0.51728139
O       -2.29573953       1.40364430       2.46775308       0.84822195      -0.92450969       0.16574889
O       -1.34930276      -0.92090383       3.50856844      -6.90347112      21.74903547     -10.23433523
O        0.92662803       1.20294783      -1.16654643       0.25168112      -0.50414348      -0.38058517
C        2.06543422      -1.17662778      -0.14601508       1.02208801       0.83513133      -1.89080149
C        2.71754229      -0.52419176      -1.17155728      -0.85095205      -1.63288145       2.32056176
C       -0.63424884       1.29964009       0.61724819      -0.77808921      -0.07647138       1.49160022
C        0.34622825      -1.03915086       1.67402282      -1.33985624       0.54863203       1.16128990
C       -1.22314703       0.80805791       1.83492365       0.00464339       0.10034423      -1.08013587
C       -0.73716461      -0.42516455       2.36243275       0.34549176       1.18889578      -0.96646012
C        0.44966624       0.69890389       0.00984487       0.00365062      -0.91531820       0.13674683
C        0.93873671      -0.50057688       0.53122670       0.28592831      -0.38913339       0.22437922
C       -2.84922611       2.60613307       1.98009196       0.37224942       0.08069519      -0.42433068
C       -1.04933270      -1.92520838       3.89981855       6.68739757     -19.45122346       7.63434807
C        3.16499770       1.88420997      -0.63495752      -0.42515537      -0.30487926      -0.00935493
C        2.59450877       1.13513110      -2.98729357      -1.04173832       0.23670225       0.40053474
C        2.30327738       0.89724574      -1.47525367       1.84137628       1.00168618      -0.65792766
H       -1.02196526       2.16831836       0.12787932      -0.23429160       0.37191764       0.05055286
H        0.71825645      -1.96233549       2.06063524       0.18674257      -0.33370263       0.09061743
H       -3.29564368       2.44552812       1.01712844      -0.04166678      -0.06297721      -0.74603508
H       -3.66998851       2.93229541       2.60801711       0.25343845      -0.21659315       0.51148630
H       -2.08666336       3.37962732       1.90818587      -0.04648910       0.12889101       0.03379313
H       -1.06001659      -2.74845557       3.13657297      -0.03478206      -0.35079891       0.46349236
H       -0.01685008      -1.82011895       4.24340500       1.11751766      -1.48775748       0.81417135
H       -1.66025408      -2.21165304       4.75091756      -0.08754999      -0.58143045       0.32324160
H        2.86911381       2.89338026      -0.89961299       0.13789161       0.14903595      -0.19993669
H        2.93574823       1.77552161       0.42527169       0.09277248      -0.21013096      -0.02059104
H        4.23527945       1.74000487      -0.78919789      -0.18683696      -0.01430853      -0.05582829
H        3.66896689       1.04421804      -3.19992360      -0.61037002       0.05382864       0.14817786
H        2.01341355       0.41624272      -3.57233056       0.32602977      -0.02506599       0.02572313
H        2.22798991       2.11917588      -3.28302869       0.19924422       0.04045053       0.15419351
