32
Properties=species:S:1:pos:R:3:forces:R:3 id=38881 bond=C-O smiles="[H:20][c:9]1[c:13]2[c:12]([c:8]([c:10]([c:11]1[O:4][C:15]([H:24])([H:25])[H:26])[O:3][C:14]([H:21])([H:22])[H:23])[H:19])[O:5][C:18]([C:7](=[C:6]2[Cl:1])[Cl:2])([C:16]([H:27])([H:28])[H:29])[C:17]([H:30])([H:31])[H:32]" dataset=PubChem energy=-44910.01015370994 pbc="F F F"
Cl       2.44334332      -2.49900511       0.20946596      -0.20593316       0.43957886       0.00495887
Cl       4.08668521      -0.91724721      -2.04110386      -1.14264522       0.50354098       0.50448147
O       -2.38226935       1.69334754       2.35489247       0.70121812      -0.81466560       0.21729637
O       -1.43583258      -0.63120059       3.39570783       1.06556291      -3.18530443       0.68048820
O        0.84009821       1.49265107      -1.27940704       0.37053715      -0.47684377      -0.59140266
C        1.97890440      -0.88692454      -0.25887569       0.97701051       0.92749615      -1.90493906
C        2.63101247      -0.23448852      -1.28441789      -0.85027115      -1.64520573       2.32169609
C       -0.72077866       1.58934333       0.50438758      -0.65356526      -0.14648391       1.44192321
C        0.25969843      -0.74944762       1.56116221      -1.27877574       0.87581161       0.81121801
C       -1.30967685       1.09776115       1.72206304       0.06292456       0.06338809      -1.11494354
C       -0.82369443      -0.13546131       2.24957214       0.57175457      -0.44416982      -0.12918969
C        0.36313642       0.98860713      -0.10301574      -0.06636088      -0.88495747       0.26707949
C        0.85220689      -0.21087364       0.41836609       0.30227254      -0.46354707       0.24271528
C       -2.93575593       2.89583631       1.86723135       0.41009078       0.00322325      -0.39515620
C       -0.96280288      -2.21491162       4.01267916       0.56470270       1.73945522      -1.85409624
C        3.07846788       2.17391321      -0.74781813      -0.40729101      -0.30818685      -0.00489876
C        2.50797895       1.42483434      -3.10015418      -1.03023251       0.23420771       0.40333267
C        2.21674756       1.18694898      -1.58811428       1.74809144       1.03239770      -0.62350934
H       -1.10849508       2.45802160       0.01501871      -0.23529857       0.37849094       0.04548654
H        0.63172663      -1.67263225       1.94777463       0.15874277      -0.32724288       0.11253686
H       -3.38217350       2.73523136       0.90426783      -0.04594164      -0.05580937      -0.75808103
H       -3.75651833       3.22199865       2.49515650       0.24776559      -0.21117766       0.51265171
H       -2.17319318       3.66933056       1.79532526      -0.04271577       0.14067828       0.02787469
H       -0.97348677      -3.03815881       3.24943358      -0.38342074       1.35582538       0.27512249
H        0.06967974      -2.10982219       4.35626561      -0.27382046       0.41293455      -0.20766481
H       -1.57372426      -2.50135628       4.86377817      -0.52687133       0.86758148      -0.32661711
H        2.78258399       3.18308350      -1.01247360       0.13527874       0.14774951      -0.20052553
H        2.84921841       2.06522485       0.31241108       0.08639642      -0.21049218      -0.02480453
H        4.14874963       2.02970811      -0.90205850      -0.17989692      -0.01185755      -0.05615995
H        3.58243707       1.33392128      -3.31278421      -0.60764072       0.05452229       0.14390732
H        1.92688373       0.70594596      -3.68519117       0.32380742      -0.02512304       0.02612980
H        2.14146009       2.40887912      -3.39588930       0.19745291       0.04027912       0.15588891
