29
Properties=species:S:1:pos:R:3:forces:R:3 id=16582 bond=C-C smiles="[H:23][C:6]1([C:5]([C:9]([C:8]2([C:7]([C:10]1([C:11]([S:1]2)([C:3]([H:15])([H:16])[H:17])[C:4]([H:18])([H:19])[H:20])[H:29])([H:25])[H:26])[H:27])([H:28])[C:2]([H:12])([H:13])[H:14])([H:21])[H:22])[H:24]" dataset=PubChem energy=-21504.84680718031 pbc="F F F"
S       -0.59182815      -0.40094470       2.50367657       0.64473245       0.61595037      -0.82437884
C        4.08720765       1.19893900       0.59283475      -1.95227417       0.26362056       0.66049110
C       -2.12795286      -1.20551573       0.27178038       1.44027649       0.04836410       0.81602083
C       -2.75731806       0.90892554       1.39116803      -0.26638009       0.29008144      -0.28660950
C        1.38119609      -0.86540090      -0.01003107       1.10428177       1.41537617      -1.25789992
C        0.44317339       0.08431464      -0.81627139      -0.57854161      -1.01711433       0.49287140
C        0.30665616       1.67197001       1.01486105      -0.32530323       0.35504254       0.28421847
C        0.85979802       0.64410085       1.97113350       1.79368074       0.47317465       0.72990722
C        1.93055231      -0.18455856       1.26309160       0.20017977      -1.26904109      -0.74478625
C       -0.54243867       0.87549776       0.07290760      -0.19192586      -0.52041192      -0.37624688
C       -1.55686503       0.06404961       0.97681213       0.07601578      -0.44069102      -1.04382616
H        4.41490397       1.74701897       1.47212148      -0.54031925      -0.06642060       0.17007566
H        4.87678036       0.56450833       0.30276949       0.42637872      -1.37366107      -0.27806581
H        3.86711058       1.87984399      -0.23719656      -0.53316032      -0.31891641       0.35439575
H       -2.54026561      -0.96627044      -0.68982430      -0.34738133       0.29698477      -0.38938744
H       -2.89622121      -1.63879406       0.91176164       0.07507448      -0.15172684      -0.16582983
H       -1.31132381      -1.92989122       0.10028533      -0.56454378       0.20629502       0.19612012
H       -3.47241240       0.97475148       0.55329795       0.36239320       0.14438188       0.18423271
H       -2.47301464       1.92467464       1.70135967      -0.16490934      -0.42346694       0.02618061
H       -3.29844050       0.39956368       2.19123236       0.14721962       0.23263334       0.08034312
H        2.20998235      -1.11808931      -0.71995457      -0.54384823      -0.02148030       0.85885483
H        0.90079756      -1.80948340       0.26804838      -0.07190109       0.31585188       0.02677625
H        1.01892926       0.80901379      -1.40255126       0.01131452      -0.15038588       0.28764041
H       -0.11449097      -0.51403975      -1.53484734       0.00972137      -0.04942239      -0.10950539
H        1.09376211       2.18655039       0.48141662       0.31306648       0.04059334      -0.01025582
H       -0.30442946       2.42278016       1.48269275      -0.10724411       0.26790175       0.58863059
H        1.37131603       1.07863725       2.85316435      -0.76692160      -0.14762752      -0.31270884
H        2.25116152      -1.03087317       1.90242544       0.68730949       1.05878997      -0.09984494
H       -1.08354609       1.54259194      -0.59959933      -0.33609348      -0.07245505       0.14122957
