29
Properties=species:S:1:pos:R:3:forces:R:3 id=16582 bond=C-C smiles="[H:23][C:6]1([C:5]([C:9]([C:8]2([C:7]([C:10]1([C:11]([S:1]2)([C:3]([H:15])([H:16])[H:17])[C:4]([H:18])([H:19])[H:20])[H:29])([H:25])[H:26])[H:27])([H:28])[C:2]([H:12])([H:13])[H:14])([H:21])[H:22])[H:24]" dataset=PubChem energy=-21506.921045589042 pbc="F F F"
S       -0.36678585      -0.25657974       2.43373672       0.60113941       0.68107107      -0.80250674
C        3.86216535       1.05457404       0.66277460      -3.32235839      -0.51354955       1.19774494
C       -1.90291056      -1.06115077       0.20184053       1.44346998       0.05185198       0.80992258
C       -2.53227576       1.05329050       1.32122818      -0.27592042       0.28919990      -0.30723933
C        1.60623839      -0.72103594      -0.07997092       0.81103637       1.06563148      -1.10021708
C        0.66821569       0.22867960      -0.88621124      -0.57950940      -1.02407582       0.49785820
C        0.53169846       1.81633497       0.94492120      -0.31087024       0.33317518       0.31333073
C        1.08484032       0.78846581       1.90119365       1.48218230       0.19603113       0.79864993
C        2.15559461      -0.04019360       1.19315175       2.05580224      -0.25864849      -1.28797155
C       -0.31739637       1.01986272       0.00296775      -0.19318895      -0.52395088      -0.38898206
C       -1.33182273       0.20841457       0.90687228       0.08369200      -0.44417858      -0.99471840
H        4.18986167       1.60265401       1.54206133      -0.32911926       0.05861711       0.04998464
H        4.65173806       0.42014337       0.37270934       0.50739347      -1.24045565      -0.29381192
H        3.64206828       1.73547903      -0.16725671      -0.34053763      -0.25685625       0.35893753
H       -2.31522331      -0.82190548      -0.75976415      -0.35155187       0.29660699      -0.39254324
H       -2.67117891      -1.49442910       0.84182179       0.07457101      -0.14938266      -0.16414674
H       -1.08628151      -1.78552626       0.03034548      -0.56323118       0.21041526       0.19885897
H       -3.24737010       1.11911644       0.48335810       0.35585285       0.15083002       0.18091877
H       -2.24797234       2.06903960       1.63141982      -0.16502170      -0.42211801       0.02793703
H       -3.07339820       0.54392864       2.12129251       0.15318846       0.23264094       0.07928329
H        2.43502465      -0.97372435      -0.78989442      -0.52631773      -0.00890282       0.84169204
H        1.12583986      -1.66511844       0.19810853      -0.11871096       0.34623260      -0.07319866
H        1.24397156       0.95337875      -1.47249111      -0.00269061      -0.13382192       0.26972517
H        0.11055133      -0.36967479      -1.60478719       0.01226362      -0.03798867      -0.11840778
H        1.31880441       2.33091535       0.41147677       0.28211268       0.06751401      -0.02773588
H       -0.07938716       2.56714512       1.41275290      -0.10012670       0.27747369       0.57965717
H        1.59635833       1.22300221       2.78322450      -0.75324445      -0.12734209      -0.30344224
H        2.47620382      -0.88650821       1.83248559       0.40817681       0.95652027      -0.09010176
H       -0.85850379       1.68695690      -0.66953918      -0.33747956      -0.06862760       0.13802451
