29
Properties=species:S:1:pos:R:3:forces:R:3 id=16582 bond=C-C smiles="[H:23][C:6]1([C:5]([C:9]([C:8]2([C:7]([C:10]1([C:11]([S:1]2)([C:3]([H:15])([H:16])[H:17])[C:4]([H:18])([H:19])[H:20])[H:29])([H:25])[H:26])[H:27])([H:28])[C:2]([H:12])([H:13])[H:14])([H:21])[H:22])[H:24]" dataset=PubChem energy=-21505.06870008544 pbc="F F F"
S       -0.56369786      -0.38289908       2.49493409       0.64201921       0.62312628      -0.82330552
C        4.05907736       1.18089338       0.60157723      -2.12588225       0.16314678       0.72559457
C       -2.09982257      -1.18747011       0.26303790       1.44055608       0.04876828       0.81526661
C       -2.72918777       0.92697116       1.38242555      -0.26756705       0.28991660      -0.28908469
C        1.40932638      -0.84735528      -0.01877355       1.07879528       1.38039799      -1.24306610
C        0.47130368       0.10236026      -0.82501387      -0.57774723      -1.01857443       0.49416697
C        0.33478645       1.69001563       1.00611857      -0.32311041       0.35206583       0.28795811
C        0.88792831       0.66214647       1.96239102       1.76391270       0.44628485       0.73684989
C        1.95868260      -0.16651294       1.25434912       0.42522445      -1.14236342      -0.80965859
C       -0.51430838       0.89354338       0.06416512      -0.19191559      -0.52057040      -0.37765644
C       -1.52873474       0.08209523       0.96806965       0.07692413      -0.44090806      -1.03835264
H        4.38677368       1.72897335       1.48086396      -0.52297313      -0.05678286       0.15739287
H        4.84865007       0.54646271       0.31151197       0.43099054      -1.36335858      -0.27852217
H        3.83898029       1.86179837      -0.22845408      -0.51856917      -0.31472481       0.35614049
H       -2.51213532      -0.94822482      -0.69856678      -0.34785197       0.29692998      -0.38974484
H       -2.86809092      -1.62074844       0.90301916       0.07501681      -0.15145812      -0.16562284
H       -1.28319352      -1.91184560       0.09154285      -0.56441440       0.20683710       0.19644095
H       -3.44428211       0.99279710       0.54455547       0.36162949       0.14515294       0.18389015
H       -2.44488435       1.94272026       1.69261719      -0.16489377      -0.42335741       0.02636372
H       -3.27031021       0.41760930       2.18248988       0.14791243       0.23261727       0.08021688
H        2.23811264      -1.10004369      -0.72869705      -0.54343193      -0.01980009       0.85802215
H        0.92892785      -1.79143778       0.25930590      -0.07755836       0.32017075       0.01716979
H        1.04705955       0.82705941      -1.41129374       0.01032157      -0.14849967       0.28616276
H       -0.08636068      -0.49599413      -1.54358982       0.00973823      -0.04823028      -0.11046668
H        1.12189240       2.20459601       0.47267414       0.31102849       0.04233097      -0.01207892
H       -0.27629917       2.44082578       1.47395027      -0.10701728       0.26883554       0.58767037
H        1.39944632       1.09668287       2.84442187      -0.76570661      -0.14584249      -0.31249616
H        2.27929181      -1.01282755       1.89368296       0.66172267       1.05252664      -0.10156679
H       -1.05541580       1.56063756      -0.60834181      -0.33632712      -0.07196308       0.14082398
