29
Properties=species:S:1:pos:R:3:forces:R:3 id=16582 bond=C-C smiles="[H:23][C:6]1([C:5]([C:9]([C:8]2([C:7]([C:10]1([C:11]([S:1]2)([C:3]([H:15])([H:16])[H:17])[C:4]([H:18])([H:19])[H:20])[H:29])([H:25])[H:26])[H:27])([H:28])[C:2]([H:12])([H:13])[H:14])([H:21])[H:22])[H:24]" dataset=PubChem energy=-21482.394344453587 pbc="F F F"
S        0.13955931       0.06824143       2.27637207       0.41609266       0.84027367      -0.75021408
C        3.35582019       0.72975287       0.82013925     112.40932792      72.99133220     -33.86288793
C       -1.39656540      -0.73632960       0.04447588       1.44755437       0.05753668       0.79384923
C       -2.02593060       1.37811167       1.16386353      -0.28508533       0.29370707      -0.35216144
C        2.11258355      -0.39621477      -0.23733557      -2.16931715      -1.69071158      -1.46329925
C        1.17456085       0.55350077      -1.04357589      -0.53683707      -0.79485525       0.58067929
C        1.03804362       2.14115614       0.78755655      -0.31284381       0.29195152       0.39164531
C        1.59118548       1.11328698       1.74382900      -2.19661126      -0.72421513       1.42059067
C        2.66193977       0.28462757       1.03578710    -111.41542560     -73.91460354      33.78865756
C        0.18894879       1.34468389      -0.15439690      -0.27679637      -0.58350572      -0.36956011
C       -0.82547757       0.53323574       0.74950763       0.08451952      -0.46573499      -0.89679952
H        3.68351651       1.27783284       1.69942598       2.29052406       1.66646837       0.10659441
H        4.14539290       0.09532220       0.53007399       2.63999267       0.48876871      -1.27044447
H        3.13572312       1.41065786      -0.00989206       1.65194990       1.60699412      -0.40273834
H       -1.80887815      -0.49708431      -0.91712880      -0.36593857       0.29562588      -0.39721520
H       -2.16483375      -1.16960793       0.68445714       0.07771620      -0.14577504      -0.16396081
H       -0.57993635      -1.46070509      -0.12701917      -0.56516425       0.21371985       0.20713359
H       -2.74102494       1.44393761       0.32599345       0.34276218       0.16288477       0.17430406
H       -1.74162718       2.39386077       1.47405517      -0.16690404      -0.41794553       0.03309364
H       -2.56705304       0.86874981       1.96392786       0.16883282       0.23345494       0.07626306
H        2.94136981      -0.64890318      -0.94725907      -0.34889678       0.15817531       0.99505817
H        1.63218502      -1.34029727       0.04074388      -0.29190435       0.23953217      -0.31280254
H        1.75031672       1.27819992      -1.62985576      -0.09719913      -0.13158760       0.17249085
H        0.61689649      -0.04485362      -1.76215184       0.10408067      -0.05159048      -0.09053807
H        1.82514957       2.65573652       0.25411212       0.14080445       0.24854311      -0.03398293
H        0.42695800       2.89196629       1.25538825      -0.01600232       0.26958421       0.58337175
H        2.10270349       1.54782338       2.62585985      -0.41974580      -0.25306475      -0.35843843
H        2.98254898      -0.56168704       1.67512094      -1.98952588      -0.81637687       1.26617636
H       -0.35215863       2.01177807      -0.82690383      -0.32118716      -0.06752258       0.13299336
