44
Properties=species:S:1:pos:R:3:forces:R:3 id=40292 bond=C-N smiles="[H:37][C:29]([H:38])([H:39])[N+:32]([C:30]([H:40])([H:41])[H:42])([C:31]([H:43])([H:44])[C:21]([H:35])([H:36])[C:20]([H:33])([H:34])[C:23]([C:25]([C:27]([C:28]([C:26]([C:24]([C:22]([C:19]([F:2])([F:3])[F:4])([F:5])[F:6])([F:9])[F:10])([F:13])[F:14])([F:17])[F:18])([F:15])[F:16])([F:11])[F:12])([F:7])[F:8])[O-:1]" dataset=PubChem energy=-63433.16023541637 pbc="F F F"
O        6.82546880      -0.43859116       0.21321034       0.64879595      -7.92021429      -1.25563044
F       -7.01947662      -2.25359515       1.21796715      -0.05061387       0.40063672      -0.10748837
F       -7.55599758      -2.83540800      -0.87195885       2.16271222       1.89199407       1.64353215
F       -5.91525433      -3.74753097       0.10863322       0.92066275       0.89557038       0.47761474
F       -6.32332060      -0.63012258      -1.27580130       0.64132968       0.61051555       2.08586292
F       -4.71357605      -1.93204549      -1.43240488       0.73747012      -0.53809484       1.23212362
F        1.68140294       3.25601669       2.47300875      -0.38243156      -0.80002876      -1.01098180
F        1.40345927       3.08808442       0.30147665      -0.79186015       0.23763854      -0.29791460
F       -4.53644011      -1.45549325       1.72419726      -0.26698546       0.92143647      -1.35208449
F       -5.50068066       0.45158257       0.95383393       1.59306549      -1.60269233      -0.30122577
F       -0.74214087       2.85062142       2.54767930       0.06236770      -0.57384046      -0.08187759
F        0.15187734       0.81326210       2.66301691      -0.73099229       0.45598524      -0.42092192
F       -2.46664116      -1.28572622       0.04751914      -0.16576973       1.15506374       1.16516462
F       -3.20331762       0.50963896      -0.89145625      -0.21639549       0.44737865       0.01070938
F       -0.55917248       0.55955702      -0.16538966      -0.83907028       1.66861611       1.51776133
F       -1.54294655       2.60741636       0.05720174       0.95829146      -1.45762340       0.48014807
F       -3.31762287       1.94277378       1.59218669       0.37250194      -1.51410438      -0.64270956
F       -2.39628384       0.17405405       2.55221366       0.07960833       1.03622250      -2.40263030
C       -6.47510025      -2.53166536       0.05507117      -2.08435756      -2.58427297      -1.42394131
C        2.51125183       1.23212090       1.36191749      -1.47539200       0.46502483       1.01316141
C        3.82900717       1.62699624       0.70979389      -0.29843548      -1.01423603      -2.22606459
C       -5.49322626      -1.39501504      -0.45734358      -1.42834674      -0.80117289      -3.95631005
C        1.33160492       2.38364013       1.43214929       2.56916088      -0.94694277       1.06554863
C       -4.66747353      -0.63524691       0.61241944      -0.70878683       1.37587236       2.22729726
C       -0.13638673       1.86868914       1.84336960       1.25983307       0.33759246       0.06333907
C       -3.16792986      -0.13040814       0.28996029      -1.68856595      -1.38617064      -1.62574843
C       -1.15497777       1.47289290       0.73125171      -0.21720626      -0.64742024      -0.90524409
C       -2.54115770       0.85158437       1.31348091       0.77998161       0.14332571       2.29238099
C        7.01829030       1.37293973       0.81251199       5.34341059       7.38998629       5.61677845
C        6.17812945       1.26495799      -1.15393150       0.08706197       0.86418731      -3.76211553
C        4.82558515       0.43870659       0.77507157      -1.82432111       2.62282148      -3.08726978
N        6.15257861       0.64730495       0.14107147      -2.85364759      -0.51500779      -1.73895333
H        2.70251205       0.86406972       2.39115369      -0.34915198       0.42063899      -0.52240049
H        2.10182097       0.39400182       0.81903833      -0.27864604      -0.24955914      -0.17150609
H        3.63755633       1.76865896      -0.41440964       0.35476919       0.65378886       1.81637706
H        4.29050138       2.42103263       1.24021953       0.18086473       1.25615085      -0.05561668
H        7.08952310       2.38742288       0.43263719      -0.18530805       0.66244382       0.38320836
H        8.04685475       0.98164870       0.69167872      -0.86719807       0.35076830       0.35683126
H        6.74618937       1.48939820       1.86414461       0.33361855      -0.39363138      -0.00272888
H        7.21656253       1.31067409      -1.60603392      -1.16590303      -0.70850446       1.03653427
H        5.50805451       0.91151604      -1.92191446      -0.22844262      -0.97343269       0.14332213
H        5.92191960       2.28550990      -1.05849004      -0.53665970       1.10337950       0.21731480
H        4.44042971      -0.34347061       0.20938050      -0.69670143      -1.55055371      -0.81462490
H        4.88548162       0.16596254       1.73745870       1.23415663      -1.16368284       3.31540891
