44
Properties=species:S:1:pos:R:3:forces:R:3 id=40292 bond=C-N smiles="[H:37][C:29]([H:38])([H:39])[N+:32]([C:30]([H:40])([H:41])[H:42])([C:31]([H:43])([H:44])[C:21]([H:35])([H:36])[C:20]([H:33])([H:34])[C:23]([C:25]([C:27]([C:28]([C:26]([C:24]([C:22]([C:19]([F:2])([F:3])[F:4])([F:5])[F:6])([F:9])[F:10])([F:13])[F:14])([F:17])[F:18])([F:15])[F:16])([F:11])[F:12])([F:7])[F:8])[O-:1]" dataset=PubChem energy=-63432.11732101209 pbc="F F F"
O        6.45130528      -0.75221297      -0.07698853      -0.54831910      -0.13348208      -0.41554706
F       -7.39364014      -2.56721696       0.92776828      -0.05009338       0.40193370      -0.10859926
F       -7.93016110      -3.14902981      -1.16215772       2.16372277       1.89153098       1.64296404
F       -6.28941785      -4.06115278      -0.18156565       0.92093311       0.89292277       0.47747377
F       -6.69748412      -0.94374439      -1.56600017       0.64168595       0.60952680       2.08566814
F       -5.08773957      -2.24566730      -1.72260375       0.73742171      -0.53870037       1.23220888
F        1.30723942       2.94239488       2.18280988      -0.38896679      -0.80719068      -1.01710398
F        1.02929575       2.77446261       0.01127778      -0.79730198       0.23684069      -0.29911807
F       -4.91060363      -1.76911506       1.43399839      -0.26708497       0.92019621      -1.35171556
F       -5.87484418       0.13796076       0.66363506       1.59382080      -1.60404756      -0.30214554
F       -1.11630439       2.53699961       2.25748043       0.05960154      -0.57542762      -0.08190158
F       -0.22228618       0.49964029       2.37281804      -0.73427955       0.45296798      -0.41987980
F       -2.84080468      -1.59934803      -0.24267973      -0.16434618       1.15122481       1.16353071
F       -3.57748114       0.19601715      -1.18165512      -0.21678970       0.44602791       0.01052315
F       -0.93333600       0.24593521      -0.45558853      -0.83819216       1.66448840       1.51429509
F       -1.91711007       2.29379455      -0.23299713       0.95700741      -1.46017347       0.47960865
F       -3.69178639       1.62915197       1.30198782       0.37180145      -1.51624480      -0.64258493
F       -2.77044736      -0.13956776       2.26201479       0.07878173       1.03494387      -2.40264310
C       -6.84926377      -2.84528717      -0.23512770      -2.08531588      -2.58154552      -1.42338819
C        2.13708831       0.91849909       1.07171862      -1.47077232       0.43560531       1.00344791
C        3.45484365       1.31337443       0.41959502      -0.22010881      -1.00831528      -2.22341210
C       -5.86738978      -1.70863685      -0.74754245      -1.42960584      -0.79920378      -3.95449238
C        0.95744140       2.07001832       1.14195042       2.58854901      -0.93843128       1.06590068
C       -5.04163705      -0.94886872       0.32222057      -0.70884504       1.37771989       2.22682335
C       -0.51055025       1.55506733       1.55317073       1.26588565       0.34199059       0.06376396
C       -3.54209338      -0.44402995      -0.00023858      -1.69006028      -1.38099482      -1.62358037
C       -1.52914129       1.15927109       0.44105284      -0.21624803      -0.64114995      -0.89988171
C       -2.91532122       0.53796256       1.02328204       0.78182418       0.14619125       2.29170002
C        7.39245382       1.68656154       1.10271086      -0.10568325       1.02293224      -0.08516688
C        5.80396593       0.95133618      -1.44413037       1.87393229       1.71171409      -1.55845171
C        4.45142163       0.12508478       0.48487270      -1.02312816       3.14879058      -2.33618716
N        5.77841509       0.33368314      -0.14912740       2.58695362      -1.29626869       1.75935499
H        2.32834853       0.55044791       2.10095482      -0.34680788       0.42494085      -0.52350073
H        1.72765745       0.08038001       0.52883946      -0.29626580      -0.25328507      -0.16759413
H        3.26339281       1.45503715      -0.70460851       0.34166974       0.65682404       1.81369813
H        3.91633786       2.10741082       0.95002066       0.22164546       1.21099137      -0.07658393
H        7.46368662       2.70104469       0.72283606      -0.55678581       0.14956669      -0.49784291
H        8.42101827       1.29527051       0.98187759      -1.04019092      -0.86044049      -0.23471641
H        7.12035289       1.80302001       2.15434348      -0.34009261      -0.66386670      -0.18198627
H        6.84239901       0.99705228      -1.89623279      -1.19520260      -0.63597830       0.98917783
H        5.13389099       0.59789423      -2.21211333      -0.40153986      -1.05852826       0.21235091
H        5.54775608       1.97188809      -1.34868891      -0.38595950       1.19513233       0.36393252
H        4.06626619      -0.65709242      -0.08081837      -0.75404114      -1.57992091      -0.88720796
H        4.51131810      -0.14765927       1.44725983       1.07833640      -1.16519783       3.31389440
