44
Properties=species:S:1:pos:R:3:forces:R:3 id=40292 bond=C-N smiles="[H:37][C:29]([H:38])([H:39])[N+:32]([C:30]([H:40])([H:41])[H:42])([C:31]([H:43])([H:44])[C:21]([H:35])([H:36])[C:20]([H:33])([H:34])[C:23]([C:25]([C:27]([C:28]([C:26]([C:24]([C:22]([C:19]([F:2])([F:3])[F:4])([F:5])[F:6])([F:9])[F:10])([F:13])[F:14])([F:17])[F:18])([F:15])[F:16])([F:11])[F:12])([F:7])[F:8])[O-:1]" dataset=PubChem energy=-63402.65370786095 pbc="F F F"
O        6.98687268      -0.30330332       0.33839416      -0.58186238     -17.19674518      -2.32627927
F       -6.85807274      -2.11830731       1.34315097      -0.04949519       0.40043591      -0.10795901
F       -7.39459370      -2.70012016      -0.74677503       2.16377087       1.89262011       1.64405060
F       -5.75385045      -3.61224313       0.23381704       0.92166128       0.89618829       0.47759963
F       -6.16191672      -0.49483474      -1.15061748       0.64254591       0.61024060       2.08697167
F       -4.55217217      -1.79675765      -1.30722106       0.73899752      -0.53807100       1.23114848
F        1.84280682       3.39130453       2.59819257      -0.38576590      -0.81973376      -1.02726086
F        1.56486315       3.22337226       0.42666047      -0.78671734       0.22484906      -0.29373295
F       -4.37503623      -1.32020541       1.84938108      -0.26576172       0.92213545      -1.35254652
F       -5.33927678       0.58687041       1.07901775       1.59507965      -1.60323155      -0.30171371
F       -0.58073699       2.98590926       2.67286312       0.07821784      -0.58199681      -0.09409324
F        0.31328122       0.94854994       2.78820073      -0.72434066       0.45508537      -0.42274022
F       -2.30523728      -1.15043838       0.17270296      -0.16352428       1.15494921       1.16535980
F       -3.04191374       0.64492680      -0.76627243      -0.21474672       0.44777889       0.01128391
F       -0.39776860       0.69484486      -0.04020584      -0.83439338       1.66754390       1.51719710
F       -1.38154267       2.74270420       0.18238556       0.96183764      -1.46021813       0.48241483
F       -3.15621899       2.07806162       1.71737051       0.37660386      -1.51602243      -0.64430870
F       -2.23487996       0.30934189       2.67739748       0.08179138       1.03691958      -2.40338476
C       -6.31369637      -2.39637752       0.18025499      -2.08772977      -2.58564981      -1.42334616
C        2.67265571       1.36740874       1.48710131      -1.44801654       0.36673841       1.03624976
C        3.99041105       1.76228408       0.83497771      -0.01297568      -0.95780236      -2.37286432
C       -5.33182238      -1.25972720      -0.33215976      -1.43063374      -0.80091537      -3.95774081
C        1.49300880       2.51892797       1.55733311       2.58890208      -0.88115544       1.07423503
C       -4.50606965      -0.49995907       0.73760326      -0.71220741       1.37628193       2.22912486
C        0.02501715       2.00397698       1.96855342       1.24441569       0.32898147       0.07455755
C       -3.00652598       0.00487970       0.41514411      -1.69192122      -1.38648625      -1.62734829
C       -0.99357389       1.60818074       0.85643553      -0.22560162      -0.64252383      -0.91058532
C       -2.37975382       0.98687221       1.43866473       0.77364183       0.14389143       2.29651207
C        6.85688642       1.23765189       0.68732817     103.52019532      96.68678716      86.10344047
C        6.33953333       1.40024583      -1.02874768      -1.81214690      -0.28422012      -8.32152367
C        4.98698903       0.57399443       0.90025539      -4.51424379       0.73726526      -4.37271294
N        6.31398249       0.78259279       0.26625529    -101.37689144     -82.31579622     -79.72098002
H        2.86391593       0.99935756       2.51633751      -0.35328140       0.41902226      -0.51788557
H        2.26322485       0.52928966       0.94422215      -0.27967017      -0.24059834      -0.16405296
H        3.79896021       1.90394680      -0.28922582       0.34675978       0.63436638       1.82040696
H        4.45190526       2.55632047       1.36540335       0.22378601       1.28491220      -0.03634227
H        6.92811922       2.25213504       0.30745337       1.00553106       2.73578411       3.08894708
H        7.88545087       0.84636086       0.56649490       2.07981193       2.71847982       0.81374541
H        6.58478549       1.35411036       1.73896079       2.38103125       0.54970475       1.67779938
H        7.37796641       1.44596193      -1.48085010      -1.16528656      -0.84919854       1.21394440
H        5.66945839       1.04680388      -1.79673064      -0.24326065      -1.03611549      -0.39323495
H        6.08332348       2.42079774      -0.93330622      -0.82472461       0.73510656       0.19902354
H        4.60183359      -0.20818277       0.33456432      -1.14502903      -1.57338246      -0.70724959
H        5.04688550       0.30125038       1.86264252       1.59269001      -1.12888472       3.25038632
