44
Properties=species:S:1:pos:R:3:forces:R:3 id=40292 bond=C-N smiles="[H:37][C:29]([H:38])([H:39])[N+:32]([C:30]([H:40])([H:41])[H:42])([C:31]([H:43])([H:44])[C:21]([H:35])([H:36])[C:20]([H:33])([H:34])[C:23]([C:25]([C:27]([C:28]([C:26]([C:24]([C:22]([C:19]([F:2])([F:3])[F:4])([F:5])[F:6])([F:9])[F:10])([F:13])[F:14])([F:17])[F:18])([F:15])[F:16])([F:11])[F:12])([F:7])[F:8])[O-:1]" dataset=PubChem energy=-63433.64767642284 pbc="F F F"
O        6.65672839      -0.58002844       0.08233634       0.26171513      -3.61370141      -0.80628999
F       -7.18821703      -2.39503243       1.08709315      -0.05109980       0.40108757      -0.10737751
F       -7.72473799      -2.97684528      -1.00283285       2.16237334       1.89155741       1.64311470
F       -6.08399474      -3.88896825      -0.02224078       0.92021869       0.89462415       0.47760384
F       -6.49206101      -0.77155986      -1.40667530       0.64074304       0.61045177       2.08526682
F       -4.88231646      -2.07348277      -1.56327888       0.73662170      -0.53823200       1.23270718
F        1.51266253       3.11457941       2.34213475      -0.38372753      -0.79301779      -1.00532885
F        1.23471886       2.94664714       0.17060265      -0.79643477       0.24202102      -0.29839170
F       -4.70518052      -1.59693053       1.59332326      -0.26761500       0.92079263      -1.35167517
F       -5.66942107       0.31014529       0.82295993       1.59221410      -1.60263337      -0.30114692
F       -0.91088128       2.70918414       2.41680530       0.05613358      -0.57075438      -0.07732399
F       -0.01686307       0.67182482       2.53214291      -0.73459156       0.45599204      -0.42001553
F       -2.63538157      -1.42716350      -0.08335486      -0.16661410       1.15444014       1.16481504
F       -3.37205803       0.36820168      -1.02233025      -0.21729655       0.44693379       0.01053441
F       -0.72791289       0.41811974      -0.29626366      -0.84135425       1.66878823       1.51810557
F       -1.71168696       2.46597908      -0.07367226       0.95632332      -1.45689115       0.47922670
F       -3.48636328       1.80133650       1.46131269       0.37046062      -1.51368789      -0.64183998
F       -2.56502425       0.03261677       2.42133966       0.07840839       1.03569261      -2.40218412
C       -6.64384066      -2.67310264      -0.07580283      -2.08280905      -2.58298056      -1.42420613
C        2.34251142       1.09068362       1.23104349      -1.47412054       0.47253530       1.00676867
C        3.66026676       1.48555896       0.57891989      -0.29499792      -1.02514073      -2.21846950
C       -5.66196667      -1.53645232      -0.58821758      -1.42734007      -0.80085014      -3.95533133
C        1.16286451       2.24220285       1.30127529       2.57401735      -0.96367283       1.05929134
C       -4.83621394      -0.77668419       0.48154544      -0.70711248       1.37605618       2.22627945
C       -0.30512714       1.72725186       1.71249560       1.26790285       0.33910353       0.05944741
C       -3.33667027      -0.27184542       0.15908629      -1.68700009      -1.38515663      -1.62498615
C       -1.32371818       1.33145562       0.60037771      -0.21267863      -0.64897478      -0.90342623
C       -2.70989811       0.71014709       1.18260691       0.78333599       0.14369420       2.29051738
C        7.18703071       1.51437701       0.94338599      -1.12502310       1.20509103      -0.36143572
C        6.00938904       1.12352071      -1.28480550       1.21245048       1.41318259      -2.13470212
C        4.65684474       0.29726931       0.64419757      -1.22005579       3.09253280      -2.58803774
N        5.98383820       0.50586767       0.01019747       3.68455765       2.12303553       3.12678087
H        2.53377164       0.72263244       2.26027969      -0.34835379       0.42075984      -0.52330821
H        1.93308056       0.25256454       0.68816433      -0.28334654      -0.25090540      -0.17081749
H        3.46881592       1.62722168      -0.54528364       0.35011509       0.65865928       1.81551617
H        4.12176097       2.27959535       1.10934553       0.19057880       1.24020885      -0.06292066
H        7.25826351       2.52886016       0.56351119      -0.50249012       0.26540142      -0.32961707
H        8.21559516       1.12308598       0.82255272      -1.29975665      -0.81489311      -0.22668174
H        6.91492978       1.63083548       1.99501861      -0.27465867      -0.66877797      -0.21145783
H        7.04782212       1.16923681      -1.73690792      -1.16936984      -0.67931695       0.99648545
H        5.33931410       0.77007876      -2.05278846      -0.30735618      -1.00844326       0.21127386
H        5.75317919       2.14407262      -1.18936404      -0.45442955       1.22927313       0.30351104
H        4.27168930      -0.48490789       0.07850650      -0.64575928      -1.57806761      -0.87841744
H        4.71674121       0.02452526       1.60658470       1.12748517      -1.17943172       3.31341297
