44
Properties=species:S:1:pos:R:3:forces:R:3 id=40292 bond=C-N smiles="[H:37][C:29]([H:38])([H:39])[N+:32]([C:30]([H:40])([H:41])[H:42])([C:31]([H:43])([H:44])[C:21]([H:35])([H:36])[C:20]([H:33])([H:34])[C:23]([C:25]([C:27]([C:28]([C:26]([C:24]([C:22]([C:19]([F:2])([F:3])[F:4])([F:5])[F:6])([F:9])[F:10])([F:13])[F:14])([F:17])[F:18])([F:15])[F:16])([F:11])[F:12])([F:7])[F:8])[O-:1]" dataset=PubChem energy=-63434.07998202127 pbc="F F F"
O        6.77411303      -0.48163729       0.17337912       0.82106602      -6.47125748      -1.00762677
F       -7.07083239      -2.29664128       1.17813593      -0.05091800       0.40076213      -0.10730035
F       -7.60735335      -2.87845413      -0.91179007       2.16243322       1.89181832       1.64336074
F       -5.96661010      -3.79057710       0.06880200       0.92041443       0.89533513       0.47762157
F       -6.37467637      -0.67316871      -1.31563252       0.64099971       0.61058469       2.08556912
F       -4.76493182      -1.97509162      -1.47223610       0.73703156      -0.53808498       1.23241418
F        1.63004717       3.21297056       2.43317753      -0.38220924      -0.79552527      -1.00740442
F        1.35210350       3.04503829       0.26164543      -0.79348614       0.24013208      -0.29822682
F       -4.58779588      -1.49853938       1.68436604      -0.26729080       0.92123235      -1.35190846
F       -5.55203643       0.40853644       0.91400271       1.59254777      -1.60251255      -0.30108839
F       -0.79349664       2.80757529       2.50784808       0.05943867      -0.57206650      -0.07947186
F        0.10052157       0.77021597       2.62318569      -0.73244329       0.45636379      -0.42061206
F       -2.51799693      -1.32877235       0.00768792      -0.16633357       1.15513760       1.16514264
F       -3.25467339       0.46659283      -0.93128747      -0.21679645       0.44732272       0.01058148
F       -0.61052825       0.51651089      -0.20522088      -0.84023352       1.66913301       1.51826513
F       -1.59430232       2.56437023       0.01737052       0.95744877      -1.45694625       0.47970351
F       -3.36897864       1.89972765       1.55235547       0.37153911      -1.51362849      -0.64225514
F       -2.44763961       0.13100792       2.51238244       0.07911951       1.03609742      -2.40237686
C       -6.52645602      -2.57471149       0.01523995      -2.08347602      -2.58390752      -1.42413910
C        2.45989606       1.18907477       1.32208627      -1.47636439       0.47482787       1.01118031
C        3.77765140       1.58395011       0.66996267      -0.31199195      -1.02276083      -2.22042714
C       -5.54458203      -1.43806117      -0.49717480      -1.42769854      -0.80120520      -3.95600223
C        1.28024915       2.34059400       1.39231807       2.56856194      -0.95719440       1.06270395
C       -4.71882930      -0.67829304       0.57258822      -0.70795415       1.37576543       2.22684226
C       -0.18774250       1.82564301       1.80353838       1.26321237       0.33808327       0.06123935
C       -3.21928563      -0.17345427       0.25012907      -1.68759441      -1.38624163      -1.62556250
C       -1.20633354       1.42984677       0.69142049      -0.21510035      -0.64891648      -0.90478505
C       -2.59251347       0.80853824       1.27364969       0.78145594       0.14317249       2.29149811
C        7.06964607       1.41598586       0.85234321       0.94843896       3.19897367       1.72165687
C        6.12677368       1.22191186      -1.19376272       0.49112015       1.05701726      -3.07952758
C        4.77422938       0.39566046       0.73524035      -1.55762621       2.83038171      -2.89730619
N        6.10122284       0.60425882       0.10124025       1.42864599       2.62611068       1.71410689
H        2.65115628       0.82102359       2.35132247      -0.34881358       0.42024936      -0.52297254
H        2.05046520       0.35095569       0.77920711      -0.27851021      -0.24987633      -0.17192830
H        3.58620056       1.72561283      -0.45424086       0.35410379       0.65647560       1.81619587
H        4.23914561       2.37798650       1.20038831       0.17966784       1.25376528      -0.05673935
H        7.14087887       2.43046901       0.47246841      -0.35189741       0.45869497       0.03122741
H        8.09821052       1.02469483       0.73150994      -1.14459001      -0.15475233       0.13020122
H        6.79754514       1.53244433       1.90397583       0.05157968      -0.53552267      -0.13105798
H        7.16520676       1.26762796      -1.64586514      -1.16099034      -0.69795633       1.01755126
H        5.45669874       0.86846991      -1.96174568      -0.24527457      -0.97319582       0.17771901
H        5.87056383       2.24246377      -1.09832126      -0.50418717       1.16912006       0.24878416
H        4.38907394      -0.38651674       0.16954928      -0.65674131      -1.56548714      -0.83866221
H        4.83412585       0.12291641       1.69762748       1.18931779      -1.17217129       3.31942764
