19
Properties=species:S:1:pos:R:3:forces:R:3 id=29049 bond=C-O smiles="[H:13][C:5]([H:14])([H:15])[C:7]([H:18])([H:19])[C:6]([H:16])([H:17])[O:2][C:4]([H:11])([H:12])[O:1][C:3]([H:8])([H:9])[H:10]" dataset="DES370K Monomers" energy=-9479.486088581278 pbc="F F F"
O        1.21792001      -0.11593581      -2.12513109       0.32141854       0.37398741      -0.04360102
O        0.44773978       0.64859398      -0.04010125       1.32481299       1.21213979       0.01177199
C        0.83392161       0.82587514      -3.14044591      -0.88469595       0.36461657       0.77719905
C        1.57104820       0.52186844      -0.89947244      -1.27687869       1.06608431      -0.69142361
C       -1.55323464      -1.06951515       2.76280042       0.80519716      -1.68563742      -2.93590365
C        0.09440102      -0.42187894       0.80466380      -0.29272977      -0.68015062       0.47975138
C       -0.89880216       0.07576524       1.90368923      -0.01255566      -0.14271452       0.76995076
H        0.69416606       0.38459007      -4.09837981       0.96365965      -0.96885763      -0.69635537
H       -0.18577261       1.21742586      -3.05309911       0.02433792       0.14012919       1.04162601
H        1.50753910       1.68026916      -3.16905781       0.17795783      -0.13127602      -0.17192838
H        1.90379650       1.54127399      -1.17487343      -0.38953669      -0.26487975       0.47784027
H        2.41571027       0.07317483      -0.40321048       0.03513520      -0.94293939       0.02254979
H       -0.84581441      -1.61038128       3.42741986      -0.79414409       1.11987661       0.35218038
H       -1.77483422      -1.92533270       2.07761880       0.43771286       0.43050921      -0.17478277
H       -2.58964950      -0.91988853       3.00367161       0.00985166       0.74307911       1.33800098
H       -0.39438892      -1.10834197       0.10350043      -0.32100307      -0.43965945       0.75215889
H        0.94566267      -0.97636375       1.26765533      -0.19772213       0.64903121      -0.39932946
H       -0.54890943       0.82549896       2.64348789       0.85450225      -0.54044540      -0.64488607
H       -1.60638959       0.69438477       1.37492677      -0.78851822      -0.30511007      -0.26730054
