19
Properties=species:S:1:pos:R:3:forces:R:3 id=29049 bond=C-O smiles="[H:13][C:5]([H:14])([H:15])[C:7]([H:18])([H:19])[C:6]([H:16])([H:17])[O:2][C:4]([H:11])([H:12])[O:1][C:3]([H:8])([H:9])[H:10]" dataset="DES370K Monomers" energy=-9477.28348441562 pbc="F F F"
O        1.43066781      -0.13993686      -2.28789078       0.30458664       1.09633647       1.92617570
O        0.23499198       0.67259503       0.12265844       3.45274653       0.95952933      -1.86216145
C        1.04666941       0.80187409      -3.30320560      -1.07377743       0.68703307       0.53626381
C        1.78379600       0.49786739      -1.06223213      -2.30611621       0.28278240      -1.44783754
C       -1.76598244      -1.04551410       2.92556011       0.79060939      -1.69065920      -2.92510881
C       -0.11834678      -0.39787789       0.96742349       0.33078966      -0.51044102      -0.03944043
C       -1.11154996       0.09976629       2.06644892      -0.04413717      -0.06253134       0.84636299
H        0.90691386       0.36058902      -4.26113950       0.98401463      -1.01360165      -0.64987207
H        0.02697519       1.19342481      -3.21585880       0.08719695       0.06513096       1.07845227
H        1.72028690       1.65626811      -3.33181750       0.16655108      -0.17432112      -0.15352915
H        2.11654430       1.51727294      -1.33763312      -1.08651265      -0.09645642       0.94840951
H        2.62845807       0.04917378      -0.56597017      -0.61920757      -1.00911881       0.60066021
H       -1.05856221      -1.58638023       3.59017955      -0.78920301       1.11676700       0.35146266
H       -1.98758202      -1.90133165       2.24037849       0.44101448       0.42702403      -0.17763024
H       -2.80239730      -0.89588748       3.16643130      -0.00257578       0.74049147       1.34269912
H       -0.60713672      -1.08434092       0.26626012      -0.38936332      -0.53017493       0.78308789
H        0.73291487      -0.95236270       1.43041502      -0.29661757       0.54762587      -0.25219451
H       -0.76165723       0.84950001       2.80624758       0.84877336      -0.53675359      -0.64195216
H       -1.81913739       0.71838582       1.53768646      -0.79731412      -0.30073859      -0.26460460
