19
Properties=species:S:1:pos:R:3:forces:R:3 id=29049 bond=C-O smiles="[H:13][C:5]([H:14])([H:15])[C:7]([H:18])([H:19])[C:6]([H:16])([H:17])[O:2][C:4]([H:11])([H:12])[O:1][C:3]([H:8])([H:9])[H:10]" dataset="DES370K Monomers" energy=-9452.456206328501 pbc="F F F"
O        0.97113255      -0.08809460      -1.93632984       0.35784613      -2.14399703      -6.86086355
O        0.69452724       0.62075277      -0.22890250    -134.13919549      13.51313291     105.92647711
C        0.58713415       0.85371635      -2.95164466      -0.46507137      -0.26772438       0.89351040
C        1.32426074       0.54970965      -0.71067119     130.17005475      -8.79191429     -98.12088497
C       -1.30644718      -1.09735636       2.57399917       0.81962679      -1.72258821      -2.93317673
C        0.34118848      -0.44972015       0.61586255      -3.97043066      -2.13495537       3.53609729
C       -0.65201470       0.04792403       1.71488798      -0.16056998      -0.16850637       0.80353681
H        0.44737860       0.41243128      -3.90957856       0.87339189      -0.82381249      -0.82061525
H       -0.43256007       1.24526707      -2.86429786      -0.14081962       0.21614472       0.98988963
H        1.26075164       1.70811037      -2.98025656       0.18197150      -0.11023262      -0.16608387
H        1.65700904       1.56911520      -0.98607218       2.59271622       1.73806154      -2.35547753
H        2.16892281       0.10101604      -0.21440923       4.09145015      -1.87496974      -1.12691713
H       -0.59902695      -1.63822249       3.23861861      -0.79720350       1.13238173       0.34672095
H       -1.52804676      -1.95317391       1.88881755       0.43052508       0.43861012      -0.16660448
H       -2.34286204      -0.94772974       2.81487036       0.02752759       0.75739427       1.32240650
H       -0.14760146      -1.13618318      -0.08530082      -0.09363086      -0.05172595       0.51719398
H        1.19245013      -1.00420496       1.07885408       0.16271941       1.17372538      -0.91861756
H       -0.30212197       0.79765775       2.45468664       0.86739214      -0.55125309      -0.63803594
H       -1.35960213       0.66654356       1.18612552      -0.80802616      -0.33079722      -0.23160116
