19
Properties=species:S:1:pos:R:3:forces:R:3 id=29049 bond=C-O smiles="[H:13][C:5]([H:14])([H:15])[C:7]([H:18])([H:19])[C:6]([H:16])([H:17])[O:2][C:4]([H:11])([H:12])[O:1][C:3]([H:8])([H:9])[H:10]" dataset="DES370K Monomers" energy=-9479.49495086626 pbc="F F F"
O        1.19239027      -0.11305569      -2.10559993       0.34606865       0.24777375      -0.40625284
O        0.47326952       0.64571386      -0.05963241      -0.34108864       1.28313552       1.40052763
C        0.80839187       0.82875526      -3.12091475      -0.85199804       0.31493068       0.80061921
C        1.54551846       0.52474856      -0.87994128       0.15147877       1.13024387      -1.55032153
C       -1.52770490      -1.07239527       2.74326926       0.80694564      -1.68608440      -2.93640009
C        0.11993076      -0.42475906       0.78513264      -0.45132214      -0.67916066       0.57920935
C       -0.87327242       0.07288512       1.88415807      -0.01676998      -0.15256286       0.76841125
H        0.66863632       0.38747019      -4.07884865       0.95821036      -0.96015784      -0.70431215
H       -0.21130235       1.22030598      -3.03356795       0.01278419       0.14889372       1.03697171
H        1.48200936       1.68314928      -3.14952665       0.17850436      -0.12774228      -0.17307987
H        1.87826676       1.54415411      -1.15534227      -0.23191679      -0.25711068       0.34595388
H        2.39018053       0.07605495      -0.38367932       0.19806549      -0.96269995      -0.08177343
H       -0.82028467      -1.61326140       3.40788870      -0.79464386       1.12038851       0.35218745
H       -1.74930448      -1.92821282       2.05808764       0.43719744       0.43113878      -0.17432767
H       -2.56411976      -0.92276865       2.98414045       0.01140313       0.74363643       1.33719929
H       -0.36885918      -1.11122209       0.08396927      -0.30761479      -0.42217551       0.74250064
H        0.97119241      -0.97924387       1.24812417      -0.17618168       0.67382795      -0.42858685
H       -0.52337969       0.82261884       2.62395673       0.85542902      -0.54112891      -0.64525410
H       -1.58085985       0.69150465       1.35539561      -0.78736295      -0.30699100      -0.26629183
