46
Properties=species:S:1:pos:R:3:forces:R:3 id=35034 bond=C-C smiles="[H:35][c:12]1[c:11]([c:19]([c:21]2[c:22]([c:20]1[H:37])[c:18]([n:3][n:2][c:17]2[N:23]([H:38])[c:13]3[c:6]([c:14]([c:8]([c:15]([c:7]3[H:30])[C:25]([H:42])([H:43])[H:44])[H:31])[C:24]([H:39])([H:40])[H:41])[H:29])[C:26]([H:45])([H:46])[c:16]4[c:9]([c:4]([n:1][c:5]([c:10]4[H:33])[H:28])[H:27])[H:32])[H:36])[H:34]" dataset=PubChem energy=-29109.376442412653 pbc="F F F"
N       -3.36087105       5.30067206       3.58218523      -0.60484209      -0.27333836       1.05018998
N        0.31751274       0.92232397      -0.23298476       1.77326648      -1.16490971      -0.16131686
N       -0.85232327       1.45956720       0.04238572      -1.90728104      -0.17501573       1.80116374
C       -4.11172721       4.23234535       3.92052051       0.23100294      -0.15006977      -0.76738980
C       -2.46387479       5.17462064       2.61518236      -0.25781706      -0.07129288      -0.19781095
C        3.49065640      -1.52660846      -1.59729913       0.37347397      -0.21977758      -1.04272160
C        3.01163294       0.81129794      -1.61843423      -1.38349929      -1.15755867       2.04650926
C        4.36201622      -0.06825244      -3.36183480      -0.92703251      -2.26322379       1.82503424
C       -4.00326536       2.99921513       3.25631591       0.37096715       0.61040543      -0.26319551
C       -2.32822177       4.01915694       1.87458595       0.54283779      -0.25852892       0.21878223
C        0.12775599      -1.74221777       3.79027482       0.00945751       0.98740119      -1.25885223
C       -1.01978550      -1.03283607       4.17822667      -0.14468793       1.61345844      -1.87230392
C        2.80353477      -0.46409761      -1.05172923       0.36280154       1.10190685      -0.57963106
C        4.23737003      -1.32964920      -2.77389697       0.24003069       0.99186646      -0.25042281
C        3.77644350       1.03855539      -2.76455596      -7.64388147     -53.31601943      21.90319367
C       -3.07314012       2.89777232       2.21468588      -0.39945509      -0.26736874      -0.40711122
C        0.85307171      -0.05370908       0.51198205       0.47791813       0.91105469      -1.78436981
C       -1.53162382       1.10395227       1.15286848      -0.04237250       1.10647195      -1.96867068
C        0.74654811      -1.43783950       2.58872696      -0.09418786       0.01757673       0.29514122
C       -1.52804801      -0.04853140       3.31081101      -0.68470602      -1.18085114       1.79622994
C        0.23742881      -0.41464578       1.71276351       0.72465313      -2.16371062       1.42482167
C       -0.95392344       0.20158578       2.05919667      -0.37872731       0.40333805       0.52351720
N        2.04089417      -0.71078466       0.09669086      -1.49783732       0.67260070       0.83949279
C        5.00294592      -2.40333652      -3.44556001       0.71437839      -0.78447065       1.20129612
C        3.90222075       1.97343758      -3.13471786       8.10372155      52.72131317     -21.77687097
C       -2.96788952       1.65740759       1.33107301       0.53255497       0.23193971      -0.72919471
H       -4.87220952       4.34927083       4.70412870       0.50701724       0.17094502      -0.31848946
H       -1.84195683       6.03466130       2.36824950      -0.26725472      -0.05362030       0.20370932
H        3.41504790      -2.48211883      -1.10102502       0.14370596      -0.29292483      -0.24440629
H        2.55615642       1.66842891      -1.10043851       0.26701717      -0.40371991      -0.48649851
H        4.97359278       0.12576688      -4.21093801       0.43667695      -0.22748488      -0.57364030
H       -4.66518924       2.16536392       3.47072717       0.15632408       0.15486233       0.18127470
H       -1.59199617       3.99374605       1.08135112      -0.13618516      -0.18676391      -0.04484410
H        0.54357214      -2.46393393       4.44261690       0.32773673      -0.66791865       0.39061629
H       -1.47270558      -1.20909332       5.11917587      -0.38119283      -0.11434204       0.64825669
H        1.64618661      -2.00474452       2.33845981      -0.28508325       0.38657229       0.05336270
H       -2.42855046       0.51994405       3.59913727       0.66186040      -0.44271766      -0.13830750
H        2.10924044      -1.64622926       0.48324217       0.15325374       0.48026694      -0.35899221
H        5.46834185      -2.06768440      -4.36376956      -0.11479662      -0.08228277      -0.11505785
H        4.32195403      -3.21852015      -3.60132697       0.01164072      -0.67265152      -0.42519961
H        5.80441000      -2.74808310      -2.75402645      -0.42193301       0.00919529      -0.55630834
H        4.82267286       1.96065834      -3.75699798      -0.30544832       1.74767062      -0.19988538
H        3.07693293       2.19583956      -3.82929984       0.09177909       1.13563379      -0.19531085
H        3.95822479       2.70900801      -2.34082548      -0.03566775       1.38653076      -0.58792423
H       -3.62370918       0.86592436       1.68459591       0.07775591      -0.03387677       0.21049444
H       -3.37584493       1.93430866       0.32783706       0.62125093      -0.21682520       0.68973000
