37
Properties=species:S:1:pos:R:3:forces:R:3 id=27846 bond=C-C smiles="[H:23][c:7]1[c:9]([c:14]([c:18]([c:15]([c:10]1[H:26])[H:31])[C:21]([H:36])([H:37])[C:20]([H:34])([H:35])/[C:6](=[N:3][N:2]=[C:5](/[H:22])[S:4][N:19]([H:32])[H:33])/[c:17]2[c:12]([c:8]([c:11]([c:16]([c:13]2[H:29])[Br:1])[H:27])[H:24])[H:28])[H:30])[H:25]" dataset=PubChem energy=-102216.39296487349 pbc="F F F"
Br      -0.37838034      -4.37974367       5.09437902      -0.80145302      -0.47711045      -0.94960451
N       -0.56010763      -0.55020365      -0.81313781      -1.21799522       0.76640577      -1.97364608
N       -0.33847980      -0.90910349       0.49876998       1.77185394      -0.58129644       1.87180691
S       -2.43946712      -0.39687119      -2.86769931       0.20952571      -0.50253832       0.91084568
C       -1.70295755      -0.98185882      -1.33742993       3.45427883       2.16847875       0.98245006
C        0.82321156      -0.65010414       1.10168929      -0.48227477      -0.26584622      -3.06979298
C       -0.50298956       3.91049303      -2.06566265       2.75955835      -0.97078663      -1.91486925
C        2.17478831      -1.27493737       4.63974960      -0.97946294      -0.67752098      -0.72981844
C        0.69146559       3.19506897      -2.64709619      -2.08541934       1.17210069       3.36831243
C       -0.69368795       3.85540737      -0.70896736      -0.15593420       0.11092849       1.05940134
C        1.48829432      -2.49827537       4.94949253       1.68568886       2.22989932       0.53057752
C        1.88975067      -0.58491836       3.40281518       0.14280186      -3.20521598       0.63709693
C        0.36829358      -2.53206262       2.84197910      -0.89223799       1.33697454      -1.72884046
C        1.50543126       2.50044169      -1.66741207      -0.70070608       1.07406992      -2.80863531
C        0.17760124       3.21108355       0.23062661      -1.30313799       0.46664225      -0.27540265
C        0.48423074      -2.98013410       4.13286598       1.23322080      -0.57223011       0.81974163
C        1.04645778      -1.32430324       2.46276898       0.60284535       2.03841168       0.57184061
C        1.26575920       2.51031198      -0.28639618      -0.92127568       0.51094766       0.57909689
N       -2.10637132       1.28003784      -2.93080513      -0.31533192      -0.53166941       0.02202805
C        2.11419818       0.18752631       0.31734254      -2.32512443      -0.16626654       4.00502965
C        2.13441619       1.73198583       0.63720237       2.28164021      -0.92560412       1.94802148
H       -2.25201122      -1.56939945      -0.66406421      -1.33892432      -1.17282682       0.31173013
H       -1.14910093       4.56475081      -2.71574285       0.69292739      -1.08168335       0.78124511
H        2.90372308      -0.91980467       5.39089448      -0.47024420      -0.03316862      -0.78173762
H        0.80536934       3.34954347      -3.73355248       0.59536242      -0.68096289       0.84652543
H       -1.58857110       4.36764206      -0.37141225       0.19730888      -0.02373641       0.40967378
H        1.76382180      -3.08110342       5.85422475      -0.32319835       0.87674174      -0.68972542
H        2.52968915       0.27581901       3.15384252      -0.90260026      -0.40762721      -0.10367413
H       -0.30438887      -2.97915754       2.06736763       0.66674335       0.44461419       1.04264004
H        2.38399872       1.97750451      -2.05828741      -0.30235865       0.09314769       0.29806355
H       -0.09177098       3.27374329       1.35392466       0.72116988      -0.30166264      -2.14125167
H       -1.78465478       1.54774346      -2.01571624       0.24997458       0.50447735       0.03529571
H       -1.46293764       1.55453148      -3.66067307       0.33537523      -0.31823602       0.38179644
H        1.98481199       0.16300835      -0.69012895      -0.76318665      -0.72461467      -2.77654175
H        3.02862665      -0.33627878       0.54498109       0.19668778       0.04467976       0.46894770
H        1.90492984       1.90324034       1.76136753       0.16859131      -0.03542831      -2.06657700
H        3.24470636       2.02398469       0.51224924      -1.68060079      -0.18307716       0.12699830
