37
Properties=species:S:1:pos:R:3:forces:R:3 id=27846 bond=C-C smiles="[H:23][c:7]1[c:9]([c:14]([c:18]([c:15]([c:10]1[H:26])[H:31])[C:21]([H:36])([H:37])[C:20]([H:34])([H:35])/[C:6](=[N:3][N:2]=[C:5](/[H:22])[S:4][N:19]([H:32])[H:33])/[c:17]2[c:12]([c:8]([c:11]([c:16]([c:13]2[H:29])[Br:1])[H:27])[H:24])[H:28])[H:30])[H:25]" dataset=PubChem energy=-102213.03269916553 pbc="F F F"
Br      -0.69682371      -4.58635919       5.28785122      -0.80887243      -0.47586443      -0.94797779
N       -0.87855100      -0.75681917      -0.61966561      -1.56704933       0.55082258      -1.89641597
N       -0.65692317      -1.11571901       0.69224218       3.25495551       0.24465826       1.58418354
S       -2.75791049      -0.60348671      -2.67422711       0.22446563      -0.49730642       0.90713705
C       -2.02140092      -1.18847434      -1.14395773       3.41916172       2.13840380       0.94360554
C        0.50476819      -0.85671966       1.29516149      -2.14680161      -1.09115372      -2.21153861
C       -0.18454619       4.11710855      -2.25913485       2.72754326      -1.07214925      -1.94289334
C        1.85634494      -1.48155289       4.83322180      -1.01491647      -0.66138464      -0.73046581
C        1.00990896       3.40168449      -2.84056839      -2.14597232       1.15713717       3.32262151
C       -0.37524458       4.06202289      -0.90243956      -0.14928351       0.08212062       1.08052081
C        1.16985095      -2.70489089       5.14296473       1.69309412       2.22561004       0.52720877
C        1.57130730      -0.79153388       3.59628738       0.14200308      -3.17822812       0.61958238
C        0.04985021      -2.73867814       3.03545130      -0.90305167       1.22726351      -1.74303544
C        1.82387463       2.70705721      -1.86088427      -0.69414661       1.05154337      -2.78025862
C        0.49604461       3.41769907       0.03715441      -1.32301497       0.49060613      -0.26867239
C        0.16578737      -3.18674962       4.32633818       1.22779008      -0.56051379       0.80489411
C        0.72801441      -1.53091876       2.65624118       0.91535079       2.13047969       0.57407946
C        1.58420257       2.71692750      -0.47986838      -0.89228242       0.52250465       0.57246853
N       -2.42481469       1.07342232      -2.73733293      -0.23912663      -0.40587271       0.04432245
C        2.43264155       0.39414183       0.12387034      -0.75050257       1.35159463       3.03565044
C        2.45285956       1.93860135       0.44373017       1.59711159      -1.42810199       2.10100227
H       -2.57045459      -1.77601497      -0.47059201      -1.34514308      -1.16838375       0.26335126
H       -0.83065756       4.77136633      -2.90921505       0.70148013      -1.06853396       0.77799511
H        2.58527971      -1.12642019       5.58436668      -0.47031383      -0.03272199      -0.78377023
H        1.12381271       3.55615899      -3.92702468       0.58822258      -0.68991730       0.85546856
H       -1.27012773       4.57425758      -0.56488445       0.19710620      -0.02046598       0.41484182
H        1.44537843      -3.28771894       6.04769695      -0.32212292       0.87165599      -0.69247233
H        2.21124578       0.06920349       3.34731472      -0.92212763      -0.38978071      -0.18409243
H       -0.62283224      -3.18577306       2.26083983       0.67358220       0.42879287       1.05705289
H        2.70244209       2.18412003      -2.25175961      -0.28197025       0.10470973       0.29422431
H        0.22667239       3.48035881       1.16045246       0.72371528      -0.30106053      -2.14053185
H       -2.10309815       1.34112794      -1.82224404       0.23604319       0.48992482       0.05705184
H       -1.78138101       1.34791596      -3.46720087       0.34296395      -0.30329017       0.34345792
H        2.30325536       0.36962387      -0.88360115      -1.20163448      -0.99395263      -2.75984189
H        3.34707002      -0.12966326       0.35150889      -0.17609008      -0.37191503       0.81858592
H        2.22337321       2.10985586       1.56789533       0.24449159      -0.03101786      -2.02971265
H        3.56314973       2.23060021       0.31877704      -1.55070663      -0.32089205       0.10819719
