37
Properties=species:S:1:pos:R:3:forces:R:3 id=27846 bond=C-C smiles="[H:23][c:7]1[c:9]([c:14]([c:18]([c:15]([c:10]1[H:26])[H:31])[C:21]([H:36])([H:37])[C:20]([H:34])([H:35])/[C:6](=[N:3][N:2]=[C:5](/[H:22])[S:4][N:19]([H:32])[H:33])/[c:17]2[c:12]([c:8]([c:11]([c:16]([c:13]2[H:29])[Br:1])[H:27])[H:24])[H:28])[H:30])[H:25]" dataset=PubChem energy=-102212.48509362551 pbc="F F F"
Br      -0.76567633      -4.63103281       5.32968305      -0.81112776      -0.47707279      -0.94651761
N       -0.94740362      -0.80149279      -0.57783378      -1.65184194       0.48982100      -1.87804717
N       -0.72577579      -1.16039263       0.73407401       3.45264656       0.37186265       1.52392212
S       -2.82676311      -0.64816033      -2.63239528       0.22522325      -0.49845678       0.90600951
C       -2.09025354      -1.23314796      -1.10212590       3.40910818       2.13744550       0.92771715
C        0.43591557      -0.90139328       1.33699332      -2.56709064      -1.33621035      -1.93388169
C       -0.11569357       4.16178217      -2.30096668       2.73071293      -1.07409796      -1.94034986
C        1.78749232      -1.52622651       4.87505363      -1.02238123      -0.66128549      -0.72974628
C        1.07876158       3.44635811      -2.88240022      -2.14657492       1.15938301       3.32142034
C       -0.30639196       4.10669651      -0.94427139      -0.14650800       0.08129811       1.08055952
C        1.10099833      -2.74956451       5.18479656       1.69610984       2.22643703       0.52740714
C        1.50245468      -0.83620750       3.63811921       0.14578975      -3.17306420       0.62131051
C       -0.01900241      -2.78335176       3.07728313      -0.90124189       1.20706892      -1.73506079
C        1.89272725       2.75173083      -1.90271610      -0.69279270       1.05220763      -2.78165755
C        0.56489723       3.46237269      -0.00467742      -1.32398654       0.49366450      -0.26569456
C        0.09693475      -3.23142324       4.36817001       1.22484355      -0.56169186       0.79777743
C        0.65916179      -1.57559238       2.69807301       0.92951453       2.12487871       0.58541243
C        1.65305519       2.76160112      -0.52170021      -0.88519399       0.52724342       0.57215395
N       -2.49366731       1.02874870      -2.69550110      -0.23473043      -0.39537371       0.04715759
C        2.50149417       0.43881545       0.08203851      -0.33350097       1.67519237       2.78285440
C        2.52171218       1.98327497       0.40189834       1.49975597      -1.47753578       2.10500112
H       -2.63930721      -1.82068859      -0.42876018      -1.34602730      -1.16611987       0.25462579
H       -0.76180494       4.81603995      -2.95104688       0.70255214      -1.06774874       0.77754255
H        2.51642709      -1.17109381       5.62619851      -0.47037703      -0.03249402      -0.78427074
H        1.19266533       3.60083261      -3.96885651       0.58725963      -0.69131909       0.85638486
H       -1.20127511       4.61893120      -0.60671628       0.19722467      -0.02039558       0.41560494
H        1.37652581      -3.33239256       6.08952878      -0.32192502       0.87047237      -0.69297363
H        2.14239316       0.02452987       3.38914655      -0.92498480      -0.39177102      -0.19249737
H       -0.69168486      -3.23044668       2.30267166       0.67295324       0.42627361       1.05883283
H        2.77129471       2.22879365      -2.29359144      -0.27976191       0.10566430       0.29381606
H        0.29552501       3.52503243       1.11862063       0.72396063      -0.30122889      -2.14064346
H       -2.17195077       1.29645432      -1.78041221       0.22919279       0.48258735       0.05723072
H       -1.85023363       1.30324234      -3.42536904       0.34189284      -0.30456222       0.33693523
H        2.37210798       0.41429749      -0.92543298      -1.23683510      -1.01094000      -2.77058139
H        3.41592264      -0.08498964       0.30967706      -0.19589296      -0.41377642       0.85091248
H        2.29222583       2.15452948       1.52606350       0.25392709      -0.02980346      -2.02273796
H        3.63200235       2.27527383       0.27694521      -1.52649831      -0.33879097       0.10994489
