37
Properties=species:S:1:pos:R:3:forces:R:3 id=27846 bond=C-C smiles="[H:23][c:7]1[c:9]([c:14]([c:18]([c:15]([c:10]1[H:26])[H:31])[C:21]([H:36])([H:37])[C:20]([H:34])([H:35])/[C:6](=[N:3][N:2]=[C:5](/[H:22])[S:4][N:19]([H:32])[H:33])/[c:17]2[c:12]([c:8]([c:11]([c:16]([c:13]2[H:29])[Br:1])[H:27])[H:24])[H:28])[H:30])[H:25]" dataset=PubChem energy=-102215.9374847769 pbc="F F F"
Br      -0.42141323      -4.40766469       5.12052391      -0.80180008      -0.47620456      -0.95000626
N       -0.60314052      -0.57812467      -0.78699292      -1.24880154       0.75670724      -1.96762432
N       -0.38151269      -0.93702451       0.52491487       2.02610493      -0.45170684       1.83533505
S       -2.48250001      -0.42479221      -2.84155442       0.21338469      -0.49894012       0.91291396
C       -1.74599044      -1.00977984      -1.31128504       3.45204804       2.16224052       0.98115186
C        0.78017867      -0.67802516       1.12783418      -0.34951193      -0.13771807      -3.19360307
C       -0.45995667       3.93841405      -2.09180754       2.74834491      -0.99973821      -1.92596022
C        2.13175542      -1.30285839       4.66589449      -0.98300538      -0.67322894      -0.73000546
C        0.73449848       3.22298999      -2.67324108      -2.10582188       1.16443000       3.35524795
C       -0.65065506       3.88332839      -0.73511225      -0.15634505       0.10373400       1.06487331
C        1.44526143      -2.52619639       4.97563742       1.68579676       2.22867876       0.52941856
C        1.84671778      -0.61283938       3.42896007       0.14040944      -3.19951430       0.63008630
C        0.32526069      -2.55998364       2.86812399      -0.89617187       1.32143742      -1.73761190
C        1.54846415       2.52836271      -1.69355696      -0.70071131       1.06607575      -2.79953797
C        0.22063413       3.23900457       0.20448172      -1.30819059       0.47235016      -0.27673719
C        0.44119785      -3.00805512       4.15901087       1.23275607      -0.56860909       0.81966413
C        1.00342489      -1.35222426       2.48891387       0.68191762       2.07470501       0.54730246
C        1.30879209       2.53823300      -0.31254107      -0.91888862       0.51214040       0.57787170
N       -2.14940421       1.25211682      -2.90466024      -0.29567996      -0.50313908       0.02604241
C        2.15723107       0.21544733       0.29119765      -2.47191607      -0.15936552       4.09716076
C        2.17744908       1.75990685       0.61105748       2.17331829      -1.04095108       1.98372227
H       -2.29504411      -1.59732047      -0.63791932      -1.33871547      -1.17477580       0.30521683
H       -1.10606804       4.59267183      -2.74188774       0.69429987      -1.07860039       0.78055696
H        2.86069019      -0.94772569       5.41703937      -0.47021548      -0.03322729      -0.78200203
H        0.84840223       3.37746449      -3.75969737       0.59405407      -0.68236830       0.84811096
H       -1.54553821       4.39556308      -0.39755714       0.19706939      -0.02280517       0.41056428
H        1.72078891      -3.10902444       5.88036964      -0.32302832       0.87617902      -0.69011450
H        2.48665626       0.24789799       3.17998741      -0.90670587      -0.40006205      -0.11878237
H       -0.34742176      -3.00707856       2.09351252       0.66891329       0.44166069       1.04501633
H        2.42703161       2.00542553      -2.08443230      -0.29815434       0.09593333       0.29729594
H       -0.04873809       3.30166431       1.32777977       0.72164206      -0.30122931      -2.14090079
H       -1.82768767       1.51982244      -1.98957135       0.25379880       0.50989279       0.04313833
H       -1.50597053       1.52661046      -3.63452818       0.33928538      -0.31210560       0.37640609
H        2.02784488       0.19092937      -0.71627384      -0.86326562      -0.79413684      -2.75931628
H        3.07165954      -0.30835776       0.51883620       0.10326486      -0.03962470       0.54095822
H        1.94796273       1.93116136       1.73522264       0.18230936      -0.03361310      -2.05855360
H        3.28773925       2.05190571       0.48610435      -1.66521126      -0.20292729       0.12150997
