45
Properties=species:S:1:pos:R:3:forces:R:3 id=64 bond=C-O smiles="[H:32][C:9]1([C:10]([C:16]2([C:12]([C:15]1([C:13]([C:17]2([H:45])[C:11]([H:36])([H:37])[C:14]([H:42])([C:5]([H:24])([H:25])[H:26])[C:8]([H:31])([O:1][C:6]([H:27])([H:28])[C:3]([H:18])([H:19])[H:20])[O:2][C:7]([H:29])([H:30])[C:4]([H:21])([H:22])[H:23])([H:40])[H:41])[H:43])([H:38])[H:39])[H:44])([H:34])[H:35])[H:33]" dataset=PubChem energy=-20115.141048647783 pbc="F F F"
O       -0.23093899       0.82588118      -0.93774404      -0.79853049      -0.15733092      -0.96009553
O       -1.75486918       0.17122476       0.81259893       0.90252980      -1.09036249      -2.42127409
C        0.59087831       0.73719934      -3.21696677       0.07853407      -0.98844193       0.55914251
C       -2.51904296      -3.06344390       0.50740725       0.35144443       1.81328517      -0.27548483
C       -1.93595548       3.17547063       1.43659584       1.21632733       1.46900025      -0.15086928
C       -0.41221567       1.36916898      -2.29111924       0.95605534       0.80299785       1.36247905
C       -1.91807627      -1.99136305      -0.42246514      -0.76903166      -1.40103327      -0.66219525
C       -1.27932735       1.23420538      -0.01857354      -0.02380638      -1.27600618       0.03104024
C        4.22485713       0.63789854       1.74603532       0.85714048      -0.77150632      -1.39764073
C        3.24480942      -0.24564548       2.54166672      -0.09303537      -0.43811474       0.24463981
C        0.12328447       1.94015650       2.11438070       0.08627975      -0.38953712      -0.86307463
C        3.10707382       1.97711680       3.26337252      -0.97812785       1.08664662       1.10377918
C        2.41178779       2.15731995       0.97853031      -0.31581785       0.10475105       0.54497420
C       -0.72556360       2.37299065       0.89278906      -0.96050077       0.15868330       1.03178947
C        3.63536957       2.03428761       1.85421357       1.80094815       0.79757958      -0.34351292
C        2.20258526       0.79285383       2.99249730       0.21162715      -0.61222599      -0.39210232
C        1.42344324       1.23874278       1.72465346      -0.52110356       0.58085117       1.03409105
H        1.55077181       0.62477870      -2.70156349      -0.13139400       0.13798385      -0.28528289
H        0.69911178       1.29776268      -4.13027395       0.10546461       0.28105372      -0.22952506
H        0.22748909      -0.26123591      -3.48245634       0.26842833       0.06088773       0.00171698
H       -1.85859060      -3.26094603       1.32313246       0.38460444      -0.29768685       0.45146002
H       -2.70205831      -3.97310662      -0.06585413       0.38088902       0.00473170      -0.34839599
H       -3.48154568      -2.79731297       0.89935518      -0.40740440       0.39139740       0.18420609
H       -2.63684459       2.51250295       1.90478227      -0.51166440      -0.23517312       0.00021734
H       -2.37809463       3.80719666       0.63965473      -0.11351584      -0.61212540       0.45326687
H       -1.58271571       3.89652375       2.22227941      -0.30103407      -0.63998403      -0.66323386
H       -0.20455881       2.46146111      -2.22495259      -0.38804684      -0.53559831      -0.11637785
H       -1.40021380       1.20382785      -2.70929732      -0.40035132       0.02910780       0.43692251
H       -0.95181631      -2.34321522      -0.83230715       0.09633144       1.29437379       0.98206533
H       -2.55160212      -1.85940742      -1.32645052       0.14601034       1.11447769       1.04098470
H       -2.09390708       1.58093773      -0.68994715       0.18965784       0.17360868       0.64138353
H        5.24879817       0.62600331       2.14693604      -0.36490350      -0.13117304      -0.05725910
H        4.27725390       0.26914768       0.69260944       0.12476637       0.46526519       0.69637763
H        2.80150060      -1.04675241       1.92737041       0.16293733       0.34072972       0.26483049
H        3.74079589      -0.72144838       3.40017138      -0.18641375       0.15086783      -0.21452349
H        0.36923307       2.83286182       2.70724140      -0.17804518      -0.18301358      -0.19425671
H       -0.44926890       1.25695343       2.73468385      -0.20227994       0.07748599       0.07469479
H        3.82747916       1.78647975       4.08271609      -0.12900955       0.11529180      -0.68255628
H        2.53009967       2.88660649       3.52362595       0.30330397      -0.39703834      -0.03954438
H        2.11394171       3.21025876       0.96940289      -0.31336362      -0.17291706      -0.01182441
H        2.53937224       1.84018074      -0.04677417       0.27883036      -0.03052615      -0.18178021
H       -0.09616532       3.01933126       0.28334711      -0.14222399      -0.01453606      -0.24722735
H        4.34487132       2.85698919       1.68416403       0.02073281      -0.42778696      -0.03649110
H        1.61038069       0.44730685       3.82609115      -0.40671498       0.01206505       0.05707510
H        1.19481603       0.38930611       1.12661178      -0.28840561      -0.66572837      -0.42329079
