45
Properties=species:S:1:pos:R:3:forces:R:3 id=64 bond=C-O smiles="[H:32][C:9]1([C:10]([C:16]2([C:12]([C:15]1([C:13]([C:17]2([H:45])[C:11]([H:36])([H:37])[C:14]([H:42])([C:5]([H:24])([H:25])[H:26])[C:8]([H:31])([O:1][C:6]([H:27])([H:28])[C:3]([H:18])([H:19])[H:20])[O:2][C:7]([H:29])([H:30])[C:4]([H:21])([H:22])[H:23])([H:40])[H:41])[H:43])([H:38])[H:39])[H:44])([H:34])[H:35])[H:33]" dataset=PubChem energy=-20117.297960280837 pbc="F F F"
O       -0.24852596       0.59284370      -1.07083284      -0.91705322      -0.13968091      -0.85520217
O       -1.77245615      -0.06181272       0.67951013       0.66977859      -2.79629911      -2.83287282
C        0.57329134       0.50416186      -3.35005557       0.07201828      -0.99968308       0.56143957
C       -2.50145599      -2.83040642       0.64049605       0.24133754       1.34873857      -0.58299312
C       -1.95354245       2.94243315       1.30350704       1.22266244       1.47740786      -0.14797011
C       -0.42980264       1.13613150      -2.42420804       0.96294801       0.80777592       1.29170188
C       -1.90048930      -1.75832557      -0.28937634      -0.50700248       0.74802078       0.28043544
C       -1.29691432       1.00116790      -0.15166234       0.40644300      -0.70426466      -0.19685184
C        4.20727016       0.40486106       1.61294652       0.85728555      -0.77068381      -1.40023170
C        3.22722245      -0.47868296       2.40857792      -0.09273230      -0.43782152       0.24419723
C        0.10569750       1.70711902       1.98129190       0.08941568      -0.39355614      -0.86800063
C        3.08948685       1.74407932       3.13028372      -0.98284021       1.08866138       1.10200064
C        2.39420082       1.92428247       0.84544151      -0.31643974       0.10470849       0.54070492
C       -0.74315057       2.13995317       0.75970026      -1.02796277       0.06187051       0.91973829
C        3.61778260       1.80125013       1.72112477       1.80488760       0.79691350      -0.34221637
C        2.18499829       0.55981635       2.85940850       0.21435046      -0.61632600      -0.39036497
C        1.40585627       1.00570530       1.59156466      -0.52050246       0.59027554       1.04271385
H        1.53318484       0.39174122      -2.83465229      -0.13090923       0.14028007      -0.28639929
H        0.68152481       1.06472520      -4.26336275       0.10383136       0.28203250      -0.22409151
H        0.20990212      -0.49427339      -3.61554514       0.27056745       0.06624706       0.00297139
H       -1.84100363      -3.02790855       1.45622126       0.39315767      -0.26229037       0.46488584
H       -2.68447134      -3.74006914       0.06723467       0.37276202       0.01561304      -0.19637018
H       -3.46395871      -2.56427549       1.03244398      -0.39367016       0.43173024       0.19958383
H       -2.65443156       2.27946547       1.77169347      -0.51949139      -0.23215153       0.00966979
H       -2.39568160       3.57415918       0.50656593      -0.11510120      -0.61276400       0.45467066
H       -1.60030268       3.66348627       2.08919061      -0.30972716      -0.64736977      -0.66416439
H       -0.22214578       2.22842363      -2.35804139      -0.39075667      -0.54442996      -0.10389141
H       -1.41780077       0.97079037      -2.84238612      -0.39772963       0.02528112       0.44097197
H       -0.93422934      -2.11017774      -0.69921835      -0.07458865       1.11369793       0.89779403
H       -2.53401515      -1.62636994      -1.19336172       0.18200076       0.81145830       0.97029568
H       -2.11149405       1.34790025      -0.82303595       0.16637845       0.12254108       0.65069405
H        5.23121120       0.39296583       2.01384724      -0.36741334      -0.13120825      -0.05836546
H        4.25966693       0.03611020       0.55952064       0.12568402       0.46525772       0.69769680
H        2.78391363      -1.27978989       1.79428161       0.16503769       0.33853495       0.26521567
H        3.72320892      -0.95448586       3.26708258      -0.18971819       0.15178043      -0.21722115
H        0.35164610       2.59982434       2.57415260      -0.18331314      -0.19054421      -0.19458512
H       -0.46685587       1.02391595       2.60159505      -0.20177141       0.08133844       0.08260684
H        3.80989219       1.55344227       3.94962729      -0.13217663       0.11491698      -0.68477289
H        2.51251270       2.65356901       3.39053715       0.30393016      -0.39590484      -0.03842322
H        2.09635474       2.97722128       0.83631409      -0.31394679      -0.17392899      -0.01126802
H        2.52178527       1.60714326      -0.17986297       0.28071614      -0.02993414      -0.18186661
H       -0.11375229       2.78629378       0.15025831      -0.15304869      -0.01863697      -0.23523073
H        4.32728435       2.62395171       1.55107523       0.01769395      -0.42889457      -0.03686734
H        1.59279372       0.21426937       3.69300235      -0.40716859       0.01215735       0.05811510
H        1.17722906       0.15626863       0.99352298      -0.27868688      -0.67270142      -0.42740194
