45
Properties=species:S:1:pos:R:3:forces:R:3 id=64 bond=C-O smiles="[H:32][C:9]1([C:10]([C:16]2([C:12]([C:15]1([C:13]([C:17]2([H:45])[C:11]([H:36])([H:37])[C:14]([H:42])([C:5]([H:24])([H:25])[H:26])[C:8]([H:31])([O:1][C:6]([H:27])([H:28])[C:3]([H:18])([H:19])[H:20])[O:2][C:7]([H:29])([H:30])[C:4]([H:21])([H:22])[H:23])([H:40])[H:41])[H:43])([H:38])[H:39])[H:44])([H:34])[H:35])[H:33]" dataset=PubChem energy=-20112.65104704621 pbc="F F F"
O       -0.27947903       0.18269774      -1.30506913      -1.22769982       0.12624258      -0.23213812
O       -1.80340922      -0.47195868       0.44527384       4.70109169      42.49812692      22.05340050
C        0.54233827       0.09401590      -3.58429186       0.06302550      -1.05602959       0.58560593
C       -2.47050292      -2.42026046       0.87473234      -0.31108195      -1.48423323      -1.51482632
C       -1.98449552       2.53228719       1.06927075       1.21489386       1.46467566      -0.16990999
C       -0.46075571       0.72598554      -2.65844433       0.82625223       0.81266104       1.02302789
C       -1.86953623      -1.34817961      -0.05514005      -3.97772397     -39.99477422     -20.80240331
C       -1.32786739       0.59102194      -0.38589863       2.02577768       2.55940796      -0.23346628
C        4.17631709      -0.00528490       1.37871023       0.85825585      -0.77275966      -1.40521376
C        3.19626938      -0.88882892       2.17434163      -0.09740419      -0.45055341       0.22971118
C        0.07474443       1.29697306       1.74705561       0.11941002      -0.38003587      -0.88142832
C        3.05853378       1.33393336       2.89604743      -0.99097174       1.09673593       1.09491270
C        2.36324775       1.51413651       0.61120522      -0.32272242       0.10052385       0.52019210
C       -0.77410364       1.72980721       0.52546397      -1.03535071       0.06971460       0.77837674
C        3.58682953       1.39110417       1.48688848       1.81458656       0.79277319      -0.33402310
C        2.15404522       0.14967039       2.62517221       0.21572786      -0.63089416      -0.37525960
C        1.37490320       0.59555934       1.35732837      -0.51144467       0.60519781       1.06445441
H        1.50223177      -0.01840474      -3.06888858      -0.12835351       0.14103863      -0.29108320
H        0.65057174       0.65457924      -4.49759904       0.09359496       0.30280079      -0.20273103
H        0.17894905      -0.90441935      -3.84978143       0.27058879       0.09185669       0.02456785
H       -1.81005056      -2.61776259       1.69045755       0.51546604      -0.15266210       0.51448593
H       -2.65351827      -3.32992318       0.30147096       0.24278885      -0.20724037       0.16811530
H       -3.43300564      -2.15412953       1.26668027      -0.45329148       0.60859205       0.20369320
H       -2.68538463       1.86931951       1.53745718      -0.53984640      -0.21873586       0.03283895
H       -2.42663467       3.16401322       0.27232964      -0.11627254      -0.61647587       0.46064429
H       -1.63125575       3.25334031       1.85495432      -0.31827782      -0.67763480      -0.67564776
H       -0.25309885       1.81827767      -2.59227768      -0.36769946      -0.55855283      -0.05105612
H       -1.44875384       0.56064441      -3.07662241      -0.36758925      -0.00696664       0.48008776
H       -0.90327627      -1.70003178      -0.46498206       0.20210967      -1.46109632      -0.45252359
H       -2.50306208      -1.21622398      -0.95912543      -0.90760079      -1.31303850      -1.46476036
H       -2.14244712       0.93775429      -1.05727224      -0.11561597      -0.35036103       0.79636563
H        5.20025813      -0.01718013       1.77961095      -0.37422000      -0.12905835      -0.06104064
H        4.22871386      -0.37403576       0.32528435       0.12676161       0.46490327       0.70369115
H        2.75296056      -1.68993585       1.56004532       0.17054921       0.33890552       0.27088831
H        3.69225585      -1.36463182       3.03284629      -0.20091675       0.15842061      -0.22286036
H        0.32069303       2.18967838       2.33991631      -0.20076882      -0.21177418      -0.20118880
H       -0.49780894       0.61376999       2.36735876      -0.20979037       0.09288158       0.11994070
H        3.77893912       1.14329631       3.71539100      -0.14294524       0.11322090      -0.69196449
H        2.48155963       2.24342305       3.15630086       0.30722920      -0.38839158      -0.03309840
H        2.06540167       2.56707532       0.60207780      -0.31491523      -0.17210296      -0.00952760
H        2.49083220       1.19699730      -0.41409926       0.28322009      -0.02987783      -0.17921476
H       -0.14470536       2.37614782      -0.08397798      -0.17217103      -0.04274486      -0.21025527
H        4.29633128       2.21380575       1.31683894       0.00644327      -0.43129678      -0.03920171
H        1.56184065      -0.19587659       3.45876606      -0.40725591       0.00988335       0.06005687
H        1.14627599      -0.25387733       0.75928669      -0.24329729      -0.71097017      -0.44749015
