19
Properties=species:S:1:pos:R:3:forces:R:3 id=28614 bond=C-N smiles="[H:14][c:6]1[c:7]([c:9]([c:11]([c:10]([c:8]1[H:16])[H:18])[N:13]2[C:5](=[S:2])[S:3][C:4](=[S:1])[N:12]2[H:19])[H:17])[H:15]" dataset=PubChem energy=-43890.84475579776 pbc="F F F"
S        0.82527152       4.75890728       2.97762810       0.36639986      -0.42615028      -0.84422788
S        3.58842128       0.11872329       1.23508720      -0.67774799       0.85048858       0.68523354
S        2.97054833       2.79124661       2.50044690      -0.74864887      -0.68229010      -0.88693096
C        1.44600063       3.48193832       2.09642206      -2.21901455       1.39122679       0.84057894
C        2.53442556       1.37032552       1.58216594      -0.39618843      -1.52278164      -2.39456655
C       -0.80742575      -1.80113164      -0.85808582       0.15120082       1.51212040      -0.23131108
C       -0.85346188      -0.49933067      -1.43111581       0.23913325      -0.75692395       0.94437394
C       -0.11386944      -1.97561279       0.34164831      -0.57566671      -0.99886525       0.15723012
C       -0.18378688       0.57534938      -0.82227868      -0.21264737      -0.05812699      -0.31336179
C        0.48275568      -0.90275780       0.99684888       0.54299563       0.24946290       0.38956164
C        0.48616393       0.38303115       0.38626045       0.57239723      -0.16254809       0.28946736
N        0.70000070       2.79513903       1.15391939       2.57513923      -0.48220574       0.97594064
N        1.27387756       1.49559130       0.93636693       0.58253308      -0.26258907       1.35664997
H       -1.32078065      -2.64200822      -1.31564016       0.15546259       0.25718087      -0.02183485
H       -1.40787686      -0.30642054      -2.33664352       0.03687465      -0.12864592      -0.06434744
H       -0.11096592      -3.01872960       0.78236761       0.17732736       1.57775280      -0.38237043
H       -0.19250305       1.55630382      -1.33011931       0.11849711      -0.65182263       0.49834065
H        0.98345469      -1.14170138       1.96329158      -0.35708344       0.72353590      -1.02090171
H       -0.29019171       2.95292230       1.16485350      -0.33692287      -0.43014035       0.01986341
