19
Properties=species:S:1:pos:R:3:forces:R:3 id=28614 bond=C-N smiles="[H:14][c:6]1[c:7]([c:9]([c:11]([c:10]([c:8]1[H:16])[H:18])[N:13]2[C:5](=[S:2])[S:3][C:4](=[S:1])[N:12]2[H:19])[H:17])[H:15]" dataset=PubChem energy=-43888.49935508543 pbc="F F F"
S        0.96849218       4.96119095       3.07764746       0.31845659      -0.31213611      -0.76620855
S        3.73164194       0.32100696       1.33510656      -0.67532898       0.54985701       0.63204965
S        3.11376899       2.99353028       2.60046626      -0.77785186      -0.57688478      -0.85594204
C        1.58922129       3.68422199       2.19644142      -2.22195367       1.34098800       0.80705341
C        2.67764622       1.57260919       1.68218530      -1.16939409      -1.63141765      -2.64000006
C       -0.95064641      -2.00341531      -0.95810518       0.16489834       1.55752604      -0.19294996
C       -0.99668254      -0.70161434      -1.53113517       0.30419928      -1.07775700       1.08262011
C       -0.25709010      -2.17789646       0.24162895      -0.73752532      -0.96921520      -0.11261131
C       -0.32700754       0.37306571      -0.92229804       0.55489572       1.19443191       0.19465074
C        0.33953502      -1.10504147       0.89682952       1.35079105       1.13784376       1.02763169
C        0.34294327       0.18074748       0.28624109       0.75295080      -0.17687605       0.62939389
N        0.84322136       2.99742270       1.25393875       2.51378142      -0.70540253       1.15945678
N        1.41709822       1.69787497       1.03638629      -0.31216795      -1.83085624      -0.07080676
H       -1.46400131      -2.84429189      -1.41565952       0.16146299       0.26243261      -0.01979653
H       -1.55109752      -0.50870421      -2.43666288       0.07092448      -0.04872393      -0.04022613
H       -0.25418658      -3.22101327       0.68234825       0.21129750       1.61995040      -0.33608421
H       -0.33572371       1.35402015      -1.43013867       0.07502479      -0.68793938       0.47478721
H        0.84023403      -1.34398505       1.86327222      -0.32144011       0.69307014      -1.00267161
H       -0.14697105       3.15520597       1.26487286      -0.26447313      -0.34041989       0.02599522
