32
Properties=species:S:1:pos:R:3:forces:R:3 id=22548 bond=C-C smiles="[H:32][C@@:12]1([C:9]([C:8]([C@@:11]([S:2]1)([C:6]([H:22])([H:23])[H:24])[C:7]([H:25])([H:26])[C:5]([H:20])([H:21])[O:1][H:13])([H:27])[H:28])([H:29])[H:30])[C:10]([H:31])([C:3]([H:14])([H:15])[H:16])[C:4]([H:17])([H:18])[H:19]" dataset=PubChem energy=-23585.59128835001 pbc="F F F"
O       -1.43348523       0.55538651      -3.77833014       0.37191381       0.91954128       0.33752455
S       -0.16122871      -0.62026228       1.28109089      -0.19145044      -0.15975260      -1.29766279
C        1.60917545      -1.20217492       3.80336628       1.25691161       0.15987507       0.09561729
C        2.69281245       1.10097496       3.68938432      -0.01280913      -0.13691258      -0.40194415
C       -0.06849655       0.86271408      -3.42675142      -0.68356410      -0.25410676       1.23977283
C       -2.30047058       0.43223659       0.08364836      -1.18611077      -0.73196354      -1.23094221
C        0.44969321       0.15130472      -2.15914588      -0.71493285       0.43340767      -0.45869175
C       -0.45362179       1.95455716       0.63340429       1.07782397       0.59900436      -0.08027972
C        0.82710589       1.79146979       1.44845829       0.16821067       0.20280475      -0.77650019
C        1.97647239      -0.01541896       2.88416884      -0.95800651       0.44933344       0.88753282
C       -0.81372498       0.60941702       0.06942306       0.60889790      -0.92991353       0.82702789
C        0.64923627       0.57406801       2.35056386       1.15945822      -0.01445994      -1.13366808
H       -1.57727333      -0.38920510      -3.73222285       0.24581208      -0.09350431       0.11913686
H        2.53857161      -1.65874888       4.22803483      -0.84038120       0.34047544      -0.20430757
H        1.06633640      -1.97490932       3.26899943      -0.00731519      -0.05934585      -0.07752371
H        0.97786070      -0.82709552       4.60575232       0.03823365      -0.13659160       0.17804131
H        2.10020590       1.46907364       4.54068193      -0.08675441      -0.21401386      -0.40180824
H        3.58773876       0.67937474       4.11718306       0.48626015       0.02702834       0.11807181
H        2.96229864       1.97207998       3.06231818      -0.08954398      -0.56785760       0.31654409
H        0.52882481       0.55975366      -4.26812964       0.72193799      -0.30128229      -0.35739222
H        0.10048196       1.94104403      -3.32756191      -0.77222350      -0.13401123      -0.09951978
H       -2.85774850       1.25474374      -0.36237290       0.25184404       0.06306879      -0.33757872
H       -2.55496239      -0.48146941      -0.45443633      -0.26043019       0.05990273       0.01247336
H       -2.72694324       0.31522434       1.09832097       0.69977087       0.10449620      -0.31736510
H        0.49445394      -0.91147155      -2.44168620      -0.46604327      -0.02407483       1.07832419
H        1.49247119       0.46585790      -2.03849178      -0.32825761       0.14426578       0.74925396
H       -0.31073092       2.68754957      -0.15580025      -0.05065894       0.06900955      -0.12288249
H       -1.24274396       2.36283038       1.28411696      -0.05462258      -0.45490970      -0.23777265
H        1.65613151       1.67984913       0.71419866      -0.31727949      -0.22271718       0.73357468
H        1.01492692       2.67031930       2.04141436       0.16423170       0.37391549       0.17328748
H        2.59397031      -0.39729239       2.05365476      -0.28081984       0.47143060       0.23398948
H       -0.03706407       0.82790190       3.14667854       0.05155131       0.02000246       0.43636073
