32
Properties=species:S:1:pos:R:3:forces:R:3 id=22548 bond=C-C smiles="[H:32][C@@:12]1([C:9]([C:8]([C@@:11]([S:2]1)([C:6]([H:22])([H:23])[H:24])[C:7]([H:25])([H:26])[C:5]([H:20])([H:21])[O:1][H:13])([H:27])[H:28])([H:29])[H:30])[C:10]([H:31])([C:3]([H:14])([H:15])[H:16])[C:4]([H:17])([H:18])[H:19]" dataset=PubChem energy=-23588.688119623126 pbc="F F F"
O       -1.74095426       0.66687402      -3.23597929       0.41172347       0.91990643       0.16984951
S        0.14624032      -0.73174979       0.73874004      -0.09030293      -0.69093269       0.24500353
C        1.91664448      -1.31366243       3.26101543       1.26067011       0.15197044       0.08820925
C        3.00028148       0.98948745       3.14703347      -0.00921040      -0.14116474      -0.39647389
C       -0.37596558       0.97420159      -2.88440057      -0.16189089      -0.31536562      -0.00056418
C       -1.99300155       0.32074908      -0.45870249      -1.79068501      -0.46225623       0.24158453
C        0.14222418       0.26279223      -1.61679503       3.50346304      -1.40638173      -7.91731092
C       -0.14615276       1.84306965       0.09105344       0.17782277       1.11457167       1.25837884
C        1.13457492       1.67998228       0.90610744       0.14361361       0.15440073      -0.69458133
C        2.28394142      -0.12690647       2.34181799      -0.98490117       0.46396936       0.89196645
C       -0.50625595       0.49792951      -0.47292779      -3.58469038       0.87185927       6.96233398
C        0.95670530       0.46258050       1.80821301       1.02508792      -0.04931358      -0.99520687
H       -1.88474236      -0.27771759      -3.18987200       0.23575052      -0.07925204       0.03341013
H        2.84604064      -1.77023639       3.68568398      -0.83369561       0.34211273      -0.20111286
H        1.37380543      -2.08639683       2.72664858      -0.00996752      -0.05081993      -0.07776739
H        1.28532973      -0.93858303       4.06340147       0.03635191      -0.13660157       0.17246760
H        2.40767493       1.35758613       3.99833108      -0.08644141      -0.21462577      -0.40491547
H        3.89520779       0.56788723       3.57483221       0.49018168       0.02838362       0.11859739
H        3.26976767       1.86059247       2.51996733      -0.08876972      -0.56396057       0.31635994
H        0.22135578       0.67124117      -3.72577879       0.61148121      -0.15495025      -0.26963681
H       -0.20698707       2.05253154      -2.78521106      -0.80494652      -0.13369348      -0.10317547
H       -2.55027947       1.14325623      -0.90472375       0.26446664      -0.02223289      -0.29472422
H       -2.24749336      -0.59295692      -0.99678718      -0.22686241       0.01838029       0.02955598
H       -2.41947421       0.20373683       0.55597012       0.61611456       0.07960563      -0.40047945
H        0.18698491      -0.79998404      -1.89933535      -0.02727614       0.10043334       0.25371890
H        1.18500216       0.57734541      -1.49614093       0.01819518      -0.25516919      -0.33537508
H       -0.00326189       2.57606206      -0.69815110      -0.03675620       0.03646308      -0.11549369
H       -0.93527493       2.25134287       0.74176611       0.14651272      -0.33356824      -0.21054565
H        1.96360054       1.56836162       0.17184781      -0.23306348      -0.17747752       0.81923662
H        1.32239595       2.55883179       1.49906351       0.19991387       0.38419687       0.12678109
H        2.90143934      -0.50877990       1.51130391      -0.27724822       0.46707603       0.23121302
H        0.27040496       0.71641439       2.60432769       0.10433718       0.05825485       0.45920925
