32
Properties=species:S:1:pos:R:3:forces:R:3 id=22548 bond=C-C smiles="[H:32][C@@:12]1([C:9]([C:8]([C@@:11]([S:2]1)([C:6]([H:22])([H:23])[H:24])[C:7]([H:25])([H:26])[C:5]([H:20])([H:21])[O:1][H:13])([H:27])[H:28])([H:29])[H:30])[C:10]([H:31])([C:3]([H:14])([H:15])[H:16])[C:4]([H:17])([H:18])[H:19]" dataset=PubChem energy=-23589.42642104068 pbc="F F F"
O       -1.69623149       0.65065765      -3.31486669       0.36895210       0.90736805       0.32284164
S        0.10151755      -0.71553342       0.81762744      -0.08476456      -0.60469405      -0.18102870
C        1.87192171      -1.29744606       3.33990283       1.25951593       0.15217195       0.08914707
C        2.95555871       1.00570382       3.22592087      -0.00883609      -0.14168370      -0.39597365
C       -0.33124281       0.95798522      -2.96328797      -0.25818025      -0.32311886       0.36743855
C       -2.03772432       0.33696545      -0.37981509      -1.55517587      -0.52625815      -0.18682544
C        0.18694695       0.24657586      -1.69568243      -0.16229436      -0.00422833      -1.49407493
C       -0.19087553       1.85928602       0.16994084       0.40488939       0.89236013       0.85741736
C        1.08985215       1.69619865       0.98499484       0.15209119       0.18032972      -0.70407720
C        2.23921865      -0.11069010       2.42070539      -0.98316956       0.46411684       0.89012093
C       -0.55097872       0.51414588      -0.39404039       0.06114012      -0.50002501       0.69594682
C        0.91198253       0.47879687       1.88710041       1.03904227      -0.03503527      -1.03482093
H       -1.84001959      -0.29393396      -3.26875940       0.23117090      -0.09077420       0.05818770
H        2.80131787      -1.75402002       3.76457138      -0.83379461       0.34172004      -0.20078897
H        1.32908266      -2.07018046       2.80553598      -0.00934225      -0.05070520      -0.07831632
H        1.24060696      -0.92236666       4.14228887       0.03655161      -0.13598539       0.17349116
H        2.36295216       1.37380250       4.07721848      -0.08633102      -0.21419691      -0.40466316
H        3.85048502       0.58410360       3.65371961       0.49035097       0.02795244       0.11923005
H        3.22504490       1.87680884       2.59885473      -0.08940558      -0.56421551       0.31623219
H        0.26607855       0.65502480      -3.80466619       0.63009448      -0.16762303      -0.27533838
H       -0.16226430       2.03631517      -2.86409846      -0.79772000      -0.11708578      -0.08808551
H       -2.59500224       1.15947260      -0.82583635       0.25110235       0.00990416      -0.33548839
H       -2.29221613      -0.57674055      -0.91789978      -0.24095902       0.03394609       0.00534931
H       -2.46419698       0.21995320       0.63485752       0.64127409       0.08978201      -0.39136815
H        0.23170768      -0.81620041      -1.97822275      -0.14676097       0.12014251       0.58536758
H        1.22972493       0.56112904      -1.57502833      -0.15307707      -0.14365515       0.03232688
H       -0.04798466       2.59227843      -0.61926370      -0.03532257       0.05938081      -0.14782775
H       -0.97999770       2.26755924       0.82065351       0.11174281      -0.36965816      -0.22501948
H        1.91887777       1.58457799       0.25073521      -0.25263086      -0.19266181       0.79869309
H        1.27767318       2.57504816       1.57795091       0.19711292       0.38514877       0.14324379
H        2.85671657      -0.49256353       1.59019131      -0.27849553       0.46717244       0.23104531
H        0.22568219       0.73263076       2.68321509       0.10057922       0.05323942       0.45698236
