32
Properties=species:S:1:pos:R:3:forces:R:3 id=22548 bond=C-C smiles="[H:32][C@@:12]1([C:9]([C:8]([C@@:11]([S:2]1)([C:6]([H:22])([H:23])[H:24])[C:7]([H:25])([H:26])[C:5]([H:20])([H:21])[O:1][H:13])([H:27])[H:28])([H:29])[H:30])[C:10]([H:31])([C:3]([H:14])([H:15])[H:16])[C:4]([H:17])([H:18])[H:19]" dataset=PubChem energy=-23586.561705136144 pbc="F F F"
O       -1.50056938       0.57971106      -3.65999905       0.36677302       0.91575768       0.38225396
S       -0.09414456      -0.64458683       1.16275980      -0.13916184      -0.29506396      -1.09668646
C        1.67625960      -1.22649947       3.68503519       1.25740128       0.15698937       0.09351624
C        2.75989660       1.07665041       3.57105323      -0.01218906      -0.13897566      -0.39932283
C       -0.13558070       0.88703863      -3.30842033      -0.61792851      -0.26410927       1.11097978
C       -2.23338643       0.40791204      -0.03468273      -1.21280840      -0.70329101      -1.09730323
C        0.38260906       0.17562927      -2.04081479      -1.15709280       0.57168904       0.27222017
C       -0.38653764       1.93023261       0.51507320       0.98226694       0.62729406       0.02857564
C        0.89419004       1.76714524       1.33012720       0.16402149       0.20151033      -0.75873264
C        2.04355654      -0.03974351       2.76583775      -0.96673261       0.45507028       0.88509995
C       -0.74664083       0.58509247      -0.04890803       1.03856511      -1.02828231      -0.24081396
C        0.71632042       0.54974346       2.23223277       1.11578339      -0.01791533      -1.11296205
H       -1.64435748      -0.36488055      -3.61389176       0.24111171      -0.09593824       0.10697076
H        2.60565576      -1.68307343       4.10970374      -0.83744269       0.34048178      -0.20261354
H        1.13342055      -1.99923387       3.15066834      -0.00815164      -0.05575356      -0.07879000
H        1.04494485      -0.85142007       4.48742123       0.03780700      -0.13649933       0.17685059
H        2.16729005       1.44474909       4.42235084      -0.08691143      -0.21369568      -0.40275695
H        3.65482291       0.65505019       3.99885197       0.48824511       0.02702885       0.11912097
H        3.02938279       1.94775543       2.94398709      -0.08989620      -0.56645068       0.31628888
H        0.46174066       0.58407821      -4.14979855       0.70746023      -0.27472126      -0.33199480
H        0.03339781       1.96536858      -3.20923082      -0.77763494      -0.12906481      -0.09218192
H       -2.79066435       1.23041919      -0.48070399       0.24610119       0.06072077      -0.34406404
H       -2.48787824      -0.50579396      -0.57276742      -0.25620454       0.06150718       0.01027916
H       -2.65985909       0.29089979       0.97998988       0.70201576       0.10266179      -0.32675905
H        0.42736979      -0.88714700      -2.32335511      -0.44090522       0.00808582       1.06591676
H        1.42538704       0.49018245      -1.92016069      -0.33184770       0.11206751       0.69899856
H       -0.24364677       2.66322502      -0.27413134      -0.04730908       0.07214973      -0.13019139
H       -1.17565981       2.33850583       1.16578587      -0.02304101      -0.45001145      -0.23678594
H        1.72321566       1.65552458       0.59586757      -0.30593661      -0.22156215       0.73947616
H        1.08201107       2.64599475       1.92308327       0.17190548       0.37880424       0.16952071
H        2.66105446      -0.42161694       1.93532367      -0.28119471       0.46963606       0.23253624
H        0.03002008       0.80357735       3.02834745       0.07177123       0.03222670       0.44356982
