32
Properties=species:S:1:pos:R:3:forces:R:3 id=22548 bond=C-C smiles="[H:32][C@@:12]1([C:9]([C:8]([C@@:11]([S:2]1)([C:6]([H:22])([H:23])[H:24])[C:7]([H:25])([H:26])[C:5]([H:20])([H:21])[O:1][H:13])([H:27])[H:28])([H:29])[H:30])[C:10]([H:31])([C:3]([H:14])([H:15])[H:16])[C:4]([H:17])([H:18])[H:19]" dataset=PubChem energy=-23587.800566759222 pbc="F F F"
O       -1.57324388       0.60606265      -3.53180703       0.35847595       0.91084293       0.41459371
S       -0.02147006      -0.67093842       1.03456778      -0.09433759      -0.43184209      -0.83244020
C        1.74893410      -1.25285106       3.55684317       1.25843753       0.15436293       0.09137047
C        2.83257110       1.05029882       3.44286121      -0.01022676      -0.14148696      -0.39683931
C       -0.20825520       0.91339022      -3.18022831      -0.51401610      -0.28062914       0.91560612
C       -2.16071193       0.38156045      -0.16287475      -1.27803058      -0.65850435      -0.87137867
C        0.30993456       0.20198086      -1.91262277      -1.51968466       0.65193982       0.88279307
C       -0.31386314       1.90388102       0.38688118       0.82648725       0.67219745       0.22584987
C        0.96686454       1.74079365       1.20193518       0.16721525       0.20598621      -0.73157706
C        2.11623104      -0.06609510       2.63764573      -0.97517131       0.46030073       0.88652965
C       -0.67396633       0.55874088      -0.17710005       1.39160283      -1.09627653      -1.21817425
C        0.78899492       0.52339187       2.10404075       1.08133137      -0.02181013      -1.09022870
H       -1.71703198      -0.33852896      -3.48569974       0.23515156      -0.09830360       0.09205937
H        2.67833026      -1.70942502       3.98151172      -0.83525681       0.34083344      -0.20122397
H        1.20609505      -2.02558546       3.02247632      -0.00850644      -0.05275641      -0.07897435
H        1.11761935      -0.87777166       4.35922921       0.03738349      -0.13589620       0.17568791
H        2.23996455       1.41839750       4.29415882      -0.08619501      -0.21356245      -0.40364859
H        3.72749741       0.62869860       3.87065995       0.48960937       0.02741550       0.11980221
H        3.10205729       1.92140384       2.81579507      -0.08983562      -0.56529952       0.31603048
H        0.38906616       0.61042980      -4.02160653       0.68398667      -0.23617075      -0.30654321
H       -0.03927669       1.99172017      -3.08103880      -0.78471486      -0.11997681      -0.08489469
H       -2.71798985       1.20406760      -0.60889601       0.24138543       0.05336209      -0.35151554
H       -2.41520374      -0.53214555      -0.70095944      -0.25428986       0.05706473       0.00314411
H       -2.58718459       0.26454820       0.85179786       0.69009423       0.10055671      -0.34611403
H        0.35469529      -0.86079541      -2.19516309      -0.37681372       0.04729978       0.99591385
H        1.35271254       0.51653404      -1.79196867      -0.31084553       0.05344954       0.57479222
H       -0.17097227       2.63687343      -0.40232336      -0.04110200       0.07667680      -0.14531693
H       -1.10298531       2.31215424       1.03759385       0.02092361      -0.43185931      -0.23524577
H        1.79589016       1.62917299       0.46767555      -0.28952782      -0.21717800       0.75271640
H        1.15468557       2.61964316       1.79489125       0.18181790       0.38300235       0.16386999
H        2.73372896      -0.44796853       1.80713165      -0.28072239       0.46826611       0.23166874
H        0.10269458       0.77722576       2.90015543       0.08738944       0.04258265       0.44976773
