32
Properties=species:S:1:pos:R:3:forces:R:3 id=22548 bond=C-C smiles="[H:32][C@@:12]1([C:9]([C:8]([C@@:11]([S:2]1)([C:6]([H:22])([H:23])[H:24])[C:7]([H:25])([H:26])[C:5]([H:20])([H:21])[O:1][H:13])([H:27])[H:28])([H:29])[H:30])[C:10]([H:31])([C:3]([H:14])([H:15])[H:16])[C:4]([H:17])([H:18])[H:19]" dataset=PubChem energy=-23585.341370319962 pbc="F F F"
O       -1.78567703       0.68309038      -3.15709190       0.50720862       0.94404311      -0.10395289
S        0.19096309      -0.74796615       0.65985265      -0.06868261      -0.84664666       0.88913442
C        1.96136725      -1.32987879       3.18212804       1.26230386       0.15201551       0.08790774
C        3.04500425       0.97327109       3.06814608      -0.00993536      -0.14056285      -0.39727255
C       -0.42068835       0.99041795      -2.80551318      -0.07521225      -0.26457588      -0.57641010
C       -1.94827878       0.30453272      -0.53758988      -2.18577583      -0.40359108       0.86939606
C        0.09750141       0.27900859      -1.53790764      12.88585116      -4.87374822     -24.38146459
C       -0.10142999       1.82685329       0.01216605      -0.12050474       1.51038641       1.83167934
C        1.17929769       1.66376592       0.82722005       0.12685603       0.10480839      -0.69211929
C        2.32866419      -0.14312283       2.26293060      -0.98529510       0.46365488       0.89421999
C       -0.46153318       0.48171315      -0.55181518     -12.94251059       4.35020794      23.21025940
C        1.00142807       0.44636414       1.72932562       1.00557143      -0.08249068      -0.93533731
H       -1.92946513      -0.26150123      -3.11098461       0.24575298      -0.05882771      -0.01084354
H        2.89076341      -1.78645275       3.60679659      -0.83345210       0.34273851      -0.20139892
H        1.41852820      -2.10261319       2.64776119      -0.01094366      -0.05084023      -0.07709013
H        1.33005250      -0.95479939       3.98451408       0.03585078      -0.13751533       0.17104049
H        2.45239770       1.34136977       3.91944369      -0.08659298      -0.21526575      -0.40501933
H        3.93993056       0.55167087       3.49594482       0.49005447       0.02926044       0.11759351
H        3.31449044       1.84437611       2.44107994      -0.08760812      -0.56344737       0.31645890
H        0.17663301       0.68745753      -3.64689140       0.59534104      -0.15635031      -0.26633921
H       -0.25170984       2.06874790      -2.70632367      -0.81713636      -0.17331907      -0.12670431
H       -2.50555670       1.12703987      -0.98361114       0.28773901      -0.06562129      -0.20510359
H       -2.20277059      -0.60917328      -1.07567457      -0.19930915      -0.00393145       0.08309744
H       -2.37475144       0.18752047       0.47708273       0.58567552       0.06315844      -0.39705396
H        0.14226214      -0.78376768      -1.82044796       0.10054604       0.01041304      -0.25267805
H        1.14027939       0.59356177      -1.41725354       0.32616391      -0.39984144      -0.84409757
H        0.04146088       2.55984570      -0.77703849      -0.03769076      -0.00304056      -0.05088831
H       -0.89055216       2.23512651       0.66287872       0.18069603      -0.28375750      -0.18206979
H        2.00832331       1.55214526       0.09296042      -0.20813014      -0.15803964       0.83835040
H        1.36711872       2.54261543       1.42017612       0.19832755       0.38264233       0.10087253
H        2.94616211      -0.52499626       1.43241652      -0.27562214       0.46726989       0.23158082
H        0.31512773       0.70019803       2.52544030       0.10899227       0.06586175       0.46185351
