28
Properties=species:S:1:pos:R:3:forces:R:3 id=18174 bond=O-P smiles="[H:15][C:6]([H:16])([H:17])[C:8]([H:21])([H:22])[O:3][P:12](=[S:1])([N:5]([H:14])[C:11]([H:27])([H:28])[C:10]([H:25])([H:26])[O:2][H:13])[O:4][C:9]([H:23])([H:24])[C:7]([H:18])([H:19])[H:20]" dataset=PubChem energy=-34250.64822113613 pbc="F F F"
S        2.18301004       1.32206297       2.99295588      -0.79122500      -0.49732181      -0.09289343
O        1.85178321      -1.70422101      -1.16860656       1.34157014       0.14870738      -0.60564709
O        1.50589114       1.41006386       0.19342988      -1.52379801      -1.60925261       0.48947077
O       -0.99621846       0.80318881       1.89296564       3.56774285      -0.99291555      -0.93393000
N        1.52190006      -1.07571721       1.32618417      -1.95501074       1.21084402      -0.88450360
C        3.05003613       1.76982391      -1.64604048      -1.36714679      -1.74563638       0.36284511
C       -2.92728867       2.22978930       2.18007060       0.58932179       0.48257157       0.54753853
C        2.89378613       1.33226764      -0.16315613       1.39103642       1.07042159      -1.24861556
C       -1.43494953       2.15560798       1.82629808       0.22276238       0.00391557      -0.57158152
C        0.48045158      -1.67861390      -0.89689640       0.24007218       0.44552911       0.68078795
C        0.49278450      -1.88283419       0.60849228      -1.09238621      -1.31865925       0.39137346
P        1.13794058       0.57353729       1.53815993      -0.93454591       1.97368715       1.57038690
H        2.29011851      -1.46667838      -0.30848131      -0.39658180      -0.31274412      -1.43912895
H        1.75224274      -1.44469833       2.23337849       0.07585087      -0.12044010       0.18319990
H        4.07782882       1.71731472      -1.98654489       0.10401335      -0.15745513       0.13301027
H        2.69868963       2.77244854      -1.75882534      -0.24799244       0.61761337      -0.11542236
H        2.39944619       1.07697737      -2.26199750       0.89243593       0.84925262       0.51117450
H       -3.33663763       3.19930939       1.86582335       0.20637091      -0.20893058       0.10763758
H       -3.08674277       2.12894921       3.26990946       0.08988300      -0.08086653      -0.61498251
H       -3.45840157       1.46524249       1.65612921      -0.40783803      -0.52621129      -0.24657748
H        3.29612678       0.32504216      -0.03406153      -0.16924326       0.23091765       0.14192202
H        3.44092911       2.04734743       0.47056484      -0.21188280      -0.50912391      -0.03602735
H       -0.87564589       2.77779798       2.51150819       0.26843134       0.18723192       0.24106296
H       -1.24416102       2.52438645       0.80847115      -0.27932131       0.10245286       0.20190149
H       -0.07765258      -2.51612162      -1.38112215       0.59341019       0.61970779       0.32201387
H        0.01568526      -0.71601092      -1.20653121       0.24392873      -0.50331180       0.20035509
H       -0.49429804      -1.71354127       0.99659427      -0.39800371       0.04298814       0.50238425
H        0.75310973      -2.94856762       0.74410926      -0.05675637       0.59374111       0.20502067
