28
Properties=species:S:1:pos:R:3:forces:R:3 id=18174 bond=O-P smiles="[H:15][C:6]([H:16])([H:17])[C:8]([H:21])([H:22])[O:3][P:12](=[S:1])([N:5]([H:14])[C:11]([H:27])([H:28])[C:10]([H:25])([H:26])[O:2][H:13])[O:4][C:9]([H:23])([H:24])[C:7]([H:18])([H:19])[H:20]" dataset=PubChem energy=-34252.24523269849 pbc="F F F"
S        2.01587710       1.34004773       3.02074187      -0.47393102      -0.46787996      -0.03138616
O        1.68465027      -1.68623625      -1.14082057       1.29748309       0.14079599      -0.63557473
O        1.33875820       1.42804862       0.22121587      -1.42305731      -1.65258044       0.41050677
O       -0.82908552       0.78520405       1.86517965       4.00679235      -1.32812591      -1.30539323
N        1.35476712      -1.05773245       1.35397016      -1.96081110       1.22194529      -0.91405912
C        2.88290319       1.78780867      -1.61825449      -1.35831900      -1.74950035       0.36468494
C       -2.76015573       2.21180454       2.15228461       0.66900248       0.51531189       0.51022353
C        2.72665319       1.35025240      -0.13537014       1.31092108       1.10822994      -1.20505730
C       -1.26781659       2.13762322       1.79851209      -0.48214586       0.61827660      -0.48796196
C        0.31331864      -1.66062914      -0.86911041       0.27117498       0.42524448       0.67815547
C        0.32565156      -1.86484943       0.63627827      -1.01660412      -1.27487364       0.44360509
P        0.97080764       0.59152205       1.56594592      -1.22043893       1.81924172       1.87390675
H        2.12298557      -1.44869362      -0.28069532      -0.40252548      -0.30049290      -1.39274828
H        1.58510980      -1.42671357       2.26116448       0.10602745      -0.10491410       0.14968454
H        3.91069588       1.73529948      -1.95875890       0.10153848      -0.15501774       0.12870182
H        2.53155669       2.79043330      -1.73103935      -0.24765848       0.62153749      -0.11768469
H        2.23231325       1.09496213      -2.23421151       0.89090389       0.84776092       0.50704240
H       -3.16950469       3.18132463       1.83803736       0.20678525      -0.22780466       0.11770727
H       -2.91960983       2.11096445       3.24212347       0.09158447      -0.07583531      -0.61680737
H       -3.29126863       1.44725773       1.62834322      -0.41053685      -0.52082934      -0.24951524
H        3.12899384       0.34302692      -0.00627554      -0.16935034       0.23411374       0.14722339
H        3.27379617       2.06533219       0.49835083      -0.20337232      -0.52107885      -0.03927847
H       -0.70851295       2.75981322       2.48372220       0.30057308       0.07078860       0.20385969
H       -1.07702808       2.50640169       0.78068516      -0.24276734       0.01923276       0.25780411
H       -0.24478552      -2.49813686      -1.35333616       0.59165344       0.61801977       0.31370370
H       -0.15144768      -0.69802616      -1.17874522       0.24450474      -0.49442347       0.19347690
H       -0.66143098      -1.69555651       1.02438026      -0.40929563       0.01942412       0.49165598
H        0.58597679      -2.93058286       0.77189525      -0.07054218       0.58815708       0.19963731
