30
Properties=species:S:1:pos:R:3:forces:R:3 id=1814 bond=C-N smiles="[H:23][C:10]([H:24])([H:25])[C:12]([H:29])([H:30])[C:13](/[C:5](=[C:4](/[C:9]([H:21])([H:22])[N:6]([C:7]([H:15])([H:16])[H:17])[C:8]([H:18])([H:19])[H:20])[Cl:1])/[Cl:2])([C:11]([H:26])([H:27])[H:28])[O:3][H:14]" dataset=PubChem energy=-38200.29613004063 pbc="F F F"
Cl       3.23171191       1.19582183       0.94756904       0.04507513       0.14956631      -0.60737029
Cl      -0.98132664       1.97269106       1.59902160       0.45413534      -0.34962869      -0.11493701
O        1.97724419       0.45105859       3.52368937      -0.49013269      -0.21105045       0.21758232
C        1.58804124       1.73688054       0.81347684      -4.01571910       0.10982968       0.17234354
C        0.59117305       1.24228001       1.67617605       2.54367479       0.62748550      -1.33552715
N       -0.19677041       1.88937811      -1.96582776       0.16807371      -1.68017630       2.10039780
C       -0.74994970       2.91189817      -2.81284719       1.82474146       0.76732547       0.90285057
C        0.27941609       0.60783950      -2.65658980      -0.20730711       1.74122791       1.67878593
C        1.23837494       2.75413156      -0.27109625       1.16101280      -1.04701894       0.04061550
C        1.40107553      -2.48376131       2.69205819       1.14844712       0.25090384      -0.26366476
C       -0.30127043      -0.05155474       3.70570885       0.36811938       0.44580477      -0.77240781
C        1.09605174      -1.22187221       1.90339742       0.90100867       0.58806416      -0.19264937
C        0.86723027       0.11369724       2.70005057      -0.85430434      -0.75513066       0.46079423
H        2.72173648       0.65071524       2.96612106       0.37185217       0.01533044      -0.14173641
H        0.00679862       3.25986294      -3.51368815      -0.17640130       0.35515877      -0.58208450
H       -1.06977392       3.77210216      -2.19763428       0.07374518      -0.45934123      -0.26713797
H       -1.60284055       2.52514438      -3.33344346      -0.51226964      -0.38605411      -0.37017250
H       -0.51302178       0.22724056      -3.32071096       0.18480700       0.35562450       0.26403908
H        0.49457717      -0.14073946      -1.87915093      -0.25909641       0.32075453      -0.23979710
H        1.19158363       0.76670371      -3.19582254       0.48748491       0.04625226      -0.70208247
H        0.77848692       3.65404391       0.15572821      -0.71605146      -0.64892434      -0.59926123
H        2.18275671       3.05986977      -0.73049845      -0.48455681      -0.21614090      -0.53577494
H        1.76516550      -3.27691626       1.98982678      -0.30546129       0.66565697       0.72209572
H        0.52972102      -2.83461618       3.19783340      -0.50139369      -0.36440586       0.43157491
H        2.18369453      -2.24307465       3.42488728      -0.19494097      -0.40961921      -0.13952651
H       -0.07355429      -0.81375086       4.44266592       0.13959860       0.01411893      -0.04211269
H       -1.22304244      -0.29493141       3.18706308      -0.01226897      -0.15726089      -0.00597974
H       -0.44437129       0.91046754       4.18695817      -0.03714722      -0.06426700       0.25549823
H        1.92879169      -1.05517315       1.20656229      -0.27768712       0.03535596       0.18417963
H        0.24789345      -1.43959331       1.29564171      -0.82720564       0.25973217      -0.52021277
