30
Properties=species:S:1:pos:R:3:forces:R:3 id=1814 bond=C-N smiles="[H:23][C:10]([H:24])([H:25])[C:12]([H:29])([H:30])[C:13](/[C:5](=[C:4](/[C:9]([H:21])([H:22])[N:6]([C:7]([H:15])([H:16])[H:17])[C:8]([H:18])([H:19])[H:20])[Cl:1])/[Cl:2])([C:11]([H:26])([H:27])[H:28])[O:3][H:14]" dataset=PubChem energy=-38196.770952734296 pbc="F F F"
Cl       2.82262842       0.94932669       0.46449137       0.03435421       0.24137539      -0.42490084
Cl      -1.39041013       1.72619592       1.11594393       0.18305773      -0.18819797      -0.08926540
O        1.56816070       0.20456345       3.04061170      -0.51794379      -0.28297179       0.25371420
C        1.17895775       1.49038540       0.33039917      -2.70523143      -0.83035111       3.79125151
C        0.18208956       0.99578487       1.19309838       3.27280179       0.70422476      -1.62835288
N        0.21231308       2.13587325      -1.48275009     -29.72587979     -18.99701060     -34.50439834
C       -0.34086621       3.15839331      -2.32976952      -0.86947635      -0.24072960      -0.76659365
C        0.68849958       0.85433464      -2.17351213      -2.01124201       0.49346182       0.36034609
C        0.82929145       2.50763642      -0.75417392      27.97979321      16.09587098      32.67685083
C        0.99199204      -2.73025645       2.20898052       1.15783413       0.23530781      -0.29897333
C       -0.71035392      -0.29804988       3.22263118       0.38399570       0.43091992      -0.77205519
C        0.68696825      -1.46836735       1.42031975       0.89585977       0.59276263      -0.11618984
C        0.45814678      -0.13279790       2.21697290      -0.85753132      -0.75602469       0.38852057
H        2.31265299       0.40422010       2.48304339       0.35761970       0.03922545      -0.16981968
H        0.41588211       3.50635808      -3.03061048       0.22823743       0.21653711      -0.22874959
H       -0.66069043       4.01859730      -1.71455661       0.14737148      -0.55490301      -0.22127956
H       -1.19375706       2.77163952      -2.85036579      -0.36497587      -0.05682402      -0.56621476
H       -0.10393829       0.47373570      -2.83763329       0.43797024       0.24501774       0.26904520
H        0.90366066       0.10575568      -1.39607326      -0.33117366       0.39411899      -0.40451397
H        1.60066712       1.01319885      -2.71274487       0.66315901       0.48420120      -0.45061838
H        0.36940343       3.40754877      -0.32734946       0.85796293       0.40367389       1.34871597
H        1.77367322       2.81337463      -1.21357612       2.80511591       1.35919524       0.65670413
H        1.35608201      -3.52341140       1.50674911      -0.30191279       0.65163661       0.72667280
H        0.12063753      -3.08111132       2.71475573      -0.50357306      -0.36170212       0.43168609
H        1.77461104      -2.48956979       2.94180961      -0.19755921      -0.40211629      -0.14297475
H       -0.48263778      -1.06024600       3.95958825       0.13356841       0.01357865      -0.03420065
H       -1.63212593      -0.54142655       2.70398541      -0.01974954      -0.15770308      -0.00699468
H       -0.85345478       0.66397240       3.70388050      -0.03490643      -0.06120234       0.25247828
H        1.51970820      -1.30166829       0.72348462      -0.25164258       0.03936345       0.18960450
H       -0.16119004      -1.68608845       0.81256404      -0.84722362       0.24823428      -0.51792993
