41
Properties=species:S:1:pos:R:3:forces:R:3 id=20116 bond=C-O smiles="[H:20][c:4]1[c:5]([c:7]([c:9]([c:8]([c:6]1[H:22])[H:24])[O:3][C:18]([C:13]([H:32])([H:33])[H:34])([C:14]([H:35])([H:36])[H:37])[C:17]([C:12]([H:29])([H:30])[H:31])([N:10]([H:25])[C:16]([H:40])([H:41])[C:15]([H:38])([H:39])[O:1][C:11]([H:26])([H:27])[H:28])[O:2][H:19])[H:23])[H:21]" dataset=PubChem energy=-22534.380889454347 pbc="F F F"
O        0.46553382       3.75208521      -1.64413400       4.26371878       1.85157982      -0.44381606
O       -1.04027779      -0.14676243       2.16372875       2.28966991      -3.70286771       1.36905316
O        1.14868312      -0.48785681       0.26584000      -1.76037501      -0.15047556      -1.11111169
C        3.03098671      -1.21411336       3.84982971       0.68479417      -2.10339064       1.38972249
C        2.98183267       0.06378251       3.35361150       0.33436818      -0.95289299       0.03878788
C        2.40542071      -2.32692790       3.24551538      -0.41254070       0.16060885       0.39651997
C        2.30883377       0.24577626       2.17400626       0.57542433       3.09453008      -0.95339633
C        1.65953236      -2.05159426       2.11164251       0.65930063       0.15554380      -0.77226725
C        1.65974682      -0.78758240       1.50910488      -0.20817198       0.48625301       0.16591194
N       -0.90589053       1.56735754       1.03707141      -0.10389441       3.06225793      -2.85750835
C        2.14922904       4.38789754      -1.96875405      -2.20448584      -0.91987514       1.80287405
C       -2.73516638      -0.01198739       0.63923178       0.81956594      -2.09417741       0.84153899
C       -0.45441200      -0.11198259      -1.63433071       0.84872519       2.03922648      -0.87908761
C       -0.73749776      -2.14984298      -0.29077312       4.02543824      -0.19863789       3.26219887
C        0.49280561       3.14132666      -0.33985403       1.39099287      -2.05938088      -2.44368688
C       -0.90839894       2.62002969      -0.08298483       0.53482883      -2.53128221       1.03450492
C       -1.24381382       0.16031617       0.79052482       1.04443385       1.71612887       2.96506937
C       -0.31957037      -0.62690520      -0.17912497       0.22366136      -2.07881907      -0.92618601
H       -0.06087721      -0.35513997       2.33991865      -2.40248972       0.45705008      -0.35514502
H        3.65036933      -1.42772317       4.71708349      -0.14843005       0.18316802       0.01714720
H        3.58133190       0.84739780       3.80561164      -0.34306476      -0.05986498      -0.04603599
H        2.42373650      -3.41099882       3.62405399       0.23955505       2.08685564      -0.40796090
H        2.45843237       1.31926488       1.78591124      -0.90676303      -1.99423520      -0.06117116
H        1.25563722      -2.84069753       1.54479221      -0.70326543      -0.82761382      -0.38882289
H       -0.17052669       1.68524551       1.75345412      -0.84926612      -0.18073934      -1.13017853
H        2.94024002       3.63883571      -2.08433269      -1.00422618      -0.47322560      -0.40205371
H        2.41980039       4.90149574      -1.06153475      -0.45710978       0.04110870       0.65704905
H        2.17758417       5.16136245      -2.70959615      -0.82079114      -0.22189713      -0.83104918
H       -3.02260239       0.55421789      -0.13065996      -1.30595794       2.11798820      -3.30882527
H       -3.26324303       0.38977878       1.47698948       0.15374136      -0.00236822       0.77205229
H       -3.05981047      -1.03902328       0.43168222       0.27369354       0.22024858       0.25213603
H        0.06371989      -0.61725187      -2.49704143      -0.15628037      -0.30203814       1.52851287
H       -1.53931732      -0.10473627      -1.99050566       1.38780514       0.33354753       0.95629368
H        0.03119664       0.92358681      -1.65430208      -1.17970645      -1.27640916      -0.25401432
H       -0.98677678      -2.49001956       0.76367015       0.58930541      -0.06056896      -1.27847208
H        0.10803332      -2.78706670      -0.78306218      -1.32734443       1.30177956       1.20132675
H       -1.56293518      -2.33959842      -0.84260317      -2.65357804       0.03765271      -1.85361048
H        0.88542395       3.80547118       0.43931217      -0.35908484      -0.05997502      -0.03306091
H        1.19307881       2.24064398      -0.45362564      -0.72997734       1.09073222       0.67764662
H       -1.49981375       2.20137250      -0.92460390       1.19889871       0.15032520       0.17439221
H       -1.45841272       3.46282076       0.14314190      -1.49820914       1.66632429       1.23454545
