13
Properties=species:S:1:pos:R:3:forces:R:3 id=2753 bond=C-O smiles="[H:6][C:3]([H:7])([H:8])[O:1][C:5]([H:12])([H:13])[O:2][C:4]([H:9])([H:10])[H:11]" dataset="DES370K Monomers" energy=-7334.628732260632 pbc="F F F"
O        0.62777000      -0.86653134      -1.16298349      -1.53624814      -0.56161762       2.61747308
O       -0.61123292      -0.05258949       1.88207585       0.52751484      -0.72502084      -2.39563273
C       -0.84302170      -1.26929351      -1.25903816       0.75289579      -0.19802399       1.32499342
C       -0.36495913       1.03222891       2.64530140       0.96900042       0.89599096       1.43583811
C        0.89237015       0.14455321      -0.26038584      -1.17911889      -1.44034095      -2.70373848
H       -1.39308185      -0.36019288      -1.07748557      -0.38217244       0.17177367      -0.39304890
H       -1.20086760      -2.00472232      -0.44796096       1.35963606       1.15626776      -0.98434140
H       -0.98300023      -1.74349805      -2.22253269       0.14412634       0.36263898      -0.12455031
H        0.43087591       0.86325123       3.40090305      -0.31899286      -0.22508430       0.13076891
H        0.07221581       1.82156523       2.07287998       0.13794915       1.05244662      -0.65650265
H       -1.21501820       1.53021749       3.19167477       0.10694454      -0.81372522      -0.62063524
H        1.91950946       0.12483764       0.01329564       0.52848882      -0.37101567       1.09737172
H        0.63477080       1.06985847      -0.76471055      -1.10972011       0.69420580       1.26902710
