13
Properties=species:S:1:pos:R:3:forces:R:3 id=2753 bond=C-O smiles="[H:6][C:3]([H:7])([H:8])[O:1][C:5]([H:12])([H:13])[O:2][C:4]([H:9])([H:10])[H:11]" dataset="DES370K Monomers" energy=-7334.977640534122 pbc="F F F"
O        0.59079616      -0.87137912      -1.11030001      -1.55486385      -0.61379291       2.51671638
O       -0.57425908      -0.04774171       1.82939237       0.66749146      -0.81766572      -2.69689694
C       -0.87999554      -1.27414129      -1.20635468       0.79637799      -0.19482876       1.35534074
C       -0.32798529       1.03707669       2.59261792       1.01609139       1.05300613       1.47786445
C        0.85539631       0.13970543      -0.20770236      -1.41082136      -1.41769222      -2.34709780
H       -1.43005569      -0.36504066      -1.02480209      -0.38371642       0.17002669      -0.39454265
H       -1.23784144      -2.00957010      -0.39527748       1.35044948       1.15594975      -0.99391436
H       -1.01997407      -1.74834583      -2.16984921       0.14446779       0.36197098      -0.12496594
H        0.46784975       0.86809901       3.34821957      -0.33018730      -0.22845947       0.12628113
H        0.10918965       1.82641301       2.02019650       0.13750879       1.05058014      -0.64172730
H       -1.17804436       1.53506527       3.13899129       0.11955817      -0.84507998      -0.62660447
H        1.88253562       0.11998986       0.06597912       0.52248002      -0.36291498       1.08804862
H        0.59779696       1.06501069      -0.71202707      -1.07222014       0.68815364       1.26042790
