13
Properties=species:S:1:pos:R:3:forces:R:3 id=2753 bond=C-O smiles="[H:6][C:3]([H:7])([H:8])[O:1][C:5]([H:12])([H:13])[O:2][C:4]([H:9])([H:10])[H:11]" dataset="DES370K Monomers" energy=-7337.725878026037 pbc="F F F"
O        0.38127770      -0.89884982      -0.81176026      -1.77021103      -1.36469151       1.22849930
O       -0.36474062      -0.02027101       1.53085262       1.47734460      -1.23038070      -4.18588447
C       -1.08951400      -1.30161199      -0.90781493       1.25553309      -0.16586330       1.60280143
C       -0.11846683       1.06454739       2.29407817       1.05505044       1.95648544       2.09476224
C        0.64587785       0.11223473       0.09083739      -3.03550733      -0.90402239       0.56007359
H       -1.63957415      -0.39251136      -0.72626234      -0.42874263       0.15919907      -0.44639215
H       -1.44735990      -2.03704080      -0.09673773       1.22594843       1.11441642      -1.05341594
H       -1.22949253      -1.77581653      -1.87130946       0.13524660       0.35494673      -0.12112052
H        0.67736821       0.89556971       3.04967982      -0.40347919      -0.26140799       0.05025110
H        0.31870811       1.85388371       1.72165675       0.14563079       0.98264113      -0.63772726
H       -0.96852590       1.56253597       2.84045154       0.24821184      -1.03642066      -0.68642953
H        1.67301716       0.09251916       0.36451887       0.61067092      -0.24866529       0.71906385
H        0.38827850       1.03753999      -0.41348732      -0.51621222       0.64400382       0.87405446
