13
Properties=species:S:1:pos:R:3:forces:R:3 id=2753 bond=C-O smiles="[H:6][C:3]([H:7])([H:8])[O:1][C:5]([H:12])([H:13])[O:2][C:4]([H:9])([H:10])[H:11]" dataset="DES370K Monomers" energy=-7326.185461739707 pbc="F F F"
O        0.14094770      -0.93036033      -0.46931762      -1.46451240      -4.00129664      -3.16343395
O       -0.12441062       0.01123950       1.18840998     -46.27960291      -5.50830317      66.09044836
C       -1.32984400      -1.33312250      -0.56537229       2.05959618      -0.03801200       1.86397105
C        0.12186317       1.09605790       1.95163553      -0.33576059       3.67865086       6.26976119
C        0.40554785       0.08072422       0.43328003      40.63124104       3.71295542     -62.72439599
H       -1.87990415      -0.42402187      -0.38381970      -0.58097892       0.22734957      -0.54398234
H       -1.68768990      -2.06855131       0.24570491       1.02135580       0.98687066      -1.03750109
H       -1.46982253      -1.80732704      -1.52886682       0.06566535       0.36990995      -0.07137513
H        0.91769821       0.92708022       2.70723718      -0.51154600      -0.58730745      -0.36579980
H        0.55903811       1.88539422       1.37921411      -0.06458687       0.43546241      -0.78542197
H       -0.72819590       1.59404648       2.49800890       0.36292739      -1.32246558      -0.70890673
H        1.43268716       0.06100865       0.70696151       4.00635624      -0.08786237      -1.59670850
H        0.14794850       1.00602948      -0.07104468       1.09050491       2.13821773      -3.22713249
