35
Properties=species:S:1:pos:R:3:forces:R:3 id=41722 bond=N-P smiles="[H:25][C:11]([H:26])([H:27])[C:13]([H:31])([H:32])[N:7]([C:6](=[S:1])[N:8]([H:18])[P:16](=[S:2])([O:4][C:9]([H:19])([H:20])[H:21])[O:5][C:10]([H:22])([H:23])[H:24])[C:14]([H:33])([H:34])[C:15]([H:35])([C:12]([H:28])([H:29])[H:30])[O:3][H:17]" dataset=PubChem energy=-48700.573010300264 pbc="F F F"
S       -2.18241292       0.27457315       0.48333844      -0.31763536       0.67845957      -0.19650353
S        2.40859590      -0.14323708      -0.08270993       1.09673935      -0.44889597      -0.45663996
O        1.90202517       2.90455628       0.59807379       1.32749062      -1.23123921      -0.83152621
O        0.98321406      -2.30394884      -1.47684994      -1.64830785       1.71576886       0.50686911
O        0.03714482       0.18620668      -1.62014785       0.38722177      -1.74718929      -1.35300451
C       -0.56956344       0.05656898       0.81933380      -4.22627665       4.23238863       4.41129535
N        0.09913165       0.88942186       1.68546707       0.44571892      -1.08691861      -0.65214132
N       -0.12066853      -1.13207995       0.34576678     -14.32766858      -6.16535081      18.59995092
C        1.81137858      -3.19721671      -0.76184454       1.89646190      -1.05128431      -1.03947841
C        0.63592116       0.21512914      -2.93062057      -0.14826205       0.62841456      -1.37702613
C        0.14206368      -0.43645167       3.85140080      -0.59204092       0.31069217      -0.10537632
C        0.22235579       4.53974200       0.42804595      -0.39365054       0.25268084       0.01223666
C        0.93916685       0.31962783       2.75431533       0.10157461      -0.89281066       0.22797467
C       -0.14246970       2.34165573       1.64480681      -0.89152590       0.27560188      -0.26947407
C        0.50838094       3.05438281       0.42438182       0.50990893      -0.93307232       0.56008323
P        0.71708883      -0.90923150      -0.65168169      20.67501902       4.65058813     -20.83656245
H        2.23964066       1.99443460       0.30459762      -1.12644629       1.62969274       0.47928815
H       -0.90370983      -1.64028811       0.02065359      -1.63385769      -1.03339720       0.32126802
H        2.88313208      -2.94724294      -0.95988705      -0.90068867      -0.04963960       0.38626078
H        1.65298853      -4.19921728      -1.17106810      -0.21516476       0.22584706       0.09309267
H        1.63118372      -3.21190687       0.29339135      -0.16163267       0.10971942       0.57286483
H        0.20978356       1.07451824      -3.49964514       0.15625947      -0.76423657       0.63800447
H        1.71989093       0.33976286      -2.91599360      -0.08682716       0.14723326       0.50630575
H        0.46247130      -0.72175189      -3.48434629      -0.28763525       0.40816332       0.34088869
H        0.77657943      -0.65218830       4.72848887      -0.14763826       0.08118686      -0.54409440
H       -0.72219139       0.15675867       4.21192951       0.49979233      -0.24965345      -0.22207435
H       -0.26279229      -1.38842940       3.46760029       0.21534603       0.38785438       0.15030029
H        0.35588578       4.95726490      -0.56853377       0.07571746      -0.03088593       0.03520511
H       -0.82386594       4.67371416       0.70018084      -0.02512235       0.28856387       0.02915046
H        0.86687026       5.11250258       1.11419196      -0.27499078      -0.51344109      -0.12946656
H        1.64945180      -0.38647675       2.31015367      -0.09013677       0.36664593       0.10503890
H        1.50970197       1.11629105       3.21779675      -0.00705361       0.14529724      -0.26715236
H        0.24182883       2.82171083       2.55199237       0.18303495      -0.46156268      -0.23812012
H       -1.21629494       2.50168777       1.66608078      -0.14496876       0.03858245      -0.14272938
H        0.16847730       2.60860992      -0.53619270       0.08341093       0.08776152       0.68337589
