31
Properties=species:S:1:pos:R:3:forces:R:3 id=28673 bond=C-S smiles="[H:28][C:14]1([C:10]([O:3][C:11]([C:15]([N:7]1[C:5](=[S:1])[S:4][N:6]2[C:12]([C:8]([O:2][C:9]([C:13]2([H:26])[H:27])([H:18])[H:19])([H:16])[H:17])([H:24])[H:25])([H:30])[H:31])([H:22])[H:23])([H:20])[H:21])[H:29]" dataset=PubChem energy=-38350.55573988709 pbc="F F F"
S        1.86229591       3.80278579      -0.82582991      -1.37594730      -0.96980680       1.32594436
O        1.66194844      -1.48608290       3.48846182       0.10543848       0.24676291      -0.57087813
O       -0.46519644      -0.35990962      -2.47748689       0.08017596      -0.32343044      -0.55318965
S        0.57865771       2.59435881       1.89482770       0.03476410      -0.24007018      -2.04411780
C        0.65509571       2.77887073      -0.23491935       0.30567373      -0.42763445      -1.28449367
N        0.80065920       0.93818657       2.30014452      -0.25465048       0.38621963      -0.79471326
N       -0.18212016       2.07156399      -1.10675268       1.47084988       0.92230881       2.31023459
C        0.30440652      -1.02852129       3.63806161       0.89517092      -0.22734010      -0.25874170
C        2.22130644      -1.03924929       2.22524414       0.24906116      -0.19230445       0.46157546
C        0.55249835       0.54562718      -2.90780668      -0.10880524       0.70398306       0.63170278
C       -0.68530781      -0.34080723      -1.07996850       0.78181289       0.57100744       0.60515665
C        0.25083899       0.47256989       3.60642561       0.00521053       0.50631245      -0.87390144
C        2.17861509       0.46524244       2.07701609       0.19924977      -0.09372697       1.29608417
C        0.08280553       1.98575679      -2.57460360       0.83073005      -0.94135841       0.17273577
C       -1.12558217       1.06824896      -0.59173934      -0.17899940      -0.47074700      -0.66212757
H       -0.32137996      -1.47591197       2.85086474       0.11922360       0.26411301       0.07823418
H       -0.09125084      -1.34212600       4.59953174       0.33461797      -0.35722692       0.10327118
H        1.67823958      -1.48349975       1.41611150      -0.61184500      -0.41951858      -0.50571235
H        3.27215051      -1.37879525       2.09462723      -0.71765552       0.06573111       0.68449984
H        1.52857570       0.33267800      -2.41397815      -0.62767998       0.06735189      -0.10357815
H        0.71991198       0.47697030      -3.99832730      -0.43471991      -0.29973487       0.57593957
H        0.26665746      -0.63619419      -0.57722061      -0.51680507       0.37822218      -0.09226028
H       -1.42072387      -1.10123655      -0.80443458      -0.02742646       0.20810578      -0.39040043
H       -0.78479064       0.74092903       3.76563868      -0.30809775       0.40862002      -0.56316143
H        0.77493759       0.93090374       4.44684371       0.38898301      -0.22857241       0.02355389
H        2.81779932       0.86337588       2.87819991       0.09640581       0.19868795      -0.22617387
H        2.62107539       0.75092235       1.11426902      -0.60011241       0.13206951       0.20974744
H        0.84396463       2.67883125      -2.93404250      -0.20967999       0.10693892       0.67986480
H       -0.81041796       2.16383878      -3.15454392      -0.51364630       0.13231275       0.25278387
H       -2.10034365       1.34252760      -0.99172692      -0.11411276      -0.31349350      -0.31109453
H       -1.27395577       1.08924046       0.48999056       0.69576969       0.19664811      -0.17706179
