31
Properties=species:S:1:pos:R:3:forces:R:3 id=28673 bond=C-S smiles="[H:28][C:14]1([C:10]([O:3][C:11]([C:15]([N:7]1[C:5](=[S:1])[S:4][N:6]2[C:12]([C:8]([O:2][C:9]([C:13]2([H:26])[H:27])([H:18])[H:19])([H:16])[H:17])([H:24])[H:25])([H:30])[H:31])([H:22])[H:23])([H:20])[H:21])[H:29]" dataset=PubChem energy=-38350.90285153353 pbc="F F F"
S        1.85249617       3.77913041      -0.55278542      -0.73696428       0.04234307       0.18784955
O        1.67174818      -1.46242752       3.21541733       0.09754823       0.26375401      -0.57413009
O       -0.47499618      -0.38356500      -2.20444240       0.07297595      -0.31676658      -0.56668919
S        0.58845745       2.61801419       1.62178321      -0.01128820      -0.07826562       6.51276938
C        0.64529597       2.75521535       0.03812514       0.39731065      -0.72884245      -7.38392705
N        0.81045894       0.96184195       2.02710003      -0.60085644      -0.48441459      -0.67849152
N       -0.19191990       2.04790861      -0.83370819       1.16966196       0.67797714       1.01546287
C        0.31420626      -1.00486591       3.36501712       0.89344218      -0.22245624      -0.26130400
C        2.23110618      -1.01559391       1.95219965       0.21754793      -0.19528001       0.45561363
C        0.54269861       0.52197180      -2.63476219      -0.13176417       0.71123395       0.57941068
C       -0.69510755      -0.36446261      -0.80692401       0.81132767       0.55469914       0.63785677
C        0.26063873       0.49622527       3.33338112       0.16201184       0.62127951      -0.92060549
C        2.18841483       0.48889782       1.80397160       0.18364144       0.06268189       1.28307643
C        0.07300579       1.96210141      -2.30155911       0.79506882      -1.00418645       0.38354019
C       -1.13538191       1.04459358      -0.31869485      -0.19762546      -0.41195391      -0.71975898
H       -0.31158022      -1.45225659       2.57782025       0.11823122       0.26041825       0.07690789
H       -0.08145110      -1.31847062       4.32648725       0.33499231      -0.35918934       0.09937091
H        1.68803932      -1.45984437       1.14306701      -0.57839936      -0.42782385      -0.47141953
H        3.28195025      -1.35513987       1.82158274      -0.71861562       0.07666331       0.68691775
H        1.51877596       0.30902262      -2.14093366      -0.61944874       0.06036579      -0.09654112
H        0.71011224       0.45331492      -3.72528281      -0.42909059      -0.31720770       0.57433164
H        0.25685772      -0.65984957      -0.30417612      -0.58330232       0.41524056      -0.13468643
H       -1.43052361      -1.12489193      -0.53139009      -0.03511699       0.19844716      -0.39523549
H       -0.77499090       0.76458441       3.49259419      -0.32829125       0.39901586      -0.55260068
H        0.78473733       0.95455912       4.17379922       0.37807400      -0.21863584       0.05559666
H        2.82759906       0.88703126       2.60515542       0.11434760       0.19861292      -0.22901500
H        2.63087513       0.77457773       0.84122453      -0.56815524       0.12763046       0.18840690
H        0.83416489       2.65517587      -2.66099801      -0.20397519       0.12480703       0.67410638
H       -0.82021770       2.14018340      -2.88149943      -0.49027652       0.14182456       0.22560533
H       -2.11014339       1.31887222      -0.71868243      -0.11387625      -0.31023650      -0.34799266
H       -1.28375551       1.06558508       0.76303505       0.59894384       0.13316592      -0.29960619
