20
Properties=species:S:1:pos:R:3:forces:R:3 id=33058 bond=C-N smiles="[H:15][C:7]([H:16])([H:17])[C:9]1([N:4]([C:2](=[S:1])[N:3]([N:5]1[H:11])[C:6]([H:12])([H:13])[H:14])[H:10])[C:8]([H:18])([H:19])[H:20]" dataset=PubChem energy=-20676.801703631394 pbc="F F F"
S       -1.23973004      -1.74754796       2.23458218       0.04980045       0.67529684      -0.56544914
C       -0.36055379      -0.63011131       1.35125303       0.68385016      -0.32030567       0.40647224
N        0.70820443      -0.97118483       0.56950641      -4.65580285       8.96729956       1.40334256
N       -0.45553259       0.76127847       1.38270884      -0.19540802      -0.94188782       0.00172719
N        1.37991114       0.20164347       0.11710375       0.20639913       0.31302632      -0.88974508
C        1.22870144      -2.12463150       0.46757858       2.27016909      -8.10230470      -0.62882454
C        1.35200669       2.43134429       1.06912601       0.24729474       1.08310455      -0.23673748
C       -0.30114959       1.90145507      -0.75919998       0.94245616       0.90696755       0.00595649
C        0.49945887       1.35098847       0.43714121       0.06622484      -0.33516857      -0.04437825
H       -1.41141610       1.08962896       1.32391524       0.25771514       0.01806159       0.26756318
H        2.31352503       0.31709676       0.52929660      -0.74759090      -0.30872578       0.28381853
H        1.87389978      -2.15554486      -0.37285114       0.76311954      -0.13651386      -0.82148811
H        0.45040472      -2.91601214       0.29358785       0.66853543       0.61019443       0.31301788
H        1.78923687      -2.41002784       1.35336213       0.33958129      -0.44364793       0.31427659
H        0.76103606       3.35517206       1.08930307       0.18493507      -0.16152432       0.29903769
H        2.23474725       2.67926302       0.44809822      -0.45383231      -0.33130573       0.13088785
H        1.70860644       2.19891396       2.07619309      -0.28149854      -0.15863830      -0.21643022
H       -0.84866135       1.10022493      -1.22033501      -0.23398171      -0.24177414      -0.29083283
H       -0.99771933       2.69515243      -0.40655208       0.40069268      -0.63654138      -0.17893274
H        0.38456802       2.37944343      -1.49544573      -0.51153523      -0.45339883       0.44385051
