24
Properties=species:S:1:pos:R:3:forces:R:3 id=34957 bond=C-S smiles="[H:22][c:15]1[c:14]([c:16]([c:18]([c:19]([c:17]1[H:24])[N+:20](=[O:1])[O-:2])[S:9][S:8]/[C:12](=[C:13](/[C:11](=[C:10]([Cl:3])[Cl:4])[Cl:5])[Cl:7])/[Cl:6])[H:23])[H:21]" dataset=PubChem energy=-100320.84369604601 pbc="F F F"
O        1.57141173       2.31037497      -3.92355622      -0.24276934      -2.15537981       1.87890151
O        0.88761187       0.30371976      -3.21977557       1.33991680       2.68251691       0.47196514
Cl      -2.72141071      -1.87501282       5.62237685      -0.55524921       0.49518380      -0.90607980
Cl      -3.78244610      -0.31681116       3.26539391       0.74817373      -0.73893984       0.90997860
Cl      -0.63477869      -3.29152436       3.91056913      -0.61696252       0.67506424      -0.79244395
Cl       1.18758307      -1.30454702       2.19682234      -0.44288254       0.00666340      -0.44090763
Cl      -2.81998129      -1.75761194       0.60546261       0.07215062      -0.27504337       0.56901832
S       -0.06653543      -1.12341697      -0.53753108       0.53999960       0.27264270      -0.31913683
S       -0.59109719       0.89833470      -0.56368405      -3.89111486      -2.07548171      -0.62801021
C       -2.66013737      -1.50010295       3.91712659       1.50438190      -0.52361738      -0.70744519
C       -1.66417070      -2.06555218       3.14788598      -1.61401092       0.55300357       0.77231093
C       -0.22368814      -1.46748728       1.17085248      -1.68787397       0.12442852       0.86496638
C       -1.46997924      -1.72794718       1.69999879       2.00795585      -0.32512535      -0.00781754
C        2.57993626       2.61980986       0.86595090      -0.80185524      -0.27572582      -0.57338822
C        3.36986279       2.88171553      -0.26947583      -0.97895971      -0.57554495       1.01095504
C        1.31278140       2.01140630       0.69798157       2.38791247       1.36709079      -0.17033759
C        2.92964530       2.46643721      -1.51268567      -1.08032934      -0.30785034       0.15770867
C        0.86522389       1.66424381      -0.56941046       2.74932359       0.34648884      -0.22386069
C        1.68619442       1.84008824      -1.70792903       1.62213173       1.26616384       2.92256515
N        1.38408327       1.44626200      -3.02306641      -1.89075785      -0.84916335      -3.48709053
H        2.88405776       2.84962748       1.88518368       0.18617183       0.11342811      -0.40136284
H        4.31813192       3.36681365      -0.17326153       0.33971535       0.10402911       0.01298702
H        0.72309642       1.81630504       1.57181512      -0.31474271      -0.11789066      -0.01723499
H        3.54095340       2.60574292      -2.35642208       0.62090649       0.21358448      -0.89703094
