16
Properties=species:S:1:pos:R:3:forces:R:3 id=7869 bond=C-S smiles="[H:12][C:5]([H:13])([H:14])[C:6]([H:15])([H:16])[S:2][C:4]([H:10])([H:11])[S:1][C:3]([H:7])([H:8])[H:9]" dataset="DES370K Monomers" energy=-25983.150671168045 pbc="F F F"
S        0.20481410       2.10931150      -0.51343901      -0.29319250      -2.31726376       1.29216439
S       -0.32351014      -2.18153028       1.24860676       1.54016779      -0.59209725      -0.72429899
C       -1.53057099       1.88213770       0.11839028      -0.10234157       0.40894124      -0.53561876
C        1.11705923       1.05491106       0.65127276       0.99888833       2.23974812      -1.51780404
C        2.28035045      -3.32201580       1.58559759       1.17280210      -1.06614486      -1.68037102
C        1.04203463      -3.48087744       0.70938523       0.50634104       2.60077492      -0.15791931
H       -2.21994353       2.66445331      -0.27941774       0.75782460      -0.76123954      -0.25848406
H       -1.48453808       2.12099592       1.15775983      -0.02367366      -0.34617887       0.82536032
H       -1.90464402       0.84212933      -0.07200852       0.57072486       1.05507111       0.13534519
H        1.27220863       1.54380862       1.63079314      -1.03109418      -1.11474450       0.05122669
H        2.15695786       0.94140921       0.22505905      -1.31611362      -0.52152161       0.22902782
H        2.90148688      -4.25528793       1.44886275      -0.49736256       0.87196274       0.36669610
H        1.97451234      -3.22695689       2.58104761      -0.02523246       0.18937681       1.58038280
H        2.92829347      -2.49512271       1.25734158      -0.46808104      -0.08275305       0.36435121
H        0.79771722      -4.54069404       0.76243885      -0.99095337       0.37929162      -0.35277779
H        1.36693084      -3.10867171      -0.28916369      -0.79884493      -0.94560347       0.38593302
