16
Properties=species:S:1:pos:R:3:forces:R:3 id=7869 bond=C-S smiles="[H:12][C:5]([H:13])([H:14])[C:6]([H:15])([H:16])[S:2][C:4]([H:10])([H:11])[S:1][C:3]([H:7])([H:8])[H:9]" dataset="DES370K Monomers" energy=-25987.177995148137 pbc="F F F"
S       -0.11409057       1.39284739      -0.38120476      -0.78418628      -0.60963632       0.29603492
S       -0.00460547      -1.46506617       1.11637251       1.47573886       0.24949202      -0.63931167
C       -1.84947566       1.16567359       0.25062453       0.02635452       0.03119375      -0.71636114
C        0.79815456       0.33844695       0.78350701       0.73439031      -1.36646375       0.06360486
C        2.59925512      -2.60555169       1.45336334       1.15747509      -1.03159574      -1.68693141
C        1.36093930      -2.76441333       0.57715098       0.89954102       2.68920080      -0.33368728
H       -2.53884820       1.94798920      -0.14718349       0.76855621      -0.76889674      -0.24511004
H       -1.80344275       1.40453181       1.28999408      -0.05441578      -0.29166539       0.84260351
H       -2.22354869       0.12566522       0.06022573       0.39935577       1.16132158       0.18163028
H        0.95330396       0.82734451       1.76302739      -0.51230941      -0.46165041      -0.44978344
H        1.83805319       0.22494510       0.35729330      -1.25125369      -0.12401379       0.30034952
H        3.22039155      -3.53882382       1.31662850      -0.51282266       0.91471759       0.35837356
H        2.29341701      -2.51049278       2.44881336      -0.01972786       0.16638791       1.58842614
H        3.24719814      -1.77865860       1.12510733      -0.43078961      -0.11263351       0.37752324
H        1.11662189      -3.82422993       0.63020460      -1.11485787       0.49220164      -0.31389640
H        1.68583551      -2.39220760      -0.42139794      -0.78119387      -0.93917408       0.37825238
