34
Properties=species:S:1:pos:R:3:forces:R:3 id=7090 bond=C-O smiles="[H:29][c:12]1[c:11]([c:16]([c:18]2[c:19]([c:17]1[C:20]([F:3])([F:4])[F:5])[C@:23]([C:22]([C:21]2([H:30])[H:31])([H:32])[H:33])([H:34])[O:7][H:24])[O:6][c:15]3[c:9]([c:13]([c:8]([c:14]([c:10]3[H:27])[F:2])[H:25])[F:1])[H:26])[H:28]" dataset=PubChem energy=-34455.647275135234 pbc="F F F"
F        0.05562235       1.90744935      -4.64085876       0.67035316       0.39760794      -1.18422439
F       -3.19870661       0.84142013      -1.48158371       0.93687524       0.37989159       0.21375797
F        1.71676130      -1.11279835       4.92069519      -1.91720673      -1.40619748       0.56734424
F        0.03054048       0.18506627       5.45396364      -0.42830269      -1.41069617       1.32394438
F       -0.54637455      -1.52431549       4.15449059       1.56696555      -0.56510741       1.88603612
O        1.10425217       2.60624776      -0.09139597      -0.34629418      -0.80924008       0.22160313
O        2.79204992      -1.64668423       2.49243513      69.15293421      -7.29269231      66.44245594
C       -1.54967712       1.35708950      -3.10204112      -0.66669217      -0.12234701       0.79169038
C        0.62392881       2.24496589      -2.38539206      -2.43366756      -0.28155865       1.04522676
C       -1.09118329       1.76070033      -0.72651529      -0.99245857      -0.35002981      -1.12245037
C        0.44781877       2.33342074       2.17868865      -0.62334401       0.88195123       0.26252471
C        0.33594350       1.51011024       3.30416668      -0.17444078      -0.03767709       0.25535275
C       -0.30404138       1.93250857      -3.37617027      -0.52203661      -1.50577702       1.78316560
C       -1.95495247       1.32268940      -1.75268590       1.26153070       0.29719514      -1.33548560
C        0.21236868       2.17393110      -1.01790082      -0.71020642       0.40604594      -3.29546214
C        0.94150203       1.79309640       1.00974277       0.98939087      -0.07392051       2.33334500
C        0.72287390       0.15296273       3.30754769       0.11060928       1.23479047      -1.42214638
C        1.43484856       0.49910896       1.07752038       1.10582080      -0.07424683      -0.92248039
C        1.34116090      -0.36687042       2.16851521      -4.66126428       4.93126102      -2.16637628
C        0.44388561      -0.65745451       4.51379574       0.30668384       2.70723248      -2.04420087
C        2.31472851      -0.10896631      -0.00003009      -1.35119439       0.59958762      -0.47511296
C        2.87138916      -1.34505596       0.58291805      -0.35561021      -0.64559818      -3.79366789
C        2.11291946      -1.59068073       1.89896727     -61.96773978       4.65975492     -57.86523079
H        2.47097042      -1.59783393       3.44436232       1.93656881      -0.61562172      -0.21458945
H       -2.14613985       0.86992560      -3.89724790       0.40507623       0.69368943       0.62065914
H        1.58039046       2.52708278      -2.67101395       1.57781932       0.54853844      -0.21673119
H       -1.56471847       1.79034410       0.21763930       0.20482535      -0.01711249       1.08549002
H        0.13814921       3.41559539       2.15802491       0.30286725      -1.38370168       0.32469591
H       -0.08253615       1.91050420       4.22724545       0.11819605       0.03485733      -0.50248689
H        3.11320282       0.53463950      -0.30932104      -0.05002523       0.70738351      -0.51601874
H        1.67443026      -0.40923419      -0.81111156      -0.10243003       0.48007788      -0.80148715
H        3.96496464      -1.17103352       0.74402717      -1.06713691      -0.76620171       0.48712235
H        2.69885016      -2.16832007      -0.11087387       0.48833968      -0.10601342       0.00992587
H        1.47842122      -2.48816861       1.92205489      -2.74816337      -1.49129987      -1.76954227
