9
Properties=species:S:1:pos:R:3:forces:R:3 id=4517 bond=C-O smiles="[H:5][C:2]([H:6])([H:7])[C:3]([H:8])([H:9])[O:1][H:4]" dataset="DES370K Monomers" energy=-4187.951596735609 pbc="F F F"
O       -1.29597861      -0.14378013      -0.11368291    -157.56173959     -68.27343288    -100.40145241
C        0.57622165       0.03538069      -0.74997826       4.90521138       2.25824654       1.74055102
C       -0.68206375       0.13060062       0.27069245     150.51471454      67.59862400      96.23691399
H       -1.01664836      -0.67768563      -0.81641916      -2.31590752      -3.54321354      -3.17140993
H        1.58544022       0.03165241      -0.23642050      -0.84498988       0.22426504      -1.13124485
H        0.51532466      -0.84554152      -1.40029903      -0.61488830      -0.63788266       0.48326545
H        0.42066116       0.87166222      -1.41779681       0.43445947       0.44978455      -0.21843601
H       -0.88157176       1.05107768       0.80237226       1.53017012       4.18962944       1.47244726
H       -0.51175713      -0.39837901       1.18387202       3.95058359      -2.26601066       4.98773243
