9
Properties=species:S:1:pos:R:3:forces:R:3 id=4517 bond=C-O smiles="[H:5][C:2]([H:6])([H:7])[C:3]([H:8])([H:9])[O:1][H:4]" dataset="DES370K Monomers" energy=-4206.449387759682 pbc="F F F"
O       -1.34713818      -0.16664519      -0.14571419     -74.05416653     -31.23732903     -46.75936825
C        0.62738122       0.05824575      -0.71794698       2.92368776       1.79855001       2.17123803
C       -0.63090418       0.15346568       0.30272373      69.70077692      30.38239495      43.88985826
H       -1.06780793      -0.70055069      -0.84845044      -1.69813174      -2.36118359      -2.26215236
H        1.63659979       0.05451747      -0.20438922      -0.96259164       0.25289017      -1.00759590
H        0.56648423      -0.82267646      -1.36826775      -0.42287094      -0.46097730       0.52670168
H        0.47182073       0.89452728      -1.38576553       0.47518111       0.42160321      -0.19140205
H       -0.83041219       1.07394274       0.83440354       1.14730940       2.95377370       0.39737577
H       -0.46059756      -0.37551395       1.21590330       2.88863998      -1.75125781       3.23699605
