9
Properties=species:S:1:pos:R:3:forces:R:3 id=4517 bond=C-O smiles="[H:5][C:2]([H:6])([H:7])[C:3]([H:8])([H:9])[O:1][H:4]" dataset="DES370K Monomers" energy=-4220.16681614502 pbc="F F F"
O       -1.65409561      -0.30383556      -0.33790187       1.76845308       3.14252264       4.18803497
C        0.93433865       0.19543612      -0.52575930      -1.20622650       0.44127579       1.49533692
C       -0.32394675       0.29065605       0.49491141      -0.27771424      -2.31051544      -2.80925989
H       -1.37476536      -0.83774106      -1.04063812       1.25619161      -1.03263838      -1.26966400
H        1.94355722       0.19170784      -0.01220154      -1.32974675       0.25885008      -0.55352281
H        0.87344166      -0.68548609      -1.17608007      -0.11143932      -0.04344698       0.58875666
H        0.77877816       1.03171765      -1.19357785       0.59428495       0.32096242      -0.10501476
H       -0.52345476       1.21113311       1.02659122      -0.59684050       1.04850906      -1.52213174
H       -0.15364013      -0.23832358       1.40809098      -0.09621323      -1.82527372      -0.01111774
