9
Properties=species:S:1:pos:R:3:forces:R:3 id=4517 bond=C-O smiles="[H:5][C:2]([H:6])([H:7])[C:3]([H:8])([H:9])[O:1][H:4]" dataset="DES370K Monomers" energy=-4220.688689781031 pbc="F F F"
O       -1.60293604      -0.28097050      -0.30587059       0.95262621       2.69661547       3.48874966
C        0.88317908       0.17257106      -0.55779058      -0.95024714       0.54351343       1.65883657
C       -0.37510632       0.26779099       0.46288013       0.11469715      -2.10332997      -2.42113213
H       -1.32360579      -0.81487600      -1.00860684       1.02761626      -1.01343414      -1.23344833
H        1.89239765       0.16884278      -0.04423282      -1.30242994       0.26208435      -0.61193364
H        0.82228209      -0.70835115      -1.20811135      -0.11901868      -0.07354714       0.58177074
H        0.72761859       1.00885259      -1.22560913       0.58954784       0.33116379      -0.11444449
H       -0.57461433       1.18826805       0.99455994      -0.41985760       1.08638636      -1.44323600
H       -0.20479970      -0.26118864       1.37605970       0.10667146      -1.72966386       0.09672906
