29
Properties=species:S:1:pos:R:3:forces:R:3 id=35615 bond=C-S smiles="[H:18][C:7]1=[C:6]([C@:12]([C@@:13]([C@:14]2([C@@:15]1([O:4]2)[H:29])[H:28])([H:27])[O:3][H:16])([H:26])[S:5][C:9]([H:22])([H:23])[C:10]([H:24])([H:25])[C:11]3([N:1]=[N:2]3)[C:8]([H:19])([H:20])[H:21])[H:17]" dataset=PubChem energy=-28512.502113576913 pbc="F F F"
N        4.37950882       0.06680789      -1.11285650       3.92936539       0.20425765       0.56858181
N        5.60641608       0.19620213      -0.70905959      -4.11146942      -0.21611277      -1.44414012
O       -2.50687485       0.23573698       2.59116677      -1.01547392       0.44224506      -0.14868300
O       -4.53532581       0.47355778      -0.34141560      -0.63863031      -1.52980377      -1.34691797
S        1.59379819      -0.41190084       1.22031606      -1.09995690       1.14876093      -0.26977112
C       -1.59705882       1.83469756      -0.69936271      -1.51262809      -0.64406289      -0.32390592
C       -2.85567813       2.03169233      -1.26837929       2.67195936      -0.53933771       0.75891276
C        4.88817534      -1.86875978       0.54057032      -0.89920303       0.14041998       0.20823184
C        2.75692412       0.99630514       1.14040357      -0.32544147       0.44919521      -0.12705009
C        4.18239317       0.49353188       1.34921098       0.19279646      -0.57443518       1.27569801
C        4.65583358      -0.41638919       0.21689287       0.54510244       0.50517931       1.25606049
C       -1.45109873       1.38184277       0.74979300      -2.79044971       0.61175281      -1.66236778
C       -2.59149866       0.45677037       1.18846367       1.59414528      -0.70335625       0.43241800
C       -3.99693136       1.02283420       0.80213801       0.22925142       0.82892952       0.12488612
C       -4.11768012       1.79317755      -0.51643582       0.24973874       0.89531742       1.70434732
H       -1.63151937      -0.07649868       2.81152133       0.33840514      -0.09409619      -0.13998277
H       -0.67378246       1.94890840      -1.26866122      -0.42805898       0.29073939       0.03785657
H       -2.93365936       2.37691087      -2.30783959       0.15747224      -0.13219261       0.55968398
H        4.65892157      -2.49297931      -0.31465810      -0.00248297      -0.16801186      -0.06793604
H        5.93055233      -1.99565294       0.80729720       0.15600904      -0.14251507       0.13673548
H        4.24053869      -2.14777734       1.39192897       0.41520891      -0.08339837      -0.51338254
H        2.69112453       1.52356038       0.17913193      -0.11018710      -0.30099836       0.17951668
H        2.50296876       1.71595630       1.92483306       0.08702614      -0.20325793      -0.12335751
H        4.16832385      -0.07597911       2.32203341       0.27479981       0.50449361      -0.96806362
H        4.88537774       1.34450195       1.49243879      -0.49750428      -0.44875652      -0.26752524
H       -1.51222508       2.25942654       1.38824288       1.44507242      -0.13988165       0.57802718
H       -2.48007040      -0.51051979       0.68482642      -0.22754821       0.21474023      -0.21314173
H       -4.74329023       1.07600991       1.62175814       0.90594880       0.38075563      -0.37363023
H       -4.91311293       2.55309588      -0.65329703       0.46826500      -0.69568513       0.16785682
