29
Properties=species:S:1:pos:R:3:forces:R:3 id=35615 bond=C-S smiles="[H:18][C:7]1=[C:6]([C@:12]([C@@:13]([C@:14]2([C@@:15]1([O:4]2)[H:29])[H:28])([H:27])[O:3][H:16])([H:26])[S:5][C:9]([H:22])([H:23])[C:10]([H:24])([H:25])[C:11]3([N:1]=[N:2]3)[C:8]([H:19])([H:20])[H:21])[H:17]" dataset=PubChem energy=-28516.410933892024 pbc="F F F"
N        3.77052944       0.42555661      -1.20696111       3.93594786       0.22350715       0.56237297
N        4.99743670       0.55495085      -0.80316420      -4.14742216      -0.22260090      -1.44948080
O       -1.89789547      -0.12301174       2.68527138      -0.98908673       0.38098462      -0.05763724
O       -3.92634643       0.11480906      -0.24731099      -0.73653720      -1.54147870      -1.47386299
S        0.98481881      -0.05315212       1.12621145      -2.45407718       1.95757601      -0.47788069
C       -0.98807944       1.47594884      -0.60525810      -2.37927680      -0.18187293      -0.70817650
C       -2.24669875       1.67294361      -1.17427468       2.93714380      -0.35333462       0.74597598
C        4.27919596      -1.51001106       0.44646571      -0.90002446       0.13991169       0.20956932
C        2.14794474       1.35505386       1.04629896      -0.05093030       0.51048621      -0.03594836
C        3.57341379       0.85228060       1.25510637       0.09901205      -0.51290165       1.24805443
C        4.04685420      -0.05764047       0.12278826       0.56727517       0.48229337       1.24915077
C       -0.84211935       1.02309405       0.84389761       0.73851416      -0.95378922      -0.80792382
C       -1.98251928       0.09802165       1.28256828       0.44401979      -0.28273583       0.14932386
C       -3.38795198       0.66408548       0.89624262       0.53900838       0.59516152       0.48771617
C       -3.50870074       1.43442883      -0.42233121       0.30743891       0.86637145       1.70294137
H       -1.02253999      -0.43524740       2.90562594       0.31797050      -0.03223022      -0.13420901
H       -0.06480308       1.59015968      -1.17455661      -0.45107671       0.16578113       0.02340394
H       -2.32467998       2.01816215      -2.21373498       0.10898460      -0.20641333       0.52290747
H        4.04994219      -2.13423059      -0.40876271       0.00015815      -0.16761168      -0.06517308
H        5.32157295      -1.63690422       0.71319259       0.14565167      -0.14565254       0.13858602
H        3.63155931      -1.78902862       1.29782436       0.42888393      -0.09624667      -0.50964299
H        2.08214515       1.88230910       0.08502732      -0.15699974      -0.30168044       0.17736510
H        1.89398938       2.07470502       1.83072845       0.02888111      -0.20504299      -0.13879329
H        3.55934447       0.28276961       2.22792880       0.27863602       0.51005533      -0.96203940
H        4.27639836       1.70325067       1.39833418      -0.52203682      -0.47957248      -0.26398609
H       -0.90324570       1.90067782       1.48234749       0.79522097      -0.08422744       0.33975688
H       -1.87109102      -0.86926851       0.77893103      -0.17610009       0.20607441      -0.21495778
H       -4.13431085       0.71726119       1.71586275       0.83844970       0.42257184      -0.42610073
H       -4.30413355       2.19434716      -0.55919242       0.45350802      -0.69115269       0.16703943
