45
Properties=species:S:1:pos:R:3:forces:R:3 id=18564 bond=C-C smiles="[H:20][c:2]1[c:4]2[c:5]([c:3]([c:7]3[c:6]1[C:18]([C:15]([C:16]([C:19]3([C:12]([H:33])([H:34])[H:35])[C:13]([H:36])([H:37])[H:38])([H:43])[H:44])([H:41])[H:42])([C:10]([H:27])([H:28])[H:29])[C:11]([H:30])([H:31])[H:32])[H:21])[C:17]([C:14]([O:1][C:8]2([H:22])[H:23])([H:39])[H:40])([H:45])[C:9]([H:24])([H:25])[H:26]" dataset=PubChem energy=-21149.58366690405 pbc="F F F"
O        3.96981719       0.25712161       3.32703545      -0.00723581      -0.72990352      -0.10816946
C        0.95747749      -0.79541124       1.54144946       0.32322145       0.62625770       0.20281690
C        1.12202165       1.90101825       0.90648734      -0.21306132      -0.89601865      -0.35836316
C        2.15575424      -0.10710741       1.79187992      -1.26623319       0.59684295      -0.68055055
C        2.23864523       1.24903737       1.43860355       0.23705160       0.43329923       0.71051665
C       -0.17388054      -0.16534240       0.98175435       0.56660023       0.96723987      -1.16816695
C       -0.05950930       1.21906953       0.57040937      -0.09944122      -0.78426732       0.62652825
C        3.28252319      -0.75125731       2.52413919       0.74855156       1.01786587       0.08140521
C        4.03561762       2.91007410       0.62130883       0.28466622      -0.21556186       0.96804143
C       -1.82907816      -1.67523945       2.05789616      -0.31453715      -0.58925259      -0.41416653
C       -0.96967029      -2.39954740      -0.92839144      -0.55685231       0.81699627       1.41181257
C       -1.76199527       3.16964828       0.62290647      -0.18127991      -0.30984165       0.30228102
C       -0.54007151       2.50360202      -1.51030752       0.11541635       0.21924605      -0.16749998
C        4.54374197       1.30243628       2.54705706      -0.11462313      -0.65561119      -0.88308759
C       -2.63314553       0.01305460       0.44130191      -0.00467815      -0.63014964      -1.18347775
C       -2.30847784       1.03194805      -0.65257678      -0.21715189      -0.24314009       0.47032115
C        3.46770934       2.10367929       1.82903138      -0.88514885       0.66881611       0.04108355
C       -1.46257444      -0.90654768       0.78583004       0.46980601      -1.17254969      -0.77847750
C       -1.17599054       1.98495280      -0.21177981       0.52492897      -0.22371475       0.13992203
H        0.95826332      -1.84055723       1.85299614      -0.39300227       0.25918211      -0.20591716
H        1.18297479       2.96465979       0.71873243       0.03695379      -0.03643804      -0.06733766
H        2.90042308      -1.54108919       3.17635730       0.31179915       0.33094693       0.11154172
H        3.98656372      -1.19124592       1.80765447       0.11523372      -0.02715211       0.18540047
H        4.98605040       3.41075121       0.92361857      -0.55049000      -0.49093812      -0.29272424
H        4.22734264       2.17138873      -0.17866203      -0.10695800       0.79938405       0.08862453
H        3.34990195       3.73064576       0.34941828       0.25578947      -0.67986003      -0.26640639
H       -2.06399127      -0.97503246       2.88171985       0.15516254      -0.16452770      -0.48547861
H       -2.71125742      -2.30946268       1.89167657       0.21856377       0.23516914       0.04554607
H       -1.02790519      -2.31800164       2.39860728       0.06855452      -0.08527261       0.02391814
H       -1.88960766      -2.90302974      -1.26576351       0.18977206       0.40235728       0.48055397
H       -0.54715191      -1.85124356      -1.77617429      -0.09590364       0.28767045       0.52131886
H       -0.23777341      -3.16622860      -0.59005002      -0.54721965       0.83435481       0.24724040
H       -2.62297364       3.56385146       0.10372141      -0.19589835       0.19499804      -0.46525044
H       -2.19955393       2.82819949       1.58176628       0.64238490       0.08981231      -0.33696814
H       -1.09948965       4.04237233       0.79512465      -0.04763392      -0.85472941      -0.03329405
H        0.31716894       3.12926494      -1.28506109       0.08301362       0.13077777      -0.09987011
H       -0.18886407       1.66835420      -2.13316485      -0.11504534       0.24634601       0.26482700
H       -1.24192926       3.10179625      -2.10793206       0.04481980      -0.20821216       0.23722142
H        5.24422816       0.88304507       1.79305318      -0.20148561       0.01118166       0.35013483
H        5.11375264       1.98275017       3.18930104      -0.14678866      -0.46843276       0.09549933
H       -3.55375024      -0.55509294       0.21347365       0.59180821       0.04413965      -0.09283871
H       -2.87718697       0.52853848       1.34896752      -0.03128564       0.45782168       0.66990940
H       -3.19358297       1.65685164      -0.86007020       0.30120501      -0.39260719      -0.12279317
H       -2.03123112       0.47685279      -1.56810495      -0.08331174       0.39769503       0.41706500
H        3.09053877       2.81811462       2.59013691       0.08969659      -0.21041693      -0.48506796
