45
Properties=species:S:1:pos:R:3:forces:R:3 id=18564 bond=C-C smiles="[H:20][c:2]1[c:4]2[c:5]([c:3]([c:7]3[c:6]1[C:18]([C:15]([C:16]([C:19]3([C:12]([H:33])([H:34])[H:35])[C:13]([H:36])([H:37])[H:38])([H:43])[H:44])([H:41])[H:42])([C:10]([H:27])([H:28])[H:29])[C:11]([H:30])([H:31])[H:32])[H:21])[C:17]([C:14]([O:1][C:8]2([H:22])[H:23])([H:39])[H:40])([H:45])[C:9]([H:24])([H:25])[H:26]" dataset=PubChem energy=-21150.473677216065 pbc="F F F"
O        3.99421838       0.18321074       3.24217300      -0.00357495      -0.73179961      -0.10665883
C        0.98187868      -0.86932211       1.45658701       0.28235482       0.64176115       0.16221527
C        1.14642284       1.82710738       0.82162489      -0.19434333      -0.90130088      -0.37095690
C        2.18015543      -0.18101828       1.70701747      -1.23731147       0.62845829      -0.69537440
C        2.26304642       1.17512650       1.35374110       0.23968054       0.41759419       0.71308295
C       -0.14947935      -0.23925327       0.89689190       0.67650237       1.20920912      -0.96827672
C       -0.03510811       1.14515866       0.48554692      -0.08292080      -0.81445211       0.66613688
C        3.30692438      -0.82516818       2.43927674       0.74423870       1.02267457       0.08158664
C        4.06001881       2.83616323       0.53644638       0.28646843      -0.21646311       0.97116422
C       -1.80467697      -1.74915032       1.97303371      -0.35094042      -0.43000418      -0.26229625
C       -0.99407148      -2.32563653      -0.84352899      -0.73001167       1.15325771       1.79116066
C       -1.73759408       3.09573741       0.53804402      -0.18652167      -0.31110007       0.29957652
C       -0.51567032       2.42969115      -1.59516997       0.11006220       0.22306343      -0.16451895
C        4.56814316       1.22852541       2.46219461      -0.11757388      -0.65306650      -0.88379873
C       -2.60874434      -0.06085627       0.35643946      -0.03555445      -0.51178329      -1.00672023
C       -2.28407665       0.95803718      -0.73743923      -0.22028969      -0.24286039       0.47644204
C        3.49211053       2.02976842       1.74416893      -0.88839802       0.67246189       0.04489283
C       -1.43817325      -0.98045855       0.70096759       0.56940146      -1.83882336      -1.44952423
C       -1.15158935       1.91104193      -0.29664226       0.52798732      -0.22444132       0.14672858
H        0.98266451      -1.91446810       1.76813369      -0.39232788       0.25966701      -0.18592415
H        1.20737598       2.89074892       0.63386998       0.03903971      -0.03352461      -0.06728988
H        2.92482427      -1.61500006       3.09149485       0.31136130       0.33039952       0.11282937
H        4.01096491      -1.26515679       1.72279202       0.11675802      -0.02769514       0.18497976
H        5.01045159       3.33684034       0.83875612      -0.54904918      -0.48969986      -0.29328203
H        4.25174383       2.09747786      -0.26352448      -0.10732646       0.79846928       0.08838884
H        3.37430314       3.65673489       0.26455583       0.25525681      -0.68003400      -0.26626726
H       -2.03959008      -1.04894333       2.79685740       0.14839832      -0.19972525      -0.46992176
H       -2.68685623      -2.38337355       1.80681412       0.21180433       0.22804312       0.03630154
H       -1.00350400      -2.39191251       2.31374483       0.07550588      -0.09289671       0.02021991
H       -1.91400885      -2.82911887      -1.18090106       0.21998686       0.34729660       0.41589307
H       -0.57155310      -1.77733269      -1.69131184      -0.08292706       0.19781267       0.47463643
H       -0.26217460      -3.09231773      -0.50518757      -0.54565483       0.80754295       0.17162458
H       -2.59857245       3.48994059       0.01885896      -0.19743396       0.19740847      -0.46551323
H       -2.17515274       2.75428862       1.49690383       0.64410873       0.08868726      -0.33933986
H       -1.07508846       3.96846146       0.71026220      -0.04698047      -0.85508453      -0.03429931
H        0.34157013       3.05535407      -1.36992354       0.08359226       0.12916289      -0.09999486
H       -0.16446288       1.59444333      -2.21802730      -0.11307864       0.24570616       0.26268682
H       -1.21752807       3.02788538      -2.19279451       0.04505804      -0.20741300       0.23499168
H        5.26862935       0.80913420       1.70819073      -0.20082293       0.01039722       0.34929722
H        5.13815383       1.90883930       3.10443859      -0.14603993      -0.46866319       0.09617635
H       -3.52934905      -0.62900381       0.12861120       0.58936524       0.03279831      -0.10196734
H       -2.85278578       0.45462761       1.26410507      -0.05703008       0.47825433       0.64011614
H       -3.16918178       1.58294077      -0.94493265       0.30218758      -0.39488893      -0.12964941
H       -2.00682993       0.40294192      -1.65296740      -0.08605308       0.41396758       0.40267235
H        3.11493996       2.74420375       2.50527446       0.09308913      -0.20843167      -0.48446735
