14
Properties=species:S:1:pos:R:3:forces:R:3 id=20036 bond=C-N smiles="[H:8][C:3]([H:9])([H:10])[N:2]([H:7])[C:5]([H:13])([H:14])[C:4]([H:11])([H:12])[O:1][H:6]" dataset="DES370K Monomers" energy=-6780.833563213247 pbc="F F F"
O       -2.04122369      -0.63865818      -0.07073455      -0.95632289      -1.33889863      -3.11403974
N        0.37885843       0.04183382       0.01997650      53.60401691      -5.26459764     -80.26816036
C        1.75764172       0.37101166       0.10405016       4.17529622      -2.42064261      -1.24709289
C       -1.40919833       0.53865115       0.32831399      -4.81412728      -0.74076205       3.90451220
C       -0.09441183       0.07174732       0.80037479     -46.87449283       6.56811790      74.61604407
H       -1.80910198      -0.85484763      -1.02783425      -0.60820311       0.60326810       2.00379163
H        0.20231079      -0.85215364      -0.50455884       1.02718472       1.37186094      -1.22745559
H        2.41099040      -0.58703653      -0.05923401      -0.65344549       1.53368624       0.42206414
H        2.01808231       1.04845025      -0.67472980       0.53119000       0.61721891      -0.55834036
H        2.03264253       0.81046201       1.11093398      -0.51119041      -0.63132694      -1.26708576
H       -1.88095538       0.89254431       1.21119622      -1.82296094       0.61748801       0.44205541
H       -1.31945007       1.25647043      -0.44568323       0.28871788       0.75343582      -0.37766352
H        0.35148802       0.82931875       1.43237249      -1.41335781       0.69547106       2.10140858
H       -0.03861153      -0.88885166       1.24392048      -1.97312006      -2.36424466       4.56975965
