14
Properties=species:S:1:pos:R:3:forces:R:3 id=20036 bond=C-N smiles="[H:8][C:3]([H:9])([H:10])[N:2]([H:7])[C:5]([H:13])([H:14])[C:4]([H:11])([H:12])[O:1][H:6]" dataset="DES370K Monomers" energy=-6796.584492547637 pbc="F F F"
O       -2.30671675      -0.62187744       0.36704985      -1.42493702      -1.26219133      -2.92762042
N        0.64435149       0.02505308      -0.41780790      -3.54579079      -0.52518694       2.17135910
C        2.02313478       0.35423092      -0.33373424       1.88622794      -2.22007436       1.37779242
C       -1.67469139       0.55543189       0.76609839       1.03362660      -2.02537739       0.52447704
C       -0.35990489       0.08852806       1.23815919       3.25347669       1.39522161      -3.34846396
H       -2.07459504      -0.83806689      -0.59004985      -0.42293590       0.66833077       2.14003694
H        0.46780385      -0.86893438      -0.94234324       0.27614443       1.16867495       1.38937097
H        2.67648346      -0.60381727      -0.49701841      -0.70270053       1.70924396       0.49996628
H        2.28357537       1.03166951      -1.11251420       0.36294976       0.76683564      -0.52542459
H        2.29813559       0.79368127       0.67314958      -0.25777711      -0.44676534      -1.24527000
H       -2.14644844       0.90932505       1.64898062      -1.07852359       0.62268278       0.53493250
H       -1.58494313       1.27325117      -0.00789883      -0.00038916       0.86394151      -0.50603376
H        0.08599496       0.84609949       1.87015689       0.85050981       0.06732888      -0.25229108
H       -0.30410459      -0.87207092       1.68170488      -0.22955742      -0.77940681       0.16754177
