31
Properties=species:S:1:pos:R:3:forces:R:3 id=30603 bond=C-N smiles="[H:24][c:9]1[c:5]([c:11]([c:7]([c:13]([c:15]1[C:18]([H:26])([H:27])[H:28])/[N:4]=[N+:17](/[c:14]2[c:8]([c:12]([c:6]([c:10]([c:16]2[C:19]([H:29])([H:30])[H:31])[H:25])[H:21])[Cl:3])[H:23])[O-:1])[H:22])[Cl:2])[H:20]" dataset=PubChem energy=-44799.931502832726 pbc="F F F"
O        1.65518198      -0.86604093       0.15928866       1.72887688       0.11720180       0.61607862
Cl      -4.30034187      -2.02553963      -1.00599222       0.58672778       0.38323206       0.06399969
Cl       5.55878479       0.50625830       3.49138447      -0.19128233       0.17094504       0.04873652
N       -0.05931678       0.44396065       0.32527231       1.83605346       2.45730442       2.90671895
C       -2.32893255      -1.27338384      -2.70381467      -0.07878961       0.09318754      -0.15135138
C        3.26549704       1.84538678       4.13009020      -0.33831185       0.52083580       0.42142749
C       -1.92573431      -0.72013926      -0.42208652      -1.80467010      -0.95613639       0.74550432
C        3.20736653       0.49218166       2.17781028       0.28908709      -0.82052939      -1.65120372
C       -1.11427858      -0.69554138      -3.03099815       0.58979380       0.70800438       0.44059867
C        1.96664018       2.26161066       3.90187284      -0.21503040      -1.09091791      -0.92354630
C       -2.75233915      -1.27967023      -1.39509289       0.49167196       0.09251034       0.14379054
C        3.90691478       0.99682031       3.25682565      -0.58501769      -0.31909190      -0.44573745
C       -0.70587352      -0.16843616      -0.73650245       0.39274380      -0.21415413      -0.91627622
C        1.85255511       0.79983666       1.95191094      -0.17683099       0.04287155      -0.62907400
C       -0.29263183      -0.07806163      -2.08013026      -0.02209417      -0.36768802      -0.11756035
C        1.22377140       1.71503368       2.80271932       0.10892156       0.77168859       0.88425382
N        1.12525538       0.10598797       0.70240755      -1.66465758      -0.60570398      -0.58809367
C        0.97253418       0.64664196      -2.49538223      -0.48441277      -0.02449110      -0.31007010
C       -0.18345319       2.19909171       2.70781371      -0.80888383      -0.45325797      -0.56531469
H       -2.99151066      -1.65324449      -3.44768874      -0.09847543      -0.30893020      -0.48569089
H        3.75989039       2.19049362       5.00681802       0.45176054       0.24943815       0.41167647
H       -2.31189325      -0.75918745       0.60302925       0.54736643       0.21693491      -0.36412551
H        3.80832536      -0.10218473       1.46150365      -0.95445764       0.17162586       0.47086605
H       -0.75259259      -0.64758741      -4.04524915      -0.28491259      -0.12109992      -0.23854611
H        1.48063393       2.95155314       4.61058876       0.26655546      -0.49908386      -0.62092291
H        1.15631518       1.49057747      -1.84286682       0.00315229       0.19711141       0.11563374
H        1.82821462      -0.00448774      -2.41276567       0.29210129      -0.27721027       0.05899529
H        0.92929530       1.02177698      -3.53615109      -0.15795722      -0.28562114       0.59606190
H       -0.36426811       2.75478795       1.77811047       0.01212712      -0.17529680       0.35414940
H       -0.46780770       2.78946546       3.57203933       0.25214353       0.23767933      -0.03069305
H       -0.86646216       1.34751699       2.70540044       0.01459278       0.09036405      -0.23714300
