31
Properties=species:S:1:pos:R:3:forces:R:3 id=30603 bond=C-N smiles="[H:24][c:9]1[c:5]([c:11]([c:7]([c:13]([c:15]1[C:18]([H:26])([H:27])[H:28])/[N:4]=[N+:17](/[c:14]2[c:8]([c:12]([c:6]([c:10]([c:16]2[C:19]([H:29])([H:30])[H:31])[H:25])[H:21])[Cl:3])[H:23])[O-:1])[H:22])[Cl:2])[H:20]" dataset=PubChem energy=-44794.347053757054 pbc="F F F"
O        1.78144930      -0.74558109       0.37621633       1.21469470      -2.97249992      -2.58773428
Cl      -4.17407455      -1.90507979      -0.78906455       0.56803004       0.37320671       0.06675828
Cl       5.43251747       0.38579846       3.27445680      -0.17301901       0.19828838       0.08063496
N        0.06695054       0.56442049       0.54219998      -0.60803667       1.54823641       0.09281692
C       -2.20266523      -1.15292400      -2.48688700      -0.09832477       0.07843211      -0.14916884
C        3.13922972       1.72492694       3.91316253      -0.49162400       0.63216459       0.57005979
C       -1.79946699      -0.59967942      -0.20515885      -1.88346899      -0.96653861       0.68868369
C        3.08109921       0.37172182       1.96088261       2.74977684      -0.03365893       0.51327691
C       -0.98801126      -0.57508154      -2.81407048       0.62825580       0.72472716       0.43687994
C        1.84037286       2.14115082       3.68494517      -0.46370368      -0.96977907      -0.88160547
C       -2.62607183      -1.15921039      -1.17816522       0.48596504       0.11484733       0.13713438
C        3.78064746       0.87636047       3.03989798      -0.56823661      -0.65587386      -0.88575839
C       -0.57960620      -0.04797632      -0.51957478       0.63810404      -0.06005051      -0.61409847
C        1.72628779       0.67937682       1.73498327      18.77777719      18.51334145      31.74961550
C       -0.16636451       0.04239821      -1.86320259      -0.07179231      -0.42669666      -0.19483294
C        1.09750408       1.59457384       2.58579165       0.28499324       2.26310449       2.61691874
N        1.25152270       0.22644781       0.91933522     -20.34772245     -17.91409121     -31.68319959
C        1.09880150       0.76710180      -2.27845456      -0.47903325      -0.04511320      -0.31429998
C       -0.30972051       2.07863187       2.49088604      -0.53465273      -0.16125005      -0.00737044
H       -2.86524334      -1.53278465      -3.23076107      -0.09938828      -0.31019689      -0.48547665
H        3.63362307       2.07003378       4.78989035       0.44811540       0.26444031       0.42510474
H       -2.18562593      -0.63872761       0.81995692       0.54887423       0.19344024      -0.36251880
H        3.68205804      -0.22264457       1.24457598      -0.98552688       0.44050642       0.65157592
H       -0.62632527      -0.52712757      -3.82832148      -0.28837196      -0.12475213      -0.24646752
H        1.35436661       2.83109330       4.39366109       0.30437803      -0.49980975      -0.60060770
H        1.28258250       1.61103731      -1.62593915      -0.00255141       0.20978141       0.12180083
H        1.95448194       0.11597210      -2.19583800       0.28324051      -0.27782180       0.06404598
H        1.05556262       1.14223682      -3.31922342      -0.15739314      -0.27353848       0.59237623
H       -0.49053543       2.63432811       1.56118280       0.00363664      -0.23920710       0.36813036
H       -0.59407502       2.66900562       3.35511166       0.32006161       0.29188923       0.10490654
H       -0.99272948       1.22705715       2.48847277      -0.00472858       0.08371399      -0.26937843
