31
Properties=species:S:1:pos:R:3:forces:R:3 id=30603 bond=C-N smiles="[H:24][c:9]1[c:5]([c:11]([c:7]([c:13]([c:15]1[C:18]([H:26])([H:27])[H:28])/[N:4]=[N+:17](/[c:14]2[c:8]([c:12]([c:6]([c:10]([c:16]2[C:19]([H:29])([H:30])[H:31])[H:25])[H:21])[Cl:3])[H:23])[O-:1])[H:22])[Cl:2])[H:20]" dataset=PubChem energy=-44798.75250846201 pbc="F F F"
O        1.74609445      -0.77930984       0.31547659       1.52368969      -1.61332465      -1.18075470
Cl      -4.20942940      -1.93880854      -0.84980429       0.57948846       0.37928189       0.06517370
Cl       5.46787232       0.41952721       3.33519654      -0.17338321       0.18655160       0.07171095
N        0.03159569       0.53069174       0.48146024       0.53033492       1.93828334       1.35553879
C       -2.23802008      -1.18665275      -2.54762674      -0.08727734       0.08684318      -0.14859235
C        3.17458457       1.75865569       3.97390227      -0.42760970       0.58193755       0.50080853
C       -1.83482184      -0.63340817      -0.26589859      -1.84750894      -0.95875513       0.71657304
C        3.11645406       0.40545057       2.02162235       1.65924441      -0.31114291      -0.33995735
C       -1.02336611      -0.60881029      -2.87481022       0.61037341       0.71847306       0.43833637
C        1.87572771       2.17487957       3.74568491      -0.38528671      -1.00378432      -0.89023199
C       -2.66142668      -1.19293914      -1.23890496       0.48486759       0.10097009       0.14234757
C        3.81600231       0.91008922       3.10063772      -0.57054704      -0.50925626      -0.71770454
C       -0.61496105      -0.08170507      -0.58031452       0.55298182      -0.11882423      -0.72578186
C        1.76164264       0.71310557       1.79572301       6.94894987       7.03066323      11.48697867
C       -0.20171936       0.00866946      -1.92394233      -0.04614484      -0.40232909      -0.16233321
C        1.13285893       1.62830259       2.64653139       0.30611747       1.57270914       1.87089307
N        1.21616785       0.19271906       0.85859548      -8.84428551      -7.00579452     -12.18012301
C        1.06344665       0.73337305      -2.33919430      -0.48270761      -0.03587249      -0.30946954
C       -0.27436566       2.11236062       2.55162578      -0.67104589      -0.27899726      -0.23985274
H       -2.90059819      -1.56651340      -3.29150081      -0.09879902      -0.30964997      -0.48537317
H        3.66897792       2.10376253       4.85063009       0.44936661       0.25710117       0.42129748
H       -2.22098078      -0.67245636       0.75921718       0.54727640       0.20436806      -0.36303494
H        3.71741289      -0.18891582       1.30531572      -1.00641082       0.30886910       0.57991723
H       -0.66168012      -0.56085632      -3.88906122      -0.28662193      -0.12298011      -0.24223691
H        1.38972146       2.86482205       4.45440083       0.29536795      -0.49804028      -0.60484152
H        1.24722765       1.57730856      -1.68667889       0.00055788       0.20574141       0.11799552
H        1.91912709       0.08224335      -2.25657774       0.28701925      -0.27952730       0.06217878
H        1.02020777       1.10850807      -3.37996316      -0.15689281      -0.27825811       0.59557743
H       -0.45518058       2.66805686       1.62192254       0.00271374      -0.21782800       0.36970584
H       -0.55872017       2.70273437       3.41585140       0.30117497       0.26829695       0.04753184
H       -0.95737463       1.26078590       2.54921251       0.00446400       0.10425685      -0.25274186
