31
Properties=species:S:1:pos:R:3:forces:R:3 id=30603 bond=C-N smiles="[H:24][c:9]1[c:5]([c:11]([c:7]([c:13]([c:15]1[C:18]([H:26])([H:27])[H:28])/[N:4]=[N+:17](/[c:14]2[c:8]([c:12]([c:6]([c:10]([c:16]2[C:19]([H:29])([H:30])[H:31])[H:25])[H:21])[Cl:3])[H:23])[O-:1])[H:22])[Cl:2])[H:20]" dataset=PubChem energy=-44790.700014172835 pbc="F F F"
O        1.79660137      -0.73112591       0.40224765       1.02893056      -3.75063088      -3.36622914
Cl      -4.15892248      -1.89062461      -0.76303323       0.56153103       0.36974330       0.06764975
Cl       5.41736540       0.37134328       3.24842548      -0.17708949       0.20406185       0.08297452
N        0.08210261       0.57887567       0.56823130      -1.22203763       1.33271510      -0.60501937
C       -2.18751316      -1.13846882      -2.46085568      -0.10453038       0.07381659      -0.14961912
C        3.12407765       1.71047176       3.88713121      -0.52082513       0.65311998       0.60332588
C       -1.78431492      -0.58522424      -0.17912753      -1.89837825      -0.96797965       0.67481844
C        3.06594714       0.35726664       1.93485129       3.35565248       0.10782853       0.96155239
C       -0.97285919      -0.56062636      -2.78803916       0.63808252       0.72766651       0.43618234
C        1.82522079       2.12669564       3.65891385      -0.51063887      -0.95406504      -0.88514283
C       -2.61091976      -1.14475521      -1.15213390       0.48633375       0.12329413       0.13406653
C        3.76549539       0.86190529       3.01386666      -0.56627212      -0.73856782      -0.96611301
C       -0.56445413      -0.03352114      -0.49354346       0.67619255      -0.03484516      -0.55870890
C        1.71113572       0.66492164       1.70895195      27.88579406      27.35368211      47.40161544
C       -0.15121244       0.05685339      -1.83717127      -0.08570728      -0.43850676      -0.20968432
C        1.08235201       1.58011866       2.55976033       0.26295245       2.67559611       3.06511639
N        1.26667477       0.24090299       0.94536654     -29.27307055     -26.41521270     -46.90105518
C        1.11395357       0.78155698      -2.25242324      -0.47644087      -0.05028257      -0.31787381
C       -0.32487258       2.06417669       2.46485472      -0.45596042      -0.10111842       0.11162021
H       -2.85009127      -1.51832947      -3.20472975      -0.09968571      -0.31051621      -0.48554743
H        3.61847100       2.05557860       4.76385903       0.44807119       0.26916734       0.42669805
H       -2.17047386      -0.62427243       0.84598824       0.54977372       0.18683610      -0.36234028
H        3.66690597      -0.23709975       1.21854466      -0.96053087       0.52259835       0.68592117
H       -0.61117320      -0.51267239      -3.80229016      -0.28933750      -0.12577952      -0.24882935
H        1.33921454       2.81663812       4.36762977       0.30804350      -0.50074858      -0.59876408
H        1.29773457       1.62549249      -1.59990783      -0.00430239       0.21172316       0.12406167
H        1.96963401       0.13042728      -2.16980668       0.28097770      -0.27612456       0.06480779
H        1.07071469       1.15669200      -3.29319210      -0.15793704      -0.27112914       0.59037717
H       -0.50568750       2.61987293       1.53515148       0.00466381      -0.24785034       0.36700037
H       -0.60922709       2.65455044       3.32908034       0.32572272       0.30526600       0.13732551
H       -1.00788155       1.21260197       2.46244145      -0.01038041       0.06730040      -0.27901256
