24
Properties=species:S:1:pos:R:3:forces:R:3 id=21657 bond=C-O smiles="[H:24][C@:11]1([C:9]([N:5]([C:7]([C@@:10]([O:4]1)([H:23])[O:3][C:6]([H:14])([H:15])[H:16])([H:17])[H:18])[O:1][H:12])([H:21])[H:22])[C:8]([H:19])([H:20])[O:2][H:13]" dataset=PubChem energy=-16114.924248831076 pbc="F F F"
O        2.78557981      -2.80876957       0.26357721      -0.01994693      -0.69036935      -0.15128853
O        0.71089646       2.00374664       2.58886125       0.23791889      -0.51294117      -0.25633051
O       -0.22403763       0.47300936      -1.63150309      -0.22785565       0.60024340       2.18084945
O       -0.19083367       0.15895776       0.76415627      -0.41211492      -0.41299664      -0.83995309
N        2.05759121      -1.61551117       0.43801458       0.00420215       2.48102290       0.10737585
C       -1.48220679       2.99315002      -1.53271935      -0.43791656       1.21314391      -0.95647731
C        1.17440222      -1.26402925      -0.71247039       0.61122537      -0.98252974       0.01007702
C        1.42918099       0.74947394       2.41318370      -0.72796929       1.42364146       0.87025974
C        1.28955854      -1.58634983       1.70969452       0.66729640      -1.86249116      -1.03504383
C        0.55006034       0.12840844      -0.48878024      -0.46845596       0.97929183      -0.87367001
C        0.49723623      -0.32628429       1.92274382       1.25758941       0.60679407      -1.37483547
H        3.75759889      -2.64551626       0.18126823      -1.51368055       0.64951763       0.21511402
H        0.16133321       2.16544474       1.79810526       0.52995001      -0.52622130       0.54274207
H       -1.45664093       3.44331613      -2.54025266       0.58581738      -1.31626590       0.06643324
H       -0.92127201       3.63442221      -0.88408718       0.88178788      -0.64521599       0.67741711
H       -2.52389285       2.94471339      -1.23337302       0.17938400      -1.30365760       0.30783180
H        0.39213945      -2.01257644      -0.79686401      -0.39805606      -0.04411632      -0.15361761
H        1.74728931      -1.26729630      -1.65587113      -0.15440498       0.09493003       0.62636045
H        1.83681871       0.44705863       3.38343384      -0.29495964       0.29178584       0.01310233
H        2.28700472       0.91641272       1.78791287       0.25691589      -0.11359179      -0.63060131
H        2.02159919      -1.63742147       2.51334717      -0.08056635      -0.28539318       0.07703886
H        0.62002427      -2.46559821       1.76476874       0.24135364       0.19453493       0.00130250
H        1.36212720       0.85980345      -0.43840615       0.12419288      -0.04035483       0.35894116
H       -0.20344446      -0.55907442       2.69468166      -0.83844006       0.20020203       0.21772258
