24
Properties=species:S:1:pos:R:3:forces:R:3 id=21657 bond=C-O smiles="[H:24][C@:11]1([C:9]([N:5]([C:7]([C@@:10]([O:4]1)([H:23])[O:3][C:6]([H:14])([H:15])[H:16])([H:17])[H:18])[O:1][H:12])([H:21])[H:22])[C:8]([H:19])([H:20])[O:2][H:13]" dataset=PubChem energy=-16117.908465215236 pbc="F F F"
O        2.59829509      -2.43363413       0.27828166      -0.02306926      -0.68090003      -0.14336517
O        0.52361174       2.37888208       2.60356570       0.23886678      -0.52802544      -0.26922010
O       -0.41132235       0.84814480      -1.61679864      -1.84310000       2.61107161       1.27689152
O       -0.37811839       0.53409320       0.77886072      -0.45217604      -0.34469858      -0.93306181
N        1.87030649      -1.24037573       0.45271903      -0.00795489       2.48207481       0.06209088
C       -1.29492207       2.61801458      -1.54742380       1.09993976      -1.59963586      -0.76270940
C        0.98711750      -0.88889381      -0.69776594       0.45544303      -0.76181594       0.05372833
C        1.24189627       1.12460938       2.42788815      -0.72771182       1.43055568       0.86696807
C        1.10227382      -1.21121439       1.72439897       0.66543173      -1.86691034      -1.04833855
C        0.36277562       0.50354388      -0.47407579       0.15690118       0.74500306      -0.13632769
C        0.30995151       0.04885115       1.93744827       1.27686748       0.60389112      -1.34106303
H        3.57031417      -2.27038082       0.19597268      -1.51389422       0.64803202       0.21866692
H       -0.02595151       2.54058018       1.81280971       0.52958908      -0.50807337       0.56763422
H       -1.26935621       3.06818069      -2.55495711       0.49269601      -1.14139262       0.22202018
H       -0.73398729       3.25928677      -0.89879163       0.60387511      -0.34168920       0.56173400
H       -2.33660813       2.56957795      -1.24807747       0.24444402      -1.04279300       0.28809190
H        0.20485473      -1.63744100      -0.78215956      -0.39719959      -0.07006409      -0.16335110
H        1.56000459      -0.89216086      -1.64116668      -0.15070387       0.09146181       0.61013629
H        1.64953399       0.82219407       3.39813829      -0.29739730       0.29019436       0.00824373
H        2.09972000       1.29154816       1.80261732       0.25763384      -0.11486840      -0.62774639
H        1.83431447      -1.26228603       2.52805162      -0.08477254      -0.28254691       0.07796090
H        0.43273955      -2.09046277       1.77947319       0.24195086       0.19479580       0.00222743
H        1.17484248       1.23493889      -0.42370170       0.08108629      -0.01927195       0.39923325
H       -0.39072918      -0.18393898       2.70938611      -0.84276746       0.20549491       0.20919457
