27
Properties=species:S:1:pos:R:3:forces:R:3 id=37116 bond=C-N smiles="[H:26][C:11]([H:27])([C:10]([H:24])([H:25])[N:6]([H:16])[H:17])[C:8]([H:20])([H:21])[O:4][P:12](=[S:1])([O:2][H:13])[O:3][C:7]([H:18])([H:19])[C:9]([H:22])([H:23])[N:5]([H:14])[H:15]" dataset=PubChem energy=-34662.719141298774 pbc="F F F"
S        0.13436576      -2.37318495       0.04923126       0.12718491       0.26085681       0.21501597
O        2.37566747      -1.01816825      -1.07936063       0.17568271       1.67279302       1.38418581
O        2.13173082      -0.82885447       1.57192477      -1.00631115       1.04115311      -2.01946536
O        0.44917464       0.53944060      -0.00785914       2.42227561      -1.23144687       0.55499452
N        3.15795603       0.90368150       3.37679848       0.57424028       0.43637033       0.01420437
N       -2.64558134       2.48261006      -0.96041016     -87.86614692     128.43089037      -9.54244250
C        1.25194314      -0.49277714       2.68290528      -0.14863910       1.83277379       0.17153028
C        0.19729819       0.91612819      -1.36491361      -0.86251906       0.92774528      -0.26527033
C        1.69392707       0.87395478       3.26952013       0.51837735       0.06625218      -0.98783243
C       -2.18603549       1.80107477      -0.90164724      84.70327440    -124.78479520       8.18260133
C       -0.76317236       2.11985883      -1.36692968       3.60822823      -2.76406374      -1.17694092
P        1.32553288      -0.83719007       0.13900038      -2.44979830      -1.80248597       0.65407055
H        2.89628568      -1.76188568      -0.76983562       0.41353845      -0.46508470      -0.40921794
H        3.55258408       1.86459490       3.36085876      -0.60043386      -1.17348290      -0.04294673
H        3.56588640       0.36501464       2.60652026      -0.20655402       0.58310038       0.45721998
H       -3.62317429       2.33511074      -0.72661547      -1.29905290       2.03776942      -0.08853602
H       -2.22182236       3.22154696      -0.40067391      -1.50019134       2.64574569      -0.00291970
H        1.31321796      -1.28972748       3.37364754       0.26532727      -0.76136372       0.69546919
H        0.20461020      -0.37451485       2.38525852       0.28763539      -0.32947513      -0.21699447
H        1.14300683       1.10376867      -1.82698789       0.52745342       0.41856600      -0.41747477
H       -0.26968036       0.10268518      -1.90791073      -0.14552296      -0.29740299       0.09607715
H        1.24016079       1.03319366       4.25409039      -0.02666933      -0.12748382      -0.26353356
H        1.34592786       1.66939267       2.57023629      -0.09237081      -0.49990064       0.47334103
H       -2.16804967       1.42394950       0.14915016       1.93310108      -3.62965423       2.41538398
H       -2.58510003       1.00878301      -1.54682675       0.88610539      -2.74982632      -0.56350826
H       -0.82317433       2.46662363      -2.41663757      -0.14712133       0.06415214       0.57620498
H       -0.37171719       2.91452547      -0.73189047      -0.09393851       0.19493481       0.10614095
