27
Properties=species:S:1:pos:R:3:forces:R:3 id=37116 bond=C-N smiles="[H:26][C:11]([H:27])([C:10]([H:24])([H:25])[N:6]([H:16])[H:17])[C:8]([H:20])([H:21])[O:4][P:12](=[S:1])([O:2][H:13])[O:3][C:7]([H:18])([H:19])[C:9]([H:22])([H:23])[N:5]([H:14])[H:15]" dataset=PubChem energy=-34687.74369996622 pbc="F F F"
S        0.46971002      -2.87052152       0.09211231       0.09427230       0.32330262       0.20759944
O        2.71101173      -1.51550482      -1.03647958       0.11468665       1.72441388       1.39734523
O        2.46707508      -1.32619104       1.61480582      -1.04403341       1.05632581      -2.10288109
O        0.78451890       0.04210403       0.03502191       2.26451128      -1.11902822       0.48445249
N        3.49330029       0.40634493       3.41967953       0.55240405       0.42604359      -0.00447923
N       -2.98092560       2.97994663      -1.00329121       2.46577981      -2.83094599      -0.87060063
C        1.58728740      -0.99011371       2.72578633      -0.13852702       1.84263578       0.21445679
C        0.53264245       0.41879162      -1.32203256      -1.40117975       0.60980736      -0.06925552
C        2.02927133       0.37661821       3.31240118       0.53074419       0.07216883      -0.98196093
C       -1.85069123       1.30373820      -0.85876619      -0.85245023       1.46580239       0.75278698
C       -0.42782810       1.62252226      -1.32404863      -0.33431009       0.57306526      -0.49725514
P        1.66087714      -1.33452664       0.18188143      -2.27693308      -2.02000424       0.75170887
H        3.23162994      -2.25922225      -0.72695457       0.43247566      -0.47054604      -0.40871657
H        3.88792834       1.36725833       3.40373981      -0.60083625      -1.17308645      -0.03708068
H        3.90123066      -0.13232193       2.64940131      -0.19750047       0.58802446       0.46390306
H       -3.95851855       2.83244731      -0.76949652       0.47973501      -0.40262485       0.45906380
H       -2.55716662       3.71888353      -0.44355496      -0.12139223      -0.69881473       0.24682115
H        1.64856222      -1.78706405       3.41652859       0.26135842      -0.76258810       0.68891557
H        0.53995446      -0.87185142       2.42813957       0.29313806      -0.34104713      -0.20693481
H        1.47835109       0.60643210      -1.78410684       0.39149963       0.58309296      -0.42966450
H        0.06566390      -0.39465139      -1.86502968      -0.10498948      -0.39081346       0.05944418
H        1.57550505       0.53585709       4.29697144      -0.02832791      -0.12762387      -0.26808141
H        1.68127212       1.17205610       2.61311734      -0.09246246      -0.49121135       0.47490028
H       -1.83270541       0.92661293       0.19203121      -0.41756369       0.72847718      -0.79793095
H       -2.24975577       0.51144644      -1.50394570      -0.63258384       0.77089530       0.12391778
H       -0.48783007       1.96928706      -2.37375652       0.14588499       0.04662252       0.58435776
H       -0.03637293       2.41718890      -0.68900942       0.22077826       0.02131082      -0.23339780
