13
Properties=species:S:1:pos:R:3:forces:R:3 id=18688 bond=N-N smiles="[H:9][C:4]1=[C:3]([N:5]([C:7]([C:6]1([H:10])[H:11])([H:12])[H:13])[N:2]=[O:1])[H:8]" dataset=PubChem energy=-9274.313790430668 pbc="F F F"
O       -2.12166262       2.06595645       1.82487680       2.35204863      -3.84652531      -4.89276226
N       -1.84147669       1.36624465       0.84027215       1.42514351       1.90103705       4.11353919
C        0.82783511       0.92916367       1.68606200       1.39604746      -0.28395221      -1.36567369
C        2.00516706       0.52930657       1.08506265      -1.46705918       0.77547503       2.35299260
N       -0.22795934       0.65490157       0.78455719      -3.37528816       2.03578728       1.90464020
C        1.76532643      -0.01433116      -0.26311323      -0.43624512       0.02112360      -0.93556375
C        0.21595490      -0.14274817      -0.35497854       0.49646728       1.23123150      -0.23294049
H        0.71103910       1.44351161       2.67583170      -0.18826829      -0.74391550      -1.33110743
H        2.96735817       0.55959391       1.57435754      -0.04126668       0.10931212      -0.09277990
H        2.20473331      -0.97500770      -0.43866197       0.38814600      -0.55752271       0.03035885
H        2.17989355       0.64850704      -1.03655169      -0.19373736      -0.05613689       0.12530471
H       -0.10688550      -1.16662698      -0.24576858      -0.12553423      -0.29465808      -0.05303663
H       -0.12282903       0.28550417      -1.30710313      -0.23078626      -0.29030619       0.37747358
