13
Properties=species:S:1:pos:R:3:forces:R:3 id=18688 bond=N-N smiles="[H:9][C:4]1=[C:3]([N:5]([C:7]([C:6]1([H:10])[H:11])([H:12])[H:13])[N:2]=[O:1])[H:8]" dataset=PubChem energy=-9261.340573253841 pbc="F F F"
O       -1.70844476       1.88378322       1.81060833      -3.78123636       4.01772194       3.70627369
N       -1.42825883       1.18407142       0.82600368     -96.83129214      41.28034536       3.18209206
C        0.41461725       1.11133690       1.70033047       6.47396503      -0.31553161       2.04613706
C        1.59194920       0.71147980       1.09933112      -2.61291765       0.76971176       2.11935103
N       -0.64117720       0.83707480       0.79882566      94.03393342     -43.09659685      -7.53889064
C        1.35210857       0.16784207      -0.24884476      -0.41283119      -0.33836576      -1.16138667
C       -0.19726296       0.03942506      -0.34071007       3.35856908      -0.70286504      -1.77057284
H        0.29782124       1.62568484       2.69010017       0.08306376      -1.00670274      -1.53427259
H        2.55414031       0.74176714       1.58862601      -0.01140098       0.21793065      -0.15212920
H        1.79151545      -0.79283447      -0.42439350       0.51342106      -0.50369576       0.08270904
H        1.76667569       0.83068027      -1.02228322      -0.22037744      -0.10297392       0.19127059
H       -0.52010336      -0.98445375      -0.23150011      -0.19302057      -0.13932775       0.11348498
H       -0.53604689       0.46767740      -1.29283466      -0.39914507      -0.07815476       0.71564183
