13
Properties=species:S:1:pos:R:3:forces:R:3 id=18688 bond=N-N smiles="[H:9][C:4]1=[C:3]([N:5]([C:7]([C:6]1([H:10])[H:11])([H:12])[H:13])[N:2]=[O:1])[H:8]" dataset=PubChem energy=-9272.956154081901 pbc="F F F"
O       -2.28891746       2.13969323       1.83065213       2.46506202      -4.94997109      -6.66139419
N       -2.00873153       1.43998143       0.84604748       0.35038553       3.72706964       6.18708584
C        0.99508995       0.85542689       1.68028667       0.73155897      -0.32337863      -2.04787085
C        2.17242190       0.45556979       1.07928732      -1.02258412       0.68723724       2.15611859
N       -0.06070450       0.58116479       0.77878186      -2.79576099       1.19225343       2.19159520
C        1.93258127      -0.08806794      -0.26888856      -0.36283966      -0.01600037      -0.97173129
C        0.38320974      -0.21648495      -0.36075387       0.92950278       1.59250888       0.08027928
H        0.87829394       1.36977483       2.67005637      -0.16428357      -0.73578858      -1.30188325
H        3.13461301       0.48585713       1.56858221       0.00006664       0.05326744      -0.09035670
H        2.37198815      -1.04874448      -0.44443730       0.43336240      -0.56823829       0.02958752
H        2.34714839       0.57477026      -1.04232702      -0.14618604      -0.05001521       0.11018073
H        0.06036934      -1.24036376      -0.25154391      -0.17480904      -0.31225910      -0.02817350
H        0.04442581       0.21176739      -1.31287846      -0.24282493      -0.29710764       0.34706137
