13
Properties=species:S:1:pos:R:3:forces:R:3 id=18688 bond=N-N smiles="[H:9][C:4]1=[C:3]([N:5]([C:7]([C:6]1([H:10])[H:11])([H:12])[H:13])[N:2]=[O:1])[H:8]" dataset=PubChem energy=-9273.163903567194 pbc="F F F"
O       -2.25940190       2.12668086       1.82963295       2.48586810      -4.85236001      -6.48317451
N       -1.97921597       1.42696906       0.84502830       0.54978324       3.47862122       5.96503218
C        0.96557439       0.86843926       1.68130585       0.85273336      -0.31709833      -1.90359054
C        2.14290634       0.46858216       1.08030650      -1.10540118       0.71406234       2.22278675
N       -0.09022006       0.59417716       0.77980104      -2.89093531       1.38223787       2.10404247
C        1.90306571      -0.07505557      -0.26786938      -0.37284683       0.00063579      -0.96683760
C        0.35369418      -0.20347258      -0.35973469       0.79386112       1.49676528       0.00920839
H        0.84877838       1.38278720       2.67107555      -0.16449757      -0.73721910      -1.30352099
H        3.10509745       0.49886950       1.56960139      -0.01102649       0.06562811      -0.08933855
H        2.34247259      -1.03573211      -0.44341812       0.41808065      -0.56801087       0.02798336
H        2.31763283       0.58778263      -1.04130784      -0.15934466      -0.05028960       0.11030192
H        0.03085378      -1.22735139      -0.25052473      -0.16071660      -0.31503369      -0.03906860
H        0.01491025       0.22477976      -1.31185928      -0.23486449      -0.29823473       0.34660155
