21
Properties=species:S:1:pos:R:3:forces:R:3 id=40241 bond=C-C smiles="[H:10][C:3]([H:11])([H:12])[C:8]1([C:9]([C:7]1([Cl:1])[Cl:2])([C:5]([H:16])([H:17])[H:18])[C:6]([H:19])([H:20])[H:21])[C:4]([H:13])([H:14])[H:15]" dataset=PubChem energy=-32502.995399936768 pbc="F F F"
Cl       1.01749340       3.20507006       0.82508897      -1.03047016      -1.38050123      -0.41719814
Cl      -1.48311599       2.70437388      -0.69281453       1.07206398      -1.13024753       1.06848648
C       -1.38034066      -0.40661127       0.70614433       0.33187424      -0.17475257       2.90320575
C        1.17870439       0.53935718       2.97418009      -1.36872986      -1.86546607      -0.34923123
C        0.07246883       0.20618980      -1.93816120      -2.84243581       0.73064583      -0.65183242
C        2.11485020       0.49597583      -0.52076095       1.09592837       0.46982346       1.26654583
C       -0.06107216       1.84671729       0.15427919       0.70583269       1.33424025      -0.79107911
C       -0.04968073       0.47239965       0.73329150      -2.86719478      -0.49714608       1.47228794
C        0.61412451       0.66829922      -0.57089174       0.95415426      -0.29827691      -1.15135062
H       -2.12492974      -0.05282004       1.48906892       1.36368680      -0.63051215      -0.18565440
H       -1.17550095      -1.53399820       0.84476166      -0.17069234       1.96366776      -0.15885258
H       -2.05890878      -0.28324498      -0.11036785       0.52292408       0.23463388      -1.38154738
H        0.56441787       0.98853021       3.76852165      -0.34443531       0.06372036      -1.04259504
H        2.14225376       0.98173740       2.97756206       0.62485217       0.75017197      -0.96062635
H        1.31535399      -0.53556490       3.21577321      -0.43875630       0.59528852      -0.66866814
H       -1.04111143       0.33017652      -2.16628295       1.35266726       0.29466832       0.99465687
H        0.50842751       0.65151446      -2.81633908       0.68122450       1.30903078       0.24138774
H        0.18354374      -0.77562590      -2.30206234       0.64232979      -1.96350138       0.95191220
H        2.55403487       1.47567885      -0.28481132       0.15771054      -0.45125343       0.07660199
H        2.37696210      -0.21901895       0.31561157      -0.17529861       0.81673995      -1.07239375
H        2.57908074       0.17557870      -1.44647962      -0.26703286      -0.17443592      -0.14431819
