38
Properties=species:S:1:pos:R:3:forces:R:3 id=14908 bond=C-O smiles="[H:37][C:19]1([c:12]2[c:11]([c:9]([c:7]([c:8]([c:10]2[O:5][C:16]([H:29])([H:30])[H:31])[O:3][C:14]([H:23])([H:24])[H:25])[O:2][C:13]([H:20])([H:21])[H:22])[O:4][C:15]([H:26])([H:27])[H:28])[C:6](=[N:1][C:18]1([H:35])[H:36])[C:17]([H:32])([H:33])[H:34])[H:38]" dataset=PubChem energy=-24514.744126695445 pbc="F F F"
N        2.95247240      -2.00765096       0.00494654      -2.44097334       2.03442039      -1.61676684
O       -1.04039578       2.60519422      -0.03038674       0.11609449      -1.04960480       1.09238119
O       -1.94790225       1.32081879       2.45511146      -1.23130440       0.03815819       0.24733807
O        1.22616454       1.85317389      -2.44913414       0.43097573      -0.45053267       1.78907982
O       -0.71378998      -0.92934333       3.43544180       0.51081256       0.56972135      -0.33153519
C        2.04281027      -1.20695018      -0.58979433       3.21590144      -3.02010847       2.09548099
C       -0.54501901       1.39926541       0.53322573       1.01459847       1.50665028      -2.31123746
C       -0.93117408       0.78544140       1.74078239      -0.00272314       0.64683606      -0.15622271
C        0.45958790       0.73450715      -0.22690790      -0.28613232       0.04981043       0.95234078
C       -0.27788631      -0.32111292       2.26605375       0.53059581      -1.15036027      -1.06607107
C        1.08092525      -0.44240480       0.22617293      -0.55093942       1.33672881      -0.78590971
C        0.72707011      -0.93601262       1.51060862       0.17793367       0.41536999       0.33664272
C       -1.48209040       3.68200505       0.83347268      -0.41212133      -0.65958736       0.36946820
C       -3.17971448       0.58315862       2.25741679      -0.63930868       0.12961028       1.05886391
C        2.33913215       2.74551979      -2.23340562      -1.67805498      -0.85593698       0.89606321
C       -0.12005131      -0.31784206       4.57959588      -0.06982191       0.57984242       0.20610383
C        1.98966022      -1.21699678      -2.08702342       0.32366103      -0.93055507       0.22610537
C        2.94400068      -2.08003627       1.46732165      -1.28976075      -0.92931756      -0.06979825
C        1.48904546      -2.14267837       2.01084025       0.72018501       0.47923224       0.08581452
H       -0.79304568       3.84266031       1.65001185       0.19467206      -0.18478281       0.26826579
H       -1.54838471       4.62145007       0.29934097       0.28796113      -0.24789933      -0.71841899
H       -2.48384694       3.49681819       1.23534199       0.30368975      -0.18404945      -0.01415713
H       -3.95979075       1.01181150       2.94554431       0.94313890      -0.20260165      -0.77870370
H       -3.51388459       0.65356684       1.22441159       0.05483762       0.10392646      -0.03426278
H       -3.06335167      -0.47456502       2.53818924       0.17942210       0.38912472      -0.15918589
H        2.87667616       2.95673481      -3.15465190      -0.11499083      -0.33964906      -0.36169894
H        3.02128538       2.31467381      -1.50743654       0.35846240      -0.07216854      -0.03674565
H        1.96630510       3.68084446      -1.83232274       0.04667453       0.35123767       0.07384603
H       -0.62810252       0.60470611       4.84576971      -0.39375277      -0.03733834       0.07123913
H       -0.09443177      -0.99351513       5.42058737      -0.35954225      -0.35148272       0.00922879
H        0.89327403      -0.01461702       4.39363963       0.66266653      -0.09998626      -0.34832775
H        2.58988638      -0.43672150      -2.50572459       0.14261965       0.65591584      -0.18511692
H        2.39623971      -2.17206561      -2.47729580      -0.32385932       0.53209851       0.46680223
H        0.97241493      -1.08368479      -2.40059988      -0.38279325       0.15159330      -0.35084417
H        3.40542789      -1.19969045       1.88123746       0.48539357       0.32092084       0.24138370
H        3.46266337      -3.00645267       1.81980080      -0.14742486       0.93692866      -0.52080414
H        0.97938348      -3.00007569       1.57410193       0.13343007      -0.40503846       0.41121444
H        1.55571838      -2.18738758       3.12707765      -0.50968503      -0.05839581      -1.04902243
