38
Properties=species:S:1:pos:R:3:forces:R:3 id=14908 bond=C-O smiles="[H:37][C:19]1([c:12]2[c:11]([c:9]([c:7]([c:8]([c:10]2[O:5][C:16]([H:29])([H:30])[H:31])[O:3][C:14]([H:23])([H:24])[H:25])[O:2][C:13]([H:20])([H:21])[H:22])[O:4][C:15]([H:26])([H:27])[H:28])[C:6](=[N:1][C:18]1([H:35])[H:36])[C:17]([H:32])([H:33])[H:34])[H:38]" dataset=PubChem energy=-24516.467333523007 pbc="F F F"
N        3.02216119      -1.90595398      -0.19707403      -2.40848036       2.01164069      -1.62635674
O       -0.97070699       2.70689120      -0.23240731       0.13009626      -1.02771156       1.08123310
O       -1.87821346       1.42251577       2.25309089      -1.27558073       0.03551032       0.29004331
O        1.15647575       1.75147691      -2.24711357      -0.46543086      -1.36198480       2.82524519
O       -0.64410119      -0.82764635       3.23342123       0.50619791       0.56535378      -0.29874378
C        2.11249906      -1.10525320      -0.79181490       3.14932025      -2.90766730       2.12149499
C       -0.47533022       1.50096239       0.33120516       1.01380187       1.28310115      -2.08511715
C       -0.86148529       0.88713838       1.53876182      -0.02573991       0.70681903      -0.23257615
C        0.52927669       0.83620413      -0.42892847       0.34392822       1.11634703      -0.69645970
C       -0.20819752      -0.21941594       2.06403318       0.53328316      -1.13895747      -1.07831421
C        1.15061404      -0.34070782       0.02415236      -0.60319859       1.20210020      -0.53911986
C        0.79675890      -0.83431564       1.30858805       0.24435279       0.38076061       0.23725549
C       -1.41240161       3.78370203       0.63145211      -0.40343986      -0.68030598       0.35947278
C       -3.11002569       0.68485560       2.05539622      -0.61478744       0.14000226       1.06829476
C        2.26944336       2.64382281      -2.03138505      -1.22748729      -0.68730912       1.06186514
C       -0.05036252      -0.21614508       4.37757531      -0.07661412       0.57162470       0.19342310
C        2.05934901      -1.11529980      -2.28904399       0.33708313      -0.98399225       0.19504566
C        3.01368947      -1.97833929       1.26530108      -1.30709238      -0.92513625      -0.07964887
C        1.55873425      -2.04098139       1.80881968       0.69986372       0.49485389       0.12064559
H       -0.72335689       3.94435729       1.44799128       0.19363267      -0.18421602       0.27245303
H       -1.47869592       4.72314705       0.09732040       0.28565580      -0.24142879      -0.71746617
H       -2.41415815       3.59851517       1.03332142       0.30393457      -0.18330800      -0.01126167
H       -3.89010196       1.11350848       2.74352374       0.93954923      -0.20384316      -0.77776237
H       -3.44419580       0.75526382       1.02239102       0.05440175       0.10252784      -0.03751934
H       -2.99366288      -0.37286804       2.33616867       0.17740703       0.38683861      -0.15938302
H        2.80698737       2.85503783      -2.95263133      -0.22279122      -0.36646811      -0.31668366
H        2.95159659       2.21297683      -1.30541597       0.33734482      -0.01123123      -0.02572633
H        1.89661631       3.57914748      -1.63030217       0.03708476       0.32913624       0.09169904
H       -0.55841373       0.70640309       4.64374914      -0.39457708      -0.03525755       0.07178691
H       -0.02474298      -0.89181815       5.21856680      -0.35874535      -0.35197460       0.01188195
H        0.96296282       0.08707996       4.19161906       0.66319820      -0.09960079      -0.34864048
H        2.65957517      -0.33502452      -2.70774516       0.15515930       0.61980259      -0.17875143
H        2.46592850      -2.07036863      -2.67931637      -0.31863043       0.52188902       0.46772412
H        1.04210372      -0.98198781      -2.60262045      -0.36860450       0.14279373      -0.34484471
H        3.47511668      -1.09799347       1.67921689       0.48454338       0.32317852       0.24202374
H        3.53235216      -2.90475569       1.61778023      -0.14471634       0.93556482      -0.52038520
H        1.04907227      -2.89837871       1.37208136       0.13442322      -0.40943740       0.41190450
H        1.62540717      -2.08569060       2.92505708      -0.50722294      -0.07232939      -1.04903706
