32
Properties=species:S:1:pos:R:3:forces:R:3 id=29621 bond=C-O smiles="[H:14][C:2](=[C:4]([H:18])[C:6]([H:19])([H:20])[C:5](=[C:3]([H:16])[H:17])[C:10]([H:30])([H:31])[C@:12]([H:32])([C:11]([C:7]([H:21])([H:22])[H:23])([C:8]([H:24])([H:25])[H:26])[C:9]([H:27])([H:28])[H:29])[O:1][H:13])[H:15]" dataset=PubChem energy=-13786.766379938681 pbc="F F F"
O        0.11866700       1.47471180      -1.25003673      -0.88859497      -1.61291528       1.33639011
C        2.57409259       3.74886884       3.51174622      -2.97909744      -0.35439519       1.16814095
C       -0.11393801       2.75085629       1.52856952       1.10764271      -0.62276782       1.50729576
C        1.61646124       2.89267768       4.00142890       2.15218910       0.54184734      -1.40100500
C        0.70630704       1.64531244       1.76703876      -1.98325188       4.06806046       1.15557671
C        1.48325565       1.64781941       3.17599875      -1.57838466      -1.75088447      -1.96375136
C        1.32307621      -1.34989188      -1.86367816       0.10744958       1.97260531       2.30159287
C       -1.12019841      -1.16704200      -2.10475630      -2.31735073      -0.84576697      -0.01182270
C       -0.21234713      -2.24934993      -0.17106849      -2.43245675       0.02733669       0.17265949
C        0.73694827       0.39351995       0.92490688       0.18745106       0.43805912       0.40850895
C       -0.01967458      -1.02410410      -1.10151571       1.08992740      -2.69585294      -0.38519981
C       -0.17513601       0.28285538      -0.30513424       1.07503442       1.42550346      -0.65859122
H       -0.09037451       2.34402099      -0.84430171       0.20117187      -1.35516286       0.00082127
H        2.90074464       3.87327303       2.47546464       0.14869869      -0.94737787       0.47415131
H        2.71305772       4.58846940       4.12367755       0.62273229       1.29383823       0.60819288
H       -0.20447425       3.73194827       2.13300592       0.77016908      -2.13675472      -0.49091253
H       -0.90394119       2.78248633       0.80709788       0.00535984      -0.38898922      -0.79891597
H        1.09465619       3.00502505       5.00129634       0.94629084      -0.11760495      -1.46975036
H        2.41733738       1.18869998       2.92511731       1.08005965       0.30068267       0.06526724
H        1.03989275       0.81359230       3.71690374      -0.51616116       0.12534523       0.28398961
H        1.21649446      -1.97818647      -2.71053427      -0.33407912      -0.80237079      -0.40853445
H        1.62135025      -0.38517342      -2.21097249       0.74847938       0.56560615      -0.53765911
H        2.09551521      -1.71195708      -1.14872271      -0.47118482       0.10473909      -0.67515595
H       -2.10802368      -1.20552598      -1.53512353       0.99900294       0.23017076      -0.92742548
H       -1.09103445      -2.10414777      -2.71820468       0.27589556       0.62966589       0.82642186
H       -1.14810625      -0.37620257      -2.81475800      -0.09190813       0.86704312      -0.43676065
H        0.53457382      -2.36393008       0.56659444       0.73088841       0.18621442       0.99565003
H       -1.25919739      -2.23562608       0.30474043       1.53759418       0.09862003      -0.33985202
H       -0.19334070      -3.19799815      -0.71848005       0.02659005       0.40374154      -0.33437487
H        0.56054049      -0.34899412       1.67009681      -0.92968544      -1.05041328       0.30186382
H        1.74574669       0.10008039       0.68519592       0.68198907       0.50808018      -0.52792007
H       -1.21366660       0.19761919       0.03962249       0.02722088       0.89506801      -0.24103457
