33
Properties=species:S:1:pos:R:3:forces:R:3 id=1783 bond=N-N smiles="[H:20][c:2]1[c:3]([c:5]([c:11]([c:6]([c:4]1[H:22])[H:24])[N:19]([H:33])[N:18]([H:32])[O:1][c:10]2[c:8]([c:13]([c:16]3[c:12]([c:7]([c:9]([c:14]([c:17]3[c:15]2[H:31])[H:30])[H:27])[H:25])[H:28])[H:29])[H:26])[H:23])[H:21]" dataset=PubChem energy=-21854.95871652403 pbc="F F F"
O       -1.44025731       0.86115475       2.35262099       1.65096766       0.90752231       2.49461334
C        5.13744943       3.91244921       1.46248759      -0.48229211      -1.25950420       1.08819766
C        4.27806633       4.62442383       0.65797292      -1.96922812       0.27088343      -0.18579119
C        4.58623307       2.93604490       2.35869874      -0.23658094       1.07615597      -0.49412469
C        2.88433306       4.39664015       0.72288449       0.84339621      -0.95383581       0.29262047
C        3.19601457       2.72598013       2.43840326       1.65234473       0.10400851       0.27773939
C       -1.59941364      -3.67386774      -2.28739652      -0.00263073       0.10979573       1.34694274
C       -2.97868264      -0.63822948       1.28886851      -0.29422524      -0.60601955      -1.00211272
C       -0.23878599      -3.38746838      -1.97800073      -0.74183961       1.46119741       0.98257292
C       -1.67596257      -0.13150979       1.43470350       2.43425492      -1.66137942      -1.59824887
C        2.32266419       3.41617521       1.60725130      -1.53979348       0.07818752      -1.84491483
C       -2.59167397      -3.14548234      -1.48898325       0.20600074      -0.26796736      -0.64609243
C       -3.25563658      -1.62839393       0.33317861      -0.05910615       1.24503479       1.29544263
C        0.09398156      -2.44501428      -0.98832700       0.62748638      -0.88137082      -1.19825599
C       -0.63781441      -0.75740836       0.69441029      -0.41856717       0.58810904       0.45677631
C       -2.27799642      -2.19880251      -0.48211035       0.79252517       0.18185710       0.27390059
C       -0.91816962      -1.79341356      -0.23744926      -0.64023806       0.02532047      -0.25126924
N       -0.08024487       1.07989212       2.73865178      -0.39000602      -1.85353208      -4.04325208
N        0.94355379       3.16449817       1.61080469       1.21894758       0.61920513       2.90028325
H        6.19760578       4.11893877       1.38994183      -0.04201809      -0.29067968       0.20407497
H        4.63606994       5.36351904      -0.05429654       0.03123207      -0.12674431       0.22923756
H        5.23825566       2.39332005       3.04036344      -0.13281294       0.08648590      -0.27302494
H        2.19707613       4.91335663       0.08553617      -0.06348316       0.29353591      -0.34125621
H        2.80940501       2.01768228       3.13950170      -0.17510448      -0.35489984       0.14915354
H       -1.84305657      -4.40639810      -3.04194960       0.03974044       0.07356842      -0.09559854
H       -3.78293669      -0.26938842       1.89589944      -0.11742920       0.21596524       0.15789463
H        0.48212549      -3.89001564      -2.57493409       0.79109794      -0.09424914      -0.14715977
H       -3.62929690      -3.45387987      -1.65269909       0.36785655       0.29232797       0.14930278
H       -4.26960004      -1.97249322       0.23339900      -0.23583097      -0.00134468       0.01723797
H        1.16014105      -2.17704658      -0.81991002      -0.95588041      -0.28921073      -0.08748700
H        0.41451685      -0.46014659       0.80377277      -0.75416931      -0.01191347       0.15941699
H        0.04836794       1.12192984       3.73984518      -1.37295173       1.25245628       0.59812798
H        0.42684798       3.52755674       0.83499874      -0.03272815      -0.22787911      -0.86546761
