33
Properties=species:S:1:pos:R:3:forces:R:3 id=1783 bond=N-N smiles="[H:20][c:2]1[c:3]([c:5]([c:11]([c:6]([c:4]1[H:22])[H:24])[N:19]([H:33])[N:18]([H:32])[O:1][c:10]2[c:8]([c:13]([c:16]3[c:12]([c:7]([c:9]([c:14]([c:17]3[c:15]2[H:31])[H:30])[H:27])[H:25])[H:28])[H:29])[H:26])[H:23])[H:21]" dataset=PubChem energy=-21810.244790049775 pbc="F F F"
O       -1.06913030       1.61682444       1.94377642      -8.31493644      -5.57330310      -2.53221167
C        4.76632242       3.15677952       1.87133216      -0.66643369      -1.46377323       1.32744590
C        3.90693932       3.86875414       1.06681749      -2.01155443       0.30109514      -0.48709366
C        4.21510606       2.18037521       2.76754331       0.27801323       1.41039252      -0.50848792
C        2.51320605       3.64097046       1.13172906       0.52084747      -1.12795093       1.52806392
C        2.82488756       1.97031044       2.84724783       0.33894353       0.08094996       0.00312705
C       -1.22828663      -2.91819805      -2.69624109       0.03876593       0.08215142       1.30124956
C       -2.60755563       0.11744021       0.88002394      -0.34813188      -1.10657041      -1.28376267
C        0.13234102      -2.63179869      -2.38684530      -0.80484557       1.44227043       0.96394920
C       -1.30483556       0.62415990       1.02585893       1.02208197      -1.39949478      -0.47841667
C        1.95153718       2.66050552       2.01609587       9.02370911       4.40468310      -4.52570553
C       -2.22054696      -2.38981265      -1.89782782       0.24174660      -0.22853899      -0.60540087
C       -2.88450957      -0.87272424      -0.07566596      -0.12458607       1.30944287       1.35433958
C        0.46510857      -1.68934459      -1.39717157       0.58528749      -0.86793580      -1.15308568
C       -0.26668740      -0.00173867       0.28556572      -0.63600415       0.67253492       0.49505863
C       -1.90686941      -1.44313282      -0.89095492       0.84572951       0.15152088       0.23624316
C       -0.54704261      -1.03774387      -0.64629383      -0.49153853      -0.05939971      -0.34610182
N        0.29088214       1.83556181       2.32980721    -107.24082008    -215.89470630     127.00692702
N        0.57242678       2.40882848       2.01964926     114.67078689     214.66566264    -125.03611311
H        5.82647877       3.36326908       1.79878640      -0.04363001      -0.28940945       0.23043319
H        4.26494293       4.60784935       0.35454803       0.08254659      -0.20329248       0.13984387
H        4.86712865       1.63765036       3.44920801      -0.14151852       0.10659652      -0.25195948
H        1.82594912       4.15768694       0.49438074      -0.29656357       0.37717384      -0.34973501
H        2.43827800       1.26201259       3.54834627       0.01263049      -0.62931596       0.15329111
H       -1.47192956      -3.65072841      -3.45079417       0.04300924       0.07089183      -0.09235640
H       -3.41180968       0.48628127       1.48705487      -0.07689637       0.22559983       0.16490353
H        0.85325250      -3.13434595      -2.98377866       0.79217815      -0.09543569      -0.14908512
H       -3.25816989      -2.69821018      -2.06154366       0.36695257       0.29624742       0.15261943
H       -3.89847303      -1.21682353      -0.17544557      -0.24806691      -0.01594906      -0.01549751
H        1.53126806      -1.42137689      -1.22875459      -0.94461458      -0.29194029      -0.09349232
H        0.78564386       0.29552310       0.39492820      -0.52429268      -0.10241143       0.02486284
H        0.41949495       1.87759953       3.33100061      -3.02143586      -3.67629078       7.61398508
H        0.05572097       2.77188705       1.24384331      -2.92880875       7.42842981      -4.78675295
