33
Properties=species:S:1:pos:R:3:forces:R:3 id=1783 bond=N-N smiles="[H:20][c:2]1[c:3]([c:5]([c:11]([c:6]([c:4]1[H:22])[H:24])[N:19]([H:33])[N:18]([H:32])[O:1][c:10]2[c:8]([c:13]([c:16]3[c:12]([c:7]([c:9]([c:14]([c:17]3[c:15]2[H:31])[H:30])[H:27])[H:25])[H:28])[H:29])[H:26])[H:23])[H:21]" dataset=PubChem energy=-21858.726709002964 pbc="F F F"
O       -1.23123175       1.28676182       2.12235221       0.60395829       1.57228220       1.20921623
C        4.92842387       3.48684214       1.69275637      -0.44631587      -1.27676691       1.11218736
C        4.06904077       4.19881676       0.88824170      -1.84166192      -0.03922483      -0.14269441
C        4.37720751       2.51043783       2.58896752      -0.05700645       1.25241017      -0.64912205
C        2.67530750       3.97103308       0.95315327       0.17506237      -1.06797283       0.81950371
C        2.98698901       2.30037306       2.66867204       1.24372392       0.19082299      -0.14124394
C       -1.39038808      -3.24826067      -2.51766530      -0.01330362       0.10337803       1.33751403
C       -2.76965708      -0.21262241       1.05859973      -0.21330470      -0.63652683      -0.93922817
C       -0.02976043      -2.96186131      -2.20826951      -0.75739574       1.46149842       0.98253054
C       -1.46693701       0.29409728       1.20443472       2.53894568      -2.07322067      -1.38651189
C        2.11363863       2.99056814       1.83752008       0.22024985       0.10849799      -0.87814612
C       -2.38264841      -2.71987527      -1.71925203       0.22368250      -0.28088594      -0.66067865
C       -3.04661102      -1.20278686       0.10290983      -0.03510342       1.24184464       1.23882189
C        0.30300712      -2.01940721      -1.21859578       0.61169150      -0.87473925      -1.19112447
C       -0.42878885      -0.33180129       0.46414151      -0.56452023       0.66810749       0.52143292
C       -2.06897086      -1.77319544      -0.71237913       0.79812862       0.19126610       0.30164205
C       -0.70914406      -1.36780649      -0.46771804      -0.63249504      -0.01272712      -0.28813488
N        0.12878069       1.50549919       2.50838300       1.58512128      -0.17923043      -2.75066430
N        0.73452823       2.73889110       1.84107347      -0.77193500      -0.52699681       1.34308324
H        5.98858022       3.69333170       1.62021061      -0.04981189      -0.27472710       0.22734018
H        4.42704438       4.93791197       0.17597224       0.00816853      -0.14693870       0.21423514
H        5.02923010       1.96771298       3.27063222      -0.13801334       0.08748094      -0.26219659
H        1.98805057       4.48774956       0.31580495      -0.07945256       0.36275705      -0.33678313
H        2.60037945       1.59207521       3.36977048      -0.04821649      -0.36401454       0.21802545
H       -1.63403101      -3.98079103      -3.27221838       0.04005036       0.07152635      -0.09418339
H       -3.57391113       0.15621865       1.66563066      -0.11845364       0.21038931       0.16542228
H        0.69115105      -3.46440857      -2.80520287       0.79213647      -0.09538774      -0.14792262
H       -3.42027134      -3.02827280      -1.88296787       0.36624780       0.29125298       0.14859058
H       -4.06057448      -1.54688615       0.00313022      -0.23858407       0.00211630       0.00995563
H        1.36916661      -1.75143951      -1.05017880      -0.95244386      -0.29034125      -0.08669766
H        0.62354241      -0.03453952       0.57350399      -0.72228261      -0.02602634       0.14970079
H        0.25739350       1.54753691       3.50957640      -1.07972439       0.66935321      -0.02336704
H        0.21782242       3.10194967       1.06526752      -0.45093924      -0.31919613      -0.02278491
