33
Properties=species:S:1:pos:R:3:forces:R:3 id=1783 bond=N-N smiles="[H:20][c:2]1[c:3]([c:5]([c:11]([c:6]([c:4]1[H:22])[H:24])[N:19]([H:33])[N:18]([H:32])[O:1][c:10]2[c:8]([c:13]([c:16]3[c:12]([c:7]([c:9]([c:14]([c:17]3[c:15]2[H:31])[H:30])[H:27])[H:25])[H:28])[H:29])[H:26])[H:23])[H:21]" dataset=PubChem energy=-21855.587231187736 pbc="F F F"
O       -1.38053572       0.98275677       2.28682991       1.75433324       1.45716661       2.45843251
C        5.07772784       3.79084719       1.52827867      -0.44330096      -1.23007860       1.05894909
C        4.21834474       4.50282181       0.72376400      -1.81964377       0.07964182      -0.06224857
C        4.52651148       2.81444288       2.42448982      -0.17716967       1.17247094      -0.57156983
C        2.82461147       4.27503813       0.78867557       0.40761137      -1.03726906       0.47453541
C        3.13629298       2.60437811       2.50419434       1.52163256       0.24075109       0.03005671
C       -1.53969205      -3.55226572      -2.35318760      -0.01231379       0.11297520       1.35289791
C       -2.91896105      -0.51662746       1.22307743      -0.25264379      -0.56594502      -0.93259268
C       -0.17906440      -3.26586636      -2.04379181      -0.74495684       1.46378294       0.98703605
C       -1.61624098      -0.00990777       1.36891242       2.49460516      -1.95686821      -1.78472918
C        2.26294260       3.29457319       1.67304238      -0.62701675      -0.27888997      -1.23491850
C       -2.53195238      -3.02388032      -1.55477433       0.20767381      -0.28141698      -0.66209312
C       -3.19591499      -1.50679191       0.26738753      -0.03525618       1.22147538       1.26527976
C        0.15370315      -2.32341226      -1.05411808       0.63020881      -0.87478714      -1.19346575
C       -0.57809282      -0.63580634       0.62861921      -0.46964122       0.63597520       0.51256892
C       -2.21827483      -2.07720049      -0.54790143       0.79271608       0.20095182       0.29717363
C       -0.85844803      -1.67181154      -0.30324034      -0.64715821      -0.00012939      -0.27051821
N       -0.02052328       1.20149414       2.67286070      -0.02543523      -1.38346333      -4.50288023
N        0.88383220       3.04289615       1.67659577       0.28337415       0.29533080       2.79732192
H        6.13788419       3.99733675       1.45573291      -0.04447696      -0.28519254       0.21053087
H        4.57634835       5.24191702       0.01149454       0.01102690      -0.12734586       0.22112431
H        5.17853407       2.27171803       3.10615452      -0.12984887       0.08490419      -0.26409881
H        2.13735454       4.79175461       0.15132725      -0.06232337       0.31897160      -0.34978058
H        2.74968342       1.89608026       3.20529278      -0.14204126      -0.35723795       0.17384482
H       -1.78333498      -4.28479608      -3.10774068       0.03965040       0.07495314      -0.09498867
H       -3.72321510      -0.14778640       1.83010836      -0.12215018       0.21466695       0.15594225
H        0.54184708      -3.76841362      -2.64072517       0.79096199      -0.09323487      -0.14569686
H       -3.56957531      -3.33227785      -1.71849017       0.36888283       0.29260609       0.14925034
H       -4.20987845      -1.85089120       0.16760792      -0.23497240       0.00474488       0.01772836
H        1.21986264      -2.05544456      -0.88570110      -0.95635832      -0.28943362      -0.08875827
H        0.47423844      -0.33854457       0.73798169      -0.74718697      -0.00881345       0.14275098
H        0.10808953       1.24353186       3.67405410      -1.16792511       1.50525682       0.42248221
H        0.36712639       3.40595472       0.90078982      -0.44229749      -0.60493732      -0.57202976
