33
Properties=species:S:1:pos:R:3:forces:R:3 id=1783 bond=N-N smiles="[H:20][c:2]1[c:3]([c:5]([c:11]([c:6]([c:4]1[H:22])[H:24])[N:19]([H:33])[N:18]([H:32])[O:1][c:10]2[c:8]([c:13]([c:16]3[c:12]([c:7]([c:9]([c:14]([c:17]3[c:15]2[H:31])[H:30])[H:27])[H:25])[H:28])[H:29])[H:26])[H:23])[H:21]" dataset=PubChem energy=-21854.714535860592 pbc="F F F"
O       -1.48291559       0.77429616       2.39961461       1.52718929       0.59565428       2.44096489
C        5.18010771       3.99930780       1.41549397      -0.50184837      -1.26620123       1.09922041
C        4.32072461       4.71128242       0.61097930      -2.04490675       0.33567469      -0.29014896
C        4.62889135       3.02290349       2.31170512      -0.28243383       1.01222293      -0.44840271
C        2.92699134       4.48349874       0.67589087       1.05708629      -0.86168042       0.23788731
C        3.23867285       2.81283872       2.39140964       1.74537386       0.00624339       0.39323646
C       -1.64207192      -3.76072633      -2.24040290       0.00152003       0.10702906       1.34202298
C       -3.02134092      -0.72508807       1.33586213      -0.31288748      -0.63230760      -1.03626259
C       -0.28144427      -3.47432697      -1.93100711      -0.74005787       1.46052077       0.98064177
C       -1.71862085      -0.21836838       1.48169712       2.40085412      -1.50556599      -1.48181848
C        2.36532247       3.50303380       1.56025768      -2.05595862       0.37943512      -2.00294147
C       -2.63433225      -3.23234093      -1.44198963       0.20630775      -0.26057240      -0.63699165
C       -3.29829486      -1.71525252       0.38017223      -0.07108641       1.25800722       1.30824180
C        0.05132328      -2.53187287      -0.94133338       0.62597349      -0.88669253      -1.20193004
C       -0.68047269      -0.84426695       0.74140391      -0.39711449       0.55788678       0.42385650
C       -2.32065470      -2.28566110      -0.43511673       0.78989268       0.17033452       0.26111726
C       -0.96082790      -1.88027215      -0.19045564      -0.63536339       0.04273288      -0.23690940
N       -0.12290315       0.99303353       2.78564540      -0.42487609      -1.70047379      -3.75029025
N        0.98621207       3.25135676       1.56381107       1.72723736       0.29204787       2.68777603
H        6.24026406       4.20579736       1.34294821      -0.04135506      -0.28872065       0.20547168
H        4.67872822       5.45037763      -0.10129016       0.04172231      -0.13076803       0.23118929
H        5.28091394       2.48017864       2.99336982      -0.13512684       0.08769367      -0.27778528
H        2.23973441       5.00021522       0.03854255      -0.06706185       0.29272836      -0.32548020
H        2.85206329       2.10454087       3.09250808      -0.19175083      -0.34676087       0.14597137
H       -1.88571485      -4.49325669      -2.99495598       0.03977464       0.07250080      -0.09587262
H       -3.82559497      -0.35624701       1.94289306      -0.11489117       0.21635060       0.15940852
H        0.43946721      -3.97687423      -2.52794047       0.79129107      -0.09496282      -0.14818520
H       -3.67195518      -3.54073846      -1.60570547       0.36703544       0.29205340       0.14924621
H       -4.31225832      -2.05935181       0.28039262      -0.23668205      -0.00451477       0.01632936
H        1.11748277      -2.26390517      -0.77291640      -0.95553756      -0.28902670      -0.08661571
H        0.37185857      -0.54700518       0.85076639      -0.75706309      -0.01331930       0.16753442
H        0.00570966       1.03507125       3.78683880      -1.47173948       1.02832169       0.66656621
H        0.46950626       3.61441533       0.78800512       0.11572817       0.07559663      -0.89659246
