33
Properties=species:S:1:pos:R:3:forces:R:3 id=1783 bond=N-N smiles="[H:20][c:2]1[c:3]([c:5]([c:11]([c:6]([c:4]1[H:22])[H:24])[N:19]([H:33])[N:18]([H:32])[O:1][c:10]2[c:8]([c:13]([c:16]3[c:12]([c:7]([c:9]([c:14]([c:17]3[c:15]2[H:31])[H:30])[H:27])[H:25])[H:28])[H:29])[H:26])[H:23])[H:21]" dataset=PubChem energy=-21857.907197961078 pbc="F F F"
O       -1.26962420       1.20858909       2.16464647       0.88739696       1.70808734       1.50247028
C        4.96681632       3.56501487       1.65046211      -0.44900558      -1.24528990       1.07945683
C        4.10743322       4.27698949       0.84594744      -1.78941897      -0.05035822      -0.11003535
C        4.41559996       2.58861056       2.54667326      -0.09805416       1.22951281      -0.62902128
C        2.71369995       4.04920581       0.91085901       0.13430588      -1.07206628       0.77017400
C        3.02538146       2.37854579       2.62637778       1.32266173       0.22850876      -0.14468621
C       -1.42878053      -3.32643340      -2.47537104      -0.01535693       0.10519008       1.34069693
C       -2.80804953      -0.29079514       1.10089399      -0.21173776      -0.61528062      -0.91952775
C       -0.06815288      -3.04003404      -2.16597525      -0.75461198       1.46244022       0.98418007
C       -1.50532946       0.21592455       1.24672898       2.56450640      -2.08678307      -1.51673866
C        2.15203108       3.06874087       1.79522582       0.14760327      -0.06780246      -0.76471424
C       -2.42104086      -2.79804800      -1.67695777       0.22122795      -0.28307627      -0.66377684
C       -3.08500347      -1.28095959       0.14520409      -0.02951660       1.23153045       1.23840382
C        0.26461467      -2.09757994      -1.17630152       0.61461301      -0.87469345      -1.19159889
C       -0.46718130      -0.40997402       0.50643577      -0.54931843       0.66401427       0.52523859
C       -2.10736331      -1.85136817      -0.67008487       0.79611232       0.19514442       0.30411976
C       -0.74753651      -1.44597922      -0.42542378      -0.63999852      -0.01219114      -0.28458384
N        0.09038824       1.42732646       2.55067726       1.68723145       0.53259977      -3.96307968
N        0.77292068       2.81706383       1.79877921      -1.08501424      -1.44480471       2.32431154
H        6.02697267       3.77150443       1.57791635      -0.04950495      -0.27500538       0.22487625
H        4.46543683       5.01608470       0.13367798       0.00521783      -0.14340132       0.21521054
H        5.06762255       2.04588571       3.22833796      -0.13565300       0.08677540      -0.26198462
H        2.02644302       4.56592229       0.27351069      -0.07411004       0.35940613      -0.33961002
H        2.63877190       1.67024794       3.32747622      -0.07091206      -0.35681857       0.21208541
H       -1.67242346      -4.05896376      -3.22992412       0.03990908       0.07205114      -0.09430483
H       -3.61230358       0.07804592       1.70792492      -0.12081857       0.21149523       0.16257739
H        0.65275860      -3.54258130      -2.76290861       0.79196253      -0.09505663      -0.14761588
H       -3.45866379      -3.10644553      -1.84067361       0.36656945       0.29139783       0.14841232
H       -4.09896693      -1.62505888       0.04542448      -0.23816824       0.00420800       0.01115493
H        1.33077416      -1.82961224      -1.00788454      -0.95317800      -0.28997651      -0.08716736
H        0.58514996      -0.11271225       0.61579825      -0.73281483      -0.01787732       0.14551941
H        0.21900105       1.46936418       3.55187066      -0.97541680       1.06363756       0.01323831
H        0.25621487       3.18012240       1.02297326      -0.60853698      -0.51462929      -0.08645869
