17
Properties=species:S:1:pos:R:3:forces:R:3 id=3941 bond=C-O smiles="[H:13][C:5]1([C:6]([C:7]([C:4]([S:2][C:3]1([H:9])[H:10])([H:11])[H:12])([H:17])[O:1][H:8])([H:15])[H:16])[H:14]" dataset=PubChem energy=-18235.317592734064 pbc="F F F"
O        1.42626029      -1.81389209       1.60727522       1.15988903       3.69912766      -0.82282186
S       -0.19358899       2.44666624       1.55802782       0.08578203       0.35750764      -0.15804965
C       -0.40715780       2.29587710      -0.27251802       0.85080445      -0.32458326       0.93761641
C        0.15361146       0.71405167       2.01981457      -0.89834503      -0.96081532       0.26469769
C        0.82714195       1.57670975      -0.82054536       0.15329459       0.79467926       0.48565161
C        0.91528473       0.15889121      -0.28937433       0.17297375      -0.55938784       0.50778605
C        1.25615916       0.13366986       1.18100621      -0.50668547      -2.05024078      -0.07390930
H        0.59712436      -2.24887010       1.78039750      -0.85535627       0.49832975       0.00873731
H       -0.51321556       3.30272818      -0.68076352      -0.03255667      -0.13807712       0.25043465
H       -1.29678812       1.70969576      -0.46458261      -0.21213878       0.02625711      -0.14542529
H       -0.79458238       0.15679551       1.87343152       0.65819337       0.13196329      -0.06859477
H        0.35271087       0.66218830       3.09983702       0.12374405       0.33166184      -0.46300822
H        1.75851462       2.14103318      -0.54277782      -0.88866277      -0.42101666      -0.38851865
H        0.74090020       1.53099948      -1.89052276       0.16922793       0.02087271      -0.58109884
H        0.00147847      -0.39124858      -0.43385069      -0.61999217       0.01611342      -0.06229045
H        1.62673877      -0.37687349      -0.87529199       0.81008320      -0.40181828      -0.11381693
H        2.22914515       0.61876384       1.35387178      -0.16955457      -1.02302939       0.41979841
