17
Properties=species:S:1:pos:R:3:forces:R:3 id=3941 bond=C-O smiles="[H:13][C:5]1([C:6]([C:7]([C:4]([S:2][C:3]1([H:9])[H:10])([H:11])[H:12])([H:17])[O:1][H:8])([H:15])[H:16])[H:14]" dataset=PubChem energy=-18217.49361925046 pbc="F F F"
O        1.37779061      -1.25894164       1.48581147      11.21816784    -118.44900818      29.40229842
S       -0.14511931       1.89171579       1.67949157      -0.60164199       0.66683825       0.23120188
C       -0.35868812       1.74092665      -0.15105427       0.98928726      -0.44569553       0.91369778
C        0.20208114       0.15910122       2.14127832      -2.52582033       5.06722050       0.87325885
C        0.87561163       1.02175930      -0.69908161      -0.15638021       0.42453826      -0.53323820
C        0.96375441      -0.39605924      -0.16791058      -0.80344466       5.19134549      -3.99541548
C        1.30462884      -0.42128059       1.30246996      -8.27316348     108.37929489     -25.32822585
H        0.54865468      -1.69391965       1.65893375      -0.63848734      -2.64075933       0.11940999
H       -0.46474588       2.74777773      -0.55929977      -0.05686861      -0.12582785       0.28257743
H       -1.24831844       1.15474531      -0.34311886      -0.24239847       0.03111386      -0.15686318
H       -0.74611270      -0.39815494       1.99489527       0.54079337      -0.38872424      -0.36366228
H        0.40118055       0.10723785       3.22130077       0.28570231       0.16382702      -0.33878655
H        1.80698430       1.58608273      -0.42131407      -0.89061557      -0.51159193      -0.33268642
H        0.78936988       0.97604903      -1.76905901       0.13257831       0.38173690      -0.77051216
H        0.04994815      -0.94619903      -0.31238694      -0.84430867      -0.16755229       0.20548043
H        1.67520845      -0.93182394      -0.75382824       1.02437816      -0.51893025       0.08497346
H        2.27761483       0.06381339       1.47533553       0.84100367       2.93831583      -0.29625875
