33
Properties=species:S:1:pos:R:3:forces:R:3 id=18883 bond=C-O smiles="[H:15][C:5]([H:16])([H:17])[C:9]([H:27])([H:28])[O:2][C:11]([H:31])([H:32])[C:12]([H:33])([C:10]([H:29])([H:30])[O:1][O:4][C:13]([C:6]([H:18])([H:19])[H:20])([C:7]([H:21])([H:22])[H:23])[C:8]([H:24])([H:25])[H:26])[O:3][H:14]" dataset=PubChem energy=-17855.321620900235 pbc="F F F"
O       -0.54303006      -0.17970288       0.66164728      -0.81046962       0.35972757      -0.59451541
O        2.40497454       0.44144451       2.53878586      10.33913715       3.37335174      -4.28651893
O       -0.61151032      -1.27812445       3.20163416       0.64917248      -0.21348635      -0.00064101
O       -0.00324229       0.73134294      -0.34082634       1.05560001      -0.30859028       0.91403621
C        4.13825139       2.12192480       2.05774777       0.10744690      -1.03461088      -0.10318486
C       -0.91203241      -0.65955722      -2.16766668       1.23416356      -0.07754509      -0.60259216
C        0.01931646       1.64419734      -2.50732065       1.06718457       0.41614629       0.34423960
C       -2.15405754       1.27978247      -1.31415583      -0.00265066       0.93626825       1.01386643
C        2.89564189       1.78163426       2.89006310       0.33281077       0.06674047      -0.68843595
C        0.37008070      -1.19805444       1.02556299       1.70090549      -0.20450942      -0.20459974
C        1.26564844       0.23651528       2.94364118      -7.79240204      -2.08536363       4.42292179
C        0.66604908      -1.13649058       2.51822685      -1.13060004       1.15020563       0.40259066
C       -0.75334744       0.73115092      -1.53817249      -1.16807151      -0.37233048      -1.13721352
H       -1.25472109      -0.68062103       2.79091142       0.53756453      -0.16789266       0.05946546
H        3.85616907       2.41413800       1.03981822       0.13148821       0.07198813       0.31477162
H        4.73521098       1.19272261       1.96577888      -0.20103834       0.54298575       0.07382804
H        4.78399953       2.88035672       2.52747016      -0.49701521      -0.19307894      -0.18972479
H        0.05320056      -1.20727468      -2.21423126      -0.41436320       0.50623071      -0.12385161
H       -1.54903178      -1.26888215      -1.56152607      -0.61539823      -0.27546038       0.18518438
H       -1.30736546      -0.54937542      -3.20377232       0.18228707      -0.21198524       0.88445072
H       -0.43103234       1.64313757      -3.50879694       0.03457708      -0.17642080       0.42026754
H        1.06665464       1.28110426      -2.58478595      -0.65700672       0.15314026      -0.09916622
H        0.08906736       2.70872509      -2.18421532      -0.25448959      -0.83914892       0.03285142
H       -2.68973402       0.75149472      -0.51665868       0.23768661      -0.05691522      -0.27951729
H       -2.74046592       1.23598462      -2.21669699      -0.15355564      -0.05130603      -0.32273670
H       -2.08079771       2.33580768      -0.99916483      -0.09880387      -0.39623505      -0.15422166
H        3.13674649       1.87137692       3.95370989      -0.15915473      -0.60565192       0.06067747
H        2.11820301       2.55066411       2.71003084       0.01800774      -0.67797210      -0.08702051
H        1.32517101      -1.06066561       0.49973686      -0.38494653      -0.00336615      -0.11103588
H       -0.02753476      -2.19272769       0.80434673      -0.18702324       0.22798757      -0.23599916
H        1.36827232       0.24169752       4.04082702      -1.30634175      -0.37510586       0.59901147
H        0.60946712       1.06586205       2.69968079      -1.02939317      -0.00287547      -0.24860160
H        1.35722675      -1.95402038       2.83341383      -0.76683598       0.52458763      -0.25835850
