33
Properties=species:S:1:pos:R:3:forces:R:3 id=18883 bond=C-O smiles="[H:15][C:5]([H:16])([H:17])[C:9]([H:27])([H:28])[O:2][C:11]([H:31])([H:32])[C:12]([H:33])([C:10]([H:29])([H:30])[O:1][O:4][C:13]([C:6]([H:18])([H:19])[H:20])([C:7]([H:21])([H:22])[H:23])[C:8]([H:24])([H:25])[H:26])[O:3][H:14]" dataset=PubChem energy=-17853.939220382683 pbc="F F F"
O       -0.50305370      -0.17251238       0.64744183      -0.81247159       0.36232973      -0.60844904
O        2.36499818       0.43425401       2.55299131      19.58727201       5.26832403      -7.78274634
O       -0.57153396      -1.27093395       3.18742871       0.60183131      -0.27061896      -0.02181912
O        0.03673407       0.73853344      -0.35503179       1.05545985      -0.31268985       0.91365786
C        4.09827503       2.11473430       2.07195322       0.12521018      -1.02028815      -0.09978784
C       -0.87205605      -0.65236672      -2.18187213       1.23334697      -0.07748018      -0.60298514
C        0.05929282       1.65138784      -2.52152610       1.06454297       0.41547082       0.34315822
C       -2.11408118       1.28697297      -1.32836128      -0.00292433       0.93576775       1.01396530
C        2.85566553       1.77444376       2.90426855       0.77583251       0.23128746      -0.81331605
C        0.41005706      -1.19086394       1.01135754       1.70259293      -0.20309549      -0.18451439
C        1.30562480       0.24370578       2.92943573     -16.20010307      -3.84071691       7.39890560
C        0.70602544      -1.12930008       2.50402140      -1.42873212       1.04013676       0.48536819
C       -0.71337108       0.73834142      -1.55237794      -1.16419800      -0.37038007      -1.13403292
H       -1.21474473      -0.67343053       2.77670597       0.54931548      -0.16536069       0.06773011
H        3.81619271       2.40694750       1.05402367       0.13226302       0.07502052       0.31846359
H        4.69523462       1.18553211       1.97998433      -0.20054158       0.55015102       0.07527639
H        4.74402317       2.87316622       2.54167561      -0.49656528      -0.19556967      -0.19220589
H        0.09317692      -1.20008418      -2.22843671      -0.41431848       0.50574269      -0.12350690
H       -1.50905542      -1.26169165      -1.57573152      -0.61447287      -0.27501028       0.18542346
H       -1.26738910      -0.54218492      -3.21797777       0.18215111      -0.21184054       0.88390362
H       -0.39105598       1.65032807      -3.52300239       0.03543735      -0.17573446       0.41983861
H        1.10663100       1.28829476      -2.59899140      -0.65630746       0.15237796      -0.09990717
H        0.12904372       2.71591559      -2.19842077      -0.25494582      -0.83843632       0.03272937
H       -2.64975766       0.75868522      -0.53086413       0.23894786      -0.05637768      -0.27931101
H       -2.70048956       1.24317512      -2.23090244      -0.15353509      -0.05134862      -0.32343320
H       -2.04082135       2.34299818      -1.01337028      -0.09888829      -0.39645125      -0.15374721
H        3.09677013       1.86418642       3.96791534      -0.20174401      -0.66955228       0.06775048
H        2.07822665       2.54347361       2.72423629      -0.03040974      -0.75163248      -0.10048644
H        1.36514737      -1.05347511       0.48553141      -0.38197887      -0.00505684      -0.12474860
H        0.01244160      -2.18553719       0.79014128      -0.18135601       0.22777915      -0.24154194
H        1.40824868       0.24888802       4.02662157      -1.71445127      -0.46091592       1.11123414
H        0.64944348       1.07305255       2.68547534      -1.53242015       0.06235699      -0.17590169
H        1.39720311      -1.94682988       2.81920838      -0.74733656       0.52146820      -0.25342022
