33
Properties=species:S:1:pos:R:3:forces:R:3 id=18883 bond=C-O smiles="[H:15][C:5]([H:16])([H:17])[C:9]([H:27])([H:28])[O:2][C:11]([H:31])([H:32])[C:12]([H:33])([C:10]([H:29])([H:30])[O:1][O:4][C:13]([C:6]([H:18])([H:19])[H:20])([C:7]([H:21])([H:22])[H:23])[C:8]([H:24])([H:25])[H:26])[O:3][H:14]" dataset=PubChem energy=-17854.044547795143 pbc="F F F"
O       -0.89282316      -0.24261975       0.78594497      -0.79717906       0.33165669      -0.51106252
O        2.75476764       0.50436138       2.41448817      -3.10228970       0.47975519       1.29347551
O       -0.96130342      -1.34104132       3.32593185       0.95790266       0.18079087       0.15579444
O       -0.35303539       0.66842607      -0.21652865       1.06599594      -0.29148743       0.92700283
C        4.48804449       2.18484167       1.93345008       0.09049861      -1.10661111      -0.22156108
C       -1.26182551      -0.72247409      -2.04336899       1.24130245      -0.07954268      -0.59785798
C       -0.33047664       1.58128047      -2.38302296       1.08711474       0.42045395       0.35214289
C       -2.50385064       1.21686560      -1.18985814       0.00209464       0.94029237       1.01549405
C        3.24543499       1.84455113       2.76576541      -1.05375451      -0.18039519      -0.09243842
C        0.02028760      -1.26097131       1.14986068       1.67206332      -0.17664307      -0.30691343
C        0.91585534       0.17359841       3.06793887       2.04265576      -0.07648991       0.57245009
C        0.31625598      -1.19940745       2.64252454      -0.06645421       0.93664878      -0.22902434
C       -1.10314054       0.66823405      -1.41387480      -1.20151473      -0.37990642      -1.17051583
H       -1.60451419      -0.74353790       2.91520911       0.45757704      -0.15342278       0.00301845
H        4.20596217       2.47705487       0.91552053       0.13537117       0.06316419       0.29552088
H        5.08500408       1.25563948       1.84148119      -0.17452449       0.51271517       0.05775611
H        5.13379263       2.94327359       2.40317247      -0.48889818      -0.18266766      -0.15852277
H       -0.29659254      -1.27019155      -2.08993357      -0.41399604       0.50880124      -0.12740749
H       -1.89882488      -1.33179902      -1.43722838      -0.62246870      -0.27835577       0.18283733
H       -1.65715856      -0.61229229      -3.07947463       0.18417086      -0.21267230       0.88908180
H       -0.78082544       1.58022070      -3.38449925       0.02886239      -0.18160240       0.42406409
H        0.71686154       1.21818739      -2.46048826      -0.66071008       0.15817300      -0.09499965
H       -0.26072574       2.64580822      -2.05991763      -0.25187399      -0.84414900       0.03318787
H       -3.03952712       0.68857785      -0.39236099       0.22942534      -0.05954180      -0.28030802
H       -3.09025902       1.17306775      -2.09239930      -0.15209100      -0.05193176      -0.31877493
H       -2.43059081       2.27289081      -0.87486714      -0.09877900      -0.39639017      -0.15684553
H        3.48653959       1.93429379       3.82941220      -0.00353610      -0.40353965       0.02215214
H        2.46799611       2.61358098       2.58573315       0.20720107      -0.44837843      -0.05950968
H        0.97537791      -1.12358248       0.62403455      -0.37939140       0.00290116      -0.05858208
H       -0.37732786      -2.25564456       0.92864442      -0.20059468       0.22749860      -0.20767403
H        1.01847922       0.17878065       4.16512471       0.57174660      -0.02647177      -0.61212305
H        0.25967402       1.00294518       2.82397848       0.54183406       0.20810397      -0.75595596
H        1.00743365      -2.01693725       2.95771152      -0.84616785       0.55579494      -0.25956602
