33
Properties=species:S:1:pos:R:3:forces:R:3 id=18883 bond=C-O smiles="[H:15][C:5]([H:16])([H:17])[C:9]([H:27])([H:28])[O:2][C:11]([H:31])([H:32])[C:12]([H:33])([C:10]([H:29])([H:30])[O:1][O:4][C:13]([C:6]([H:18])([H:19])[H:20])([C:7]([H:21])([H:22])[H:23])[C:8]([H:24])([H:25])[H:26])[O:3][H:14]" dataset=PubChem energy=-17853.458782848415 pbc="F F F"
O       -0.95278769      -0.25340550       0.80725314      -0.79539147       0.32714019      -0.50169542
O        2.81473217       0.51514713       2.39318000      -2.81557140       0.64137914       1.27706534
O       -1.02126795      -1.35182707       3.34724002       0.98931956       0.22772504       0.17613774
O       -0.41299992       0.65764032      -0.19522048       1.06824698      -0.28984644       0.92962239
C        4.54800902       2.19562742       1.91214191       0.10933676      -1.10423133      -0.24494185
C       -1.32179004      -0.73325984      -2.02206082       1.24256904      -0.07997965      -0.59707394
C       -0.39044117       1.57049472      -2.36171479       1.08995723       0.42123703       0.35319648
C       -2.56381517       1.20607985      -1.16854997       0.00304052       0.94080630       1.01628806
C        3.30539952       1.85533688       2.74445724      -1.10760677      -0.25582811      -0.07608094
C       -0.03967693      -1.27175706       1.17116885       1.66661866      -0.17027681      -0.31586549
C        0.85589081       0.16281266       3.08924704       1.49375804      -0.24322283       0.70722591
C        0.25629145      -1.21019320       2.66383271      -0.00134444       0.87691831      -0.29502467
C       -1.16310507       0.65744830      -1.39256663      -1.20678050      -0.38037040      -1.17674615
H       -1.66447872      -0.75432365       2.93651728       0.44720695      -0.14840181      -0.00373796
H        4.26592670       2.48784062       0.89421236       0.13561637       0.06239014       0.29436485
H        5.14496861       1.26642523       1.82017302      -0.17136364       0.51314273       0.05597752
H        5.19375716       2.95405934       2.38186430      -0.48681202      -0.18027702      -0.15429567
H       -0.35655707      -1.28097730      -2.06862540      -0.41393110       0.50908732      -0.12799926
H       -1.95878941      -1.34258477      -1.41592021      -0.62343631      -0.27871654       0.18250056
H       -1.71712309      -0.62307804      -3.05816646       0.18451461      -0.21283903       0.88985828
H       -0.84078997       1.56943495      -3.36319108       0.02818607      -0.18218668       0.42472029
H        0.65689701       1.20740164      -2.43918009      -0.66115922       0.15889099      -0.09462396
H       -0.32069027       2.63502247      -2.03860946      -0.25155198      -0.84478323       0.03315488
H       -3.09949165       0.67779210      -0.37105282       0.22837904      -0.05983938      -0.28036627
H       -3.15022355       1.16228200      -2.07109113      -0.15169113      -0.05206058      -0.31821813
H       -2.49055534       2.26210506      -0.85355897      -0.09885171      -0.39651211      -0.15715716
H        3.54650412       1.94507954       3.80810403       0.00562090      -0.39514881       0.02075022
H        2.52796064       2.62436673       2.56442498       0.21693707      -0.44096863      -0.06462915
H        0.91541338      -1.13436823       0.64534272      -0.37759590       0.00209494      -0.05607827
H       -0.43729239      -2.26643031       0.94995259      -0.19998579       0.22737428      -0.20512249
H        0.95851469       0.16799490       4.18643288       0.69967685      -0.00347148      -0.62956214
H        0.19970949       0.99215943       2.84528665       0.60620545       0.24897059      -0.80036189
H        0.94746912      -2.02772300       2.97901969      -0.85267899       0.55908722      -0.25736696
