33
Properties=species:S:1:pos:R:3:forces:R:3 id=18883 bond=C-O smiles="[H:15][C:5]([H:16])([H:17])[C:9]([H:27])([H:28])[O:2][C:11]([H:31])([H:32])[C:12]([H:33])([C:10]([H:29])([H:30])[O:1][O:4][C:13]([C:6]([H:18])([H:19])[H:20])([C:7]([H:21])([H:22])[H:23])[C:8]([H:24])([H:25])[H:26])[O:3][H:14]" dataset=PubChem energy=-17818.982560560136 pbc="F F F"
O       -0.32316011      -0.14015513       0.58351731      -0.82593688       0.36235189      -0.69728600
O        2.18510459       0.40189676       2.61691583     208.34446014      40.63075012     -76.26807004
O       -0.39164037      -1.23857670       3.12350419       0.42015411      -0.55039450      -0.15284890
O        0.21662766       0.77089069      -0.41895631       1.06262807      -0.34083052       0.92134752
C        3.91838144       2.08237705       2.13587774       0.19311105      -0.90913400      -0.13781610
C       -0.69216246      -0.62000947      -2.24579665       1.22971021      -0.07621737      -0.60240925
C        0.23918641       1.68374509      -2.58545062       1.05311205       0.41341705       0.33993199
C       -1.93418759       1.31933022      -1.39228580      -0.00324780       0.93469893       1.01635857
C        2.67577194       1.74208651       2.96819307       4.93584065       3.37485146      -1.13696599
C        0.58995065      -1.15850669       0.94743302       1.70378207      -0.12979727      -0.04341416
C        1.48551839       0.27606303       2.86551121    -199.63840250     -39.62725331      71.25974935
C        0.88591903      -1.09694283       2.44009688      -4.03217670      -1.13702745       0.62206062
C       -0.53347749       0.77069867      -1.61630246      -1.15316660      -0.35946725      -1.13026438
H       -1.03485114      -0.64107328       2.71278145       0.60611713      -0.13006472       0.10450399
H        3.63629912       2.37459025       1.11794819       0.15431261       0.10981451       0.31492731
H        4.51534103       1.15317486       2.04390885      -0.16602480       0.57666197       0.08427294
H        4.56412958       2.84080897       2.60560013      -0.47745156      -0.21616335      -0.19883694
H        0.27307051      -1.16772693      -2.29236123      -0.41307260       0.50239348      -0.12332009
H       -1.32916183      -1.22933440      -1.63965604      -0.61086084      -0.27260403       0.18634304
H       -1.08749551      -0.50982767      -3.28190229       0.18206829      -0.21123398       0.88228875
H       -0.21116239       1.68268532      -3.58692691       0.03951072      -0.17315814       0.41868781
H        1.28652459       1.32065201      -2.66291592      -0.65193712       0.14859634      -0.10492482
H        0.30893731       2.74827284      -2.26234529      -0.25774158      -0.83547204       0.03220865
H       -2.46986407       0.79104247      -0.59478865       0.24541415      -0.05219751      -0.27785080
H       -2.52059597       1.27553237      -2.29482696      -0.15190712      -0.05252731      -0.32722013
H       -1.86092776       2.37535543      -1.07729480      -0.09941087      -0.39955440      -0.15056583
H        2.91687654       1.83182917       4.03183986      -0.43685586      -1.23550410       0.02640759
H        1.89833306       2.51111636       2.78816081      -0.39189502      -1.37842531      -0.24964677
H        1.54504096      -1.02111786       0.42160689      -0.33776498      -0.01626933      -0.23354403
H        0.19233519      -2.15317994       0.72621676      -0.13307854       0.21952333      -0.27490525
H        1.58814227       0.28124527       3.96269705      -3.84929971      -1.12504608       6.20817740
H        0.82933707       1.10540980       2.62155082      -5.95035901       1.42579261      -0.11698856
H        1.57709670      -1.91447263       2.75528386      -0.58497546       0.53163653      -0.19032951
