28
Properties=species:S:1:pos:R:3:forces:R:3 id=32072 bond=N-O smiles="[H:14][C:6]([H:15])([H:16])[C:3]1=[N+:5]([C:12]([N:4]([C:11]1([C:7]([H:17])([H:18])[H:19])[C:8]([H:20])([H:21])[H:22])[O:2][H:13])([C:9]([H:23])([H:24])[H:25])[C:10]([H:26])([H:27])[H:28])[O-:1]" dataset=PubChem energy=-15632.67130298184 pbc="F F F"
O        3.22772490       2.20057263       1.12648073      -1.55540677       0.07154893      -1.49896400
O       -2.39542848       0.53944496      -0.57464589       0.19626789       0.44339707       0.95653591
C        2.08658128       0.31015010       1.57037097      -2.79722127       1.75961099      -2.94395869
N        0.19027078       0.59441783       0.03414416       1.53624316      -1.87335371      -0.61599730
N        2.20291566       1.41556051       0.84315951       3.40373417      -0.54674450       2.90744013
C        2.92982232      -0.12953183       2.70754421       1.30409106      -0.17133524      -3.08799967
C        0.99836955      -1.68240914       0.53595072      -1.91099685      -0.61960875       0.29734544
C       -0.12843001      -0.28356090       2.36478257       0.31950174       2.03954309       1.53592824
C        0.52472310       3.01959124      -0.18855590      -0.96809356       0.61790879       1.96996661
C        1.74522840       1.33489319      -1.59936202       0.80616985       0.29368025      -1.48018269
C        0.75569102      -0.26294128       1.11820155       0.10711583       0.13866334      -0.04396879
C        1.16667113       1.61058881      -0.25199914      -2.10087895       0.50043314       2.15401068
H       -2.57711441       0.16734232      -1.44503875       0.49711190      -0.04473315      -0.14412021
H        3.28931319       0.76884248       3.14800012       0.72883629       0.35016296       0.66983971
H        2.48421895      -0.82416401       3.33833849      -1.34139741      -0.68763648       1.28900087
H        3.73005115      -0.77575526       2.24230325      -0.11777808       1.14382200       0.50929979
H        1.60639553      -2.20657096       1.29046726       0.12210849       0.11917430      -0.66561127
H        1.40462326      -1.61489615      -0.46455276       0.57317249      -0.16786822       0.14805767
H        0.04810726      -2.28562746       0.43063866       0.84135335       0.91553946       0.19461878
H       -0.99595822       0.39069080       2.22249126       0.40655800      -0.71220288       0.19042886
H        0.46252995       0.06846365       3.31146705      -1.19710075      -0.53231565      -1.86130541
H       -0.39799131      -1.28171918       2.52697241      -0.90241943      -1.24790487       0.42539073
H       -0.06364930       3.24742832       0.77649515       0.91374012      -0.91911507      -1.36794288
H        1.35601847       3.69474282      -0.12522179       0.45318921       0.47277748      -0.33672151
H       -0.16676951       3.27268305      -1.00274050       0.55473201      -0.56024654       0.06904512
H        2.64092957       2.01661219      -1.71101820      -0.86160267      -0.94684622       0.05912164
H        1.01588232       1.54336491      -2.43280160       0.71470624      -0.26200325       1.12555212
H        2.02027940       0.27370768      -1.59767592       0.27591129       0.42357898      -0.45550692
