28
Properties=species:S:1:pos:R:3:forces:R:3 id=32072 bond=N-O smiles="[H:14][C:6]([H:15])([H:16])[C:3]1=[N+:5]([C:12]([N:4]([C:11]1([C:7]([H:17])([H:18])[H:19])[C:8]([H:20])([H:21])[H:22])[O:2][H:13])([C:9]([H:23])([H:24])[H:25])[C:10]([H:26])([H:27])[H:28])[O-:1]" dataset=PubChem energy=-15633.500407683725 pbc="F F F"
O        2.95501443       2.19477471       1.06227240      -1.62467606       0.08065236      -1.52989539
O       -2.12271801       0.54524288      -0.51043756       1.18012259       1.23226715       2.46141277
C        1.81387081       0.30435218       1.50616264      -2.86681128       2.12096958      -3.15535747
N       -0.08243969       0.58861991      -0.03006417       1.25428373      -3.01447348      -1.53499731
N        1.93020519       1.40976259       0.77895118       3.08829242      -0.84654503       3.04059957
C        2.65711185      -0.13532975       2.64333588       1.27946327      -0.23291549      -3.05257736
C        0.72565908      -1.68820706       0.47174239      -1.69482510      -0.46441344       0.69712096
C       -0.40114048      -0.28935882       2.30057424       0.61330544       1.92360034       1.58894889
C        0.25201263       3.01379332      -0.25276423      -0.55576146       0.59806031       1.96533296
C        1.47251793       1.32909527      -1.66357035       1.11035679       0.58706375      -1.15758978
C        0.48298055      -0.26873920       1.05399322      -1.29532570      -1.01743103       0.13904967
C        0.89396066       1.60479089      -0.31620747      -2.85894262       1.82191630       0.86815413
H       -2.30440394       0.17314024      -1.38083042       1.32298634      -0.20761593      -0.31969265
H        3.01660272       0.76304456       3.08379179       0.71042737       0.34968406       0.66393068
H        2.21150848      -0.82996193       3.27413016      -1.33984961      -0.68585248       1.28344558
H        3.45734068      -0.78155318       2.17809492      -0.12933899       1.14489140       0.50299956
H        1.33368506      -2.21236888       1.22625893       0.13468228      -0.04546162      -0.67849611
H        1.13191279      -1.62069407      -0.52876109       0.55764241      -0.09917315       0.15829986
H       -0.22460321      -2.29142538       0.36643033       0.82437745       0.88016067       0.21498192
H       -1.26866869       0.38489288       2.15828293       0.47041872      -0.69907799       0.18989896
H        0.18981948       0.06266573       3.24725872      -1.24724302      -0.54982138      -1.77994041
H       -0.67070178      -1.28751710       2.46276408      -0.90197708      -1.26132309       0.49316945
H       -0.33635977       3.24163040       0.71228682       0.91524270      -0.92852655      -1.34575922
H        1.08330800       3.68894490      -0.18943012       0.36660573       0.59788318      -0.38386539
H       -0.43947998       3.26688513      -1.06694883       0.57844685      -0.51057796       0.05016239
H        2.36821910       2.01081427      -1.77522653      -0.81546506      -0.95178829      -0.10076956
H        0.74317185       1.53756699      -2.49700993       0.69848921      -0.24588381       1.12347591
H        1.74756893       0.26790976      -1.66188425       0.22326536       0.42303459      -0.40399193
