30
Properties=species:S:1:pos:R:3:forces:R:3 id=7100 bond=C-S smiles="[H:19][c:7]1[c:5]([c:8]([c:6]([c:9]([c:10]1[N:11]([H:20])[C:14]([H:25])([H:26])[C:4]2=[N:2][C:15]([C:16]([N:12]2[H:21])([H:29])[H:30])([H:27])[H:28])[S:3][C:13]([H:22])([H:23])[H:24])[H:18])[F:1])[H:17]" dataset=PubChem energy=-29667.51358305631 pbc="F F F"
F       -0.53004539       2.05594992       5.29806574      -0.40967352      -0.16742499       0.60814736
N        3.91431558      -0.98242402      -1.56571595      -3.15281393       0.18469780       1.09742089
S       -0.87756002       2.37315357       0.23783672      -2.90239812       1.68150957       0.82218357
C        2.65180301      -0.96212590      -1.12418549       1.59507818       0.28133251      -2.21693991
C        0.55827353       0.37813100       4.03988416      -0.75382460       1.06923807      -1.03075690
C       -0.61730814       2.24754381       2.94710191       0.52504321      -2.45610235       1.49623989
C        1.05332626      -0.10850278       2.81818207      -0.11107721       1.63074574      -0.34970216
C       -0.31160223       1.47036552       4.11328657       1.34928650       1.04004409      -2.34980437
C       -0.29484379       1.70644176       1.72727509       1.19762963      -1.70222909       0.15710990
C        0.57489491       0.54521835       1.65262301      -0.62392478      -0.39743446      -0.88795805
N        0.87710701       0.02034557       0.36483914      -0.29870590       0.05414153       0.58813718
N        1.72846711      -1.26069963      -2.12352101      -0.50871994       0.21183921       0.22671123
C       -3.15308459       3.38979380       1.16780266      -0.25879294      -1.13482430      -2.69064659
C        2.14710176      -0.65332091       0.25368952       0.24272327      -1.15165062       1.16097750
C        3.77040922      -1.54170906      -2.92796818       2.05329192      -0.24749153      -1.88454774
C        2.34222805      -1.19108939      -3.44685523       1.59163631       0.04884137       1.48299048
H        0.92320198       0.05191719       4.95904501       0.57619154      -0.79563327       1.28293926
H       -1.10532105       3.17728888       2.97904689      -0.64648261       0.83323849       0.34492885
H        1.94766391      -0.76026440       2.78603489      -1.17662118       0.18695999       0.09750950
H        0.53870917       0.49296455      -0.45228986       0.02790337       0.33825751       0.16353996
H        0.73141879      -1.20993698      -2.03454272       0.01345164       0.18267578       0.40808579
H       -2.99268563       4.40452330       1.37568864       1.10603214       1.23473437       0.02041488
H       -3.66027386       2.95374267       2.00314745       0.66342735      -1.12952528       0.50784605
H       -3.81009944       3.29260747       0.26099756       1.17700297      -0.14521040       0.73350178
H        2.06089604      -1.61863029       0.85676401       0.33282412       0.93678619      -0.93871582
H        2.84219658      -0.02062011       0.78300144       0.91141811      -0.17994563      -0.06331674
H        3.83900130      -2.63397610      -2.76719300      -0.10045475       0.26865342      -0.38502330
H        4.66495645      -1.28117204      -3.68268387      -2.08110388      -0.22974766       1.88966357
H        1.91700089      -1.94400156      -4.08448354       0.00812484      -0.09845895      -0.43554589
H        2.34514725      -0.17971713      -3.89074127      -0.34592810      -0.34373844       0.14610753
