16
Properties=species:S:1:pos:R:3:forces:R:3 id=33410 bond=C-S smiles="[H:12][C:5]([H:13])([H:14])[C:6]([H:15])([H:16])[S:2][C:4]([H:10])([H:11])[S:1][C:3]([H:7])([H:8])[H:9]" dataset="DES370K Monomers" energy=-25960.93782692316 pbc="F F F"
S        1.65214536      -0.84009077      -0.21048381       0.38244387       0.61689800       0.79948290
S       -0.94616654      -0.25797547       1.01233310      -7.03680277     121.57298361     -60.45524884
C        3.33128140      -0.09828217      -0.17491918      -0.48624596       1.03454282       0.03781419
C        0.80996708       0.23403697       1.06543971       0.11890947       0.49951337      -1.24164169
C       -2.26342127      -1.83854591       1.44911461      -1.15782828      -2.09823160       0.13717527
C       -0.88336543      -1.18782698       1.47864716       6.65072852    -115.15319076      57.69946774
H        4.04832170      -0.89380838      -0.30109011       0.26066928      -0.06250247       0.17903053
H        3.49505565       0.49063645       0.76171268      -0.09167346      -0.83019031      -0.70809008
H        3.42175696       0.61154102      -1.01706748      -0.00990959      -0.39183106       0.41379296
H        0.94544731       1.25719009       0.78025086       0.02635354       0.50931622      -0.26962925
H        1.22403298       0.10323061       2.07318611      -0.13034499      -0.36138800      -0.09468039
H       -2.21929739      -2.75664650       2.01289683      -0.10552718      -0.33582413       0.04185749
H       -2.54351447      -2.03859816       0.40027332       0.31759841       0.06524114       0.49160139
H       -3.05234120      -1.21766733       1.87089210       0.37762165       0.34076670       0.08378454
H       -0.20604218      -1.85329758       0.94769674       0.52500698      -2.81655139       0.88376125
H       -0.53542230      -1.06825243       2.50929146       0.36222613      -2.58893379       2.00861661
