40
Properties=species:S:1:pos:R:3:forces:R:3 id=220 bond=C-C smiles="[H:40][C@@:17]12[C@@:16]([C@@:18]3([C@:15]4([C:11]3([H:35])[H:36])[C@@:12]([O:2][C:7]([C@:13]45[C@:14]1([O:3]5)[H:38])([H:26])[H:27])([H:37])[O:1][H:19])[C:10]([H:32])([H:33])[H:34])([C:8]([C:6]([C:9]2([H:30])[H:31])([C:4]([H:20])([H:21])[H:22])[C:5]([H:23])([H:24])[H:25])([H:28])[H:29])[H:39]" dataset=PubChem energy=-22060.445328927468 pbc="F F F"
O        2.94039650       3.94701678      -2.27934207       0.79024532      -0.45593351      -0.84138573
O        2.03723885       2.01574869      -3.00386919      -0.65987722      -1.60975932      -0.09782311
O        3.54308434      -0.12181680      -0.39226879       2.49282178       0.78166619      -0.98974389
C       -2.84014884      -2.26434305       2.03889745      -0.42162635       2.59998945       0.25089085
C        0.02048595      -0.46900384       3.70926509      -4.50991418       0.42619212       0.30551520
C       -0.31670313      -0.66386370       2.22426377       1.18196771       0.49125609      -0.24048754
C        2.98694570       0.91119320      -2.59377112      -1.43208507       0.78727352       0.86494656
C       -0.33532409       0.66220878       1.39184896       1.20014487      -2.88844038      -0.23873699
C        0.91625859      -1.42276280       1.60823701      -0.12703677       1.47523634       1.65517219
C        0.27396806       3.52176673       0.59981190       1.19474305      -1.49125085       0.67180136
C        2.73957844       2.87832363       0.57283311       2.08780601       1.76625038      -0.83141509
C        1.87216552       3.03345878      -1.95871200       2.78907449      -1.41864286      -0.62468380
C        2.84012623       0.84934983      -1.10611059      -3.72461278       0.38656010       1.25434876
C        2.16404136      -0.29270165      -0.31096812       0.85985766       0.42054296      -0.04796179
C        2.17848356       2.21467157      -0.68436147       1.59689578       0.68469588       0.98834386
C        1.13115964       1.07672563       1.52173237       0.02964494       1.52415107      -1.26004034
C        1.86547573      -0.21074705       1.16877912      -0.83331069      -0.22330913      -0.12186569
C        1.42457266       2.37513526       0.62654279      -3.74338749      -0.78606085       0.17676726
H        3.54777212       3.49746211      -2.96275009      -1.77657221       0.98940223       1.75857094
H       -3.00119534      -2.62096312       1.06129336       0.63317013      -0.40072297      -1.34635423
H       -2.74038783      -3.06031278       2.73279947       0.32249845      -0.26540877       0.82106009
H       -3.70171634      -1.54514757       2.20077413       1.46827140      -0.64371687       0.44792883
H        0.98656151      -0.13094918       3.91333065       1.72934324       0.39549308      -0.14068618
H       -0.10888736      -1.45759790       4.17563663      -0.07564591       0.61585238       0.24076088
H       -0.69137220       0.35181553       4.17038236       1.21293380      -1.88645698      -0.63597013
H        2.91008277      -0.12847452      -2.96055283      -1.14814246       0.82024314      -0.69917820
H        3.96062274       1.20722617      -2.89622869       1.03441338       0.48747057       0.00344479
H       -0.56817786       0.39135261       0.33212243       0.12450734       0.61163852       0.81830028
H       -0.83277945       1.48093284       1.74343560      -2.37661741       1.48295420       0.88634950
H        0.61012890      -2.02917998       0.78259445       0.20875045      -0.49646054      -0.36650321
H        1.44193431      -1.96764223       2.43472038      -0.69005692      -0.03309942      -1.10622464
H       -0.04462198       3.74343450       1.63887892       0.27240256       0.13835149      -0.76573548
H        0.50870021       4.40390093       0.01377569       1.03957973       0.34784970       0.65000487
H       -0.56430117       3.23879249       0.01741103      -1.13808986      -1.10179813      -0.09568148
H        2.94211419       3.94512040       0.58873275      -0.28082047      -0.06950910      -0.18892917
H        3.53248282       2.35585756       1.03005238       0.70522172      -0.77397606       0.48441732
H        0.92767358       3.65928895      -1.97700967       0.93810750      -1.45298540      -0.29690094
H        1.69945784      -1.08510833      -0.84285464       0.07079824      -0.82553884      -0.58927896
H        1.45295905       1.36186374       2.53352235      -0.73204770       0.02951473      -0.21998158
H        2.81487341      -0.20811849       1.72610651      -0.31229610      -0.44214410      -0.53742842
