40
Properties=species:S:1:pos:R:3:forces:R:3 id=220 bond=C-C smiles="[H:40][C@@:17]12[C@@:16]([C@@:18]3([C@:15]4([C:11]3([H:35])[H:36])[C@@:12]([O:2][C:7]([C@:13]45[C@:14]1([O:3]5)[H:38])([H:26])[H:27])([H:37])[O:1][H:19])[C:10]([H:32])([H:33])[H:34])([C:8]([C:6]([C:9]2([H:30])[H:31])([C:4]([H:20])([H:21])[H:22])[C:5]([H:23])([H:24])[H:25])([H:28])[H:29])[H:39]" dataset=PubChem energy=-22061.183678721096 pbc="F F F"
O        2.82392978       3.87314850      -2.28789744       0.79303545      -0.45181061      -0.84593387
O        1.92077213       1.94188041      -3.01242456      -0.66052513      -1.61004549      -0.10228650
O        3.42661762      -0.19568508      -0.40082416       2.50070529       0.78051236      -0.99890497
C       -2.72368212      -2.19047477       2.04745282       0.17676127       2.98562261       0.30409410
C       -0.09598077      -0.54287212       3.70070972      -4.39567150       0.46253076       0.31745528
C       -0.43316985      -0.73773198       2.21570840       0.43667254       0.02382803      -0.33028234
C        2.87047898       0.83732492      -2.60232649      -1.43089505       0.78760682       0.86774355
C       -0.45179081       0.58834050       1.38329359       1.31800763      -2.88472276      -0.20322751
C        0.79979187      -1.49663108       1.59968164      -0.08048583       1.55538972       1.65724071
C        0.15750134       3.44789845       0.59125653       1.19783119      -1.49099162       0.66988266
C        2.62311172       2.80445535       0.56427774       2.08491271       1.77311391      -0.83471547
C        1.75569880       2.95959050      -1.96726737       2.78956847      -1.42239395      -0.61696729
C        2.72365951       0.77548155      -1.11466596      -3.72620694       0.38467582       1.25405789
C        2.04757464      -0.36656993      -0.31952349       0.86149838       0.42945560      -0.03515245
C        2.06201684       2.14080329      -0.69291684       1.59653589       0.68646119       0.98411317
C        1.01469292       1.00285735       1.51317700       0.00854317       1.53867947      -1.29298656
C        1.74900901      -0.28461533       1.16022375      -0.83265009      -0.23562346      -0.11425912
C        1.30810594       2.30126698       0.61798742      -3.72855203      -0.79337224       0.18978875
H        3.43130540       3.42359383      -2.97130546      -1.77699779       0.98887335       1.75933489
H       -2.88472862      -2.54709484       1.06984873       0.60776329      -0.41028963      -1.33275805
H       -2.62392111      -2.98644450       2.74135484       0.26626065      -0.27948314       0.80548971
H       -3.58524962      -1.47127929       2.20932950       1.43729426      -0.68723497       0.44496985
H        0.87009479      -0.20481746       3.90477528       1.70930500       0.39824563      -0.12506874
H       -0.22535408      -1.53146618       4.16708126      -0.07872106       0.61937495       0.23892813
H       -0.80783892       0.27794725       4.16182699       1.20671411      -1.88329378      -0.63283138
H        2.79361605      -0.20234280      -2.96910820      -1.14826094       0.81956330      -0.69921395
H        3.84415602       1.13335789      -2.90478406       1.03459554       0.48801546       0.00235272
H       -0.68464458       0.31748433       0.32356706       0.12114584       0.60749926       0.81659135
H       -0.94924617       1.40706456       1.73488023      -2.37825483       1.48828236       0.88639076
H        0.49366218      -2.10304826       0.77403908       0.20512115      -0.49479479      -0.36437515
H        1.32546759      -2.04151051       2.42616501      -0.68134981      -0.03410767      -1.10570168
H       -0.16108870       3.66956622       1.63032355       0.27235791       0.13766068      -0.76538452
H        0.39223349       4.33003265       0.00522032       1.03921422       0.34958283       0.64945025
H       -0.68076789       3.16492421       0.00885566      -1.13864130      -1.10213420      -0.09579869
H        2.82564747       3.87125212       0.58017738      -0.27928272      -0.06863218      -0.19120509
H        3.41601610       2.28198928       1.02149701       0.70353721      -0.77430085       0.48557931
H        0.81120686       3.58542067      -1.98556504       0.93803915      -1.45255069      -0.29713346
H        1.58299112      -1.15897661      -0.85141001       0.07125443      -0.82658097      -0.59143567
H        1.33649233       1.28799546       2.52496698      -0.72954794       0.03034840      -0.21974763
H        2.69840669      -0.28198677       1.71755114      -0.30906787      -0.43544966      -0.54263194
