40
Properties=species:S:1:pos:R:3:forces:R:3 id=220 bond=C-C smiles="[H:40][C@@:17]12[C@@:16]([C@@:18]3([C@:15]4([C:11]3([H:35])[H:36])[C@@:12]([O:2][C:7]([C@:13]45[C@:14]1([O:3]5)[H:38])([H:26])[H:27])([H:37])[O:1][H:19])[C:10]([H:32])([H:33])[H:34])([C:8]([C:6]([C:9]2([H:30])[H:31])([C:4]([H:20])([H:21])[H:22])[C:5]([H:23])([H:24])[H:25])([H:28])[H:29])[H:39]" dataset=PubChem energy=-22063.669513011606 pbc="F F F"
O        2.54246852       3.69463350      -2.30857291       0.79951375      -0.44254863      -0.85673605
O        1.63931087       1.76336541      -3.03310003      -0.66369172      -1.61027708      -0.11361074
O        3.14515636      -0.37420008      -0.42149963       2.51968252       0.77636201      -1.02428965
C       -2.44222086      -2.01195977       2.06812829       1.86513803       4.06233527       0.44455074
C       -0.37744203      -0.72138712       3.68003425      -3.92515312       0.66410772       0.32728441
C       -0.71463111      -0.91624698       2.19503293      -1.68901948      -1.32072732      -0.56671713
C        2.58901772       0.65880992      -2.62300196      -1.42780068       0.78846913       0.87439272
C       -0.73325207       0.40982550       1.36261812       1.76007260      -2.82272370      -0.07364076
C        0.51833061      -1.67514608       1.57900617       0.15027304       1.86276982       1.69894764
C       -0.12395992       3.26938345       0.57058106       1.20599763      -1.49117677       0.66536050
C        2.34165046       2.62594035       0.54360227       2.07935780       1.79406524      -0.84464257
C        1.47423754       2.78107550      -1.98794284       2.79227627      -1.43124180      -0.59803936
C        2.44219825       0.59696655      -1.13534143      -3.72931874       0.38034343       1.25292932
C        1.76611338      -0.54508493      -0.34019896       0.86992680       0.45470958      -0.00080529
C        1.78055558       1.96228829      -0.71359231       1.59506512       0.69143539       0.97382563
C        0.73323166       0.82434235       1.49250153      -0.04508871       1.61697888      -1.42129494
C        1.46754775      -0.46313033       1.13954828      -0.80855619      -0.27838434      -0.11119486
C        1.02664468       2.12275198       0.59731195      -3.67775656      -0.81155484       0.22616454
H        3.14984414       3.24507883      -2.99198093      -1.77797386       0.98782278       1.76106905
H       -2.60326736      -2.36857984       1.09052420       0.43898729      -0.48431677      -1.28511073
H       -2.34245985      -2.80792950       2.76203031      -0.03017824      -0.40247480       0.73839633
H       -3.30378836      -1.29276429       2.23000497       1.23249351      -0.87272965       0.43796037
H        0.58863353      -0.38333246       3.88409981       1.64030551       0.40299923      -0.04100964
H       -0.50681534      -1.70998118       4.14640579      -0.08355846       0.60959493       0.24743419
H       -1.08930018       0.09943225       4.14115152       1.18262187      -1.86840470      -0.61986301
H        2.51215479      -0.38085780      -2.98978367      -1.14842221       0.81791558      -0.69941946
H        3.56269476       0.95484289      -2.92545953       1.03486056       0.48915962      -0.00022555
H       -0.96610584       0.13896933       0.30289159       0.10668306       0.59255585       0.79508650
H       -1.23070743       1.22854956       1.71420476      -2.38335325       1.51214655       0.88568097
H        0.21220092      -2.28156326       0.75336361       0.18806066      -0.50450205      -0.37643384
H        1.04400633      -2.22002551       2.40548954      -0.64806726      -0.04380377      -1.10736925
H       -0.44254996       3.49105122       1.60964808       0.27227443       0.13645907      -0.76435579
H        0.11077223       4.15151765      -0.01545515       1.03752890       0.35377484       0.64839227
H       -0.96222915       2.98640921      -0.01181981      -1.14023028      -1.10244682      -0.09662182
H        2.54418621       3.69273712       0.55950191      -0.27446110      -0.06658178      -0.19771534
H        3.13455484       2.10347428       1.00082154       0.69921916      -0.77472521       0.48861613
H        0.52974560       3.40690567      -2.00624051       0.93782242      -1.45132185      -0.29784408
H        1.30152986      -1.33749161      -0.87208548       0.07304233      -0.82998877      -0.59851150
H        1.05503107       1.10948046       2.50429151      -0.72946404       0.02977600      -0.21436584
H        2.41694543      -0.46050177       1.69687567      -0.29794857      -0.41653790      -0.55880244
