15
Properties=species:S:1:pos:R:3:forces:R:3 id=3157 bond=C-C smiles="[H:9][C:3]([H:10])([H:11])[C:5]([H:14])([H:15])[C:4]([H:12])([H:13])[S:1][C:2]([H:6])([H:7])[H:8]" dataset="DES370K Monomers" energy=-15149.320891167165 pbc="F F F"
S       -0.97005084      -1.38908949      -0.63252689       1.16854432       0.33675294       0.70107713
C        0.10946352      -1.01148315      -2.07264044       0.01497130       0.82257652       0.43825970
C       -1.28448221       1.25110140       1.89293565       1.45434643      -0.32649042       0.44291171
C        0.18696040      -1.14924647       0.81933323      -0.67752044       2.80793644       0.04259861
C        0.16181669       0.79483177       1.53775229      -0.57004194      -2.54384052       0.45547726
H       -0.45665077      -1.14070942      -2.99454691      -0.13231709      -0.18794021       0.24034498
H        0.46833155       0.03493340      -2.07334974      -0.25623373      -0.51613892       0.22012089
H        0.96687672      -1.66627123      -2.07882931       0.15027344      -0.22837566      -0.02950249
H       -1.22439977       2.25905337       2.39521315      -0.15970309      -1.07824644      -0.42292921
H       -1.72351691       0.49420260       2.56761219      -0.04357013       0.62858234      -0.30504671
H       -1.84925219       1.34229555       0.98645665      -0.53570339      -0.00703308      -0.28114315
H       -0.10942225      -1.82109441       1.61491213      -0.68161075       0.36092754       0.25367544
H        1.18885275      -1.50659921       0.60417477       0.22128687       0.64440760      -0.44146004
H        0.60369298       1.45358993       0.80830224       0.22603689      -0.23773172      -0.43829684
H        0.76358697       0.82503207       2.47463800      -0.17679081      -0.47454048      -0.87608569
