20
Properties=species:S:1:pos:R:3:forces:R:3 id=1096 bond=C-S smiles="[H:10]/[C:4](=[C:3](/[H:9])[S:1][S:2][C:5]([H:11])([H:12])[H:13])/[C:8]([H:20])([C:6]([H:14])([H:15])[H:16])[C:7]([H:17])([H:18])[H:19]" dataset=PubChem energy=-28095.7696695743 pbc="F F F"
S       -0.50727935      -1.09474853      -1.32262598      -1.16468312      -0.08889869       1.23518119
S       -2.08824713      -2.09235315      -0.33664601       1.57028121      -0.96933896       0.46109769
C       -0.27954306       0.19868358      -0.11860096       3.68878888       1.39930616      -0.39593539
C        0.94562204       0.85946359      -0.02667075      -2.63193315      -1.93258401      -0.05499984
C       -1.20325768      -3.37385884       0.78575022      -0.58615011       0.72189709       0.43661788
C        0.60057725       3.28283782       0.29714296       0.31613085      -0.18062686      -0.13331991
C        2.70738928       2.12544044       1.16625542      -0.12078561      -0.20349998       0.17081086
C        1.19885366       2.00671204       0.91375036       0.15982248       0.45581351      -0.65334745
H       -1.11619265       0.48558837       0.49821865      -0.14038652      -0.12300242      -0.02536489
H        1.78777091       0.54321455      -0.66722678      -0.57644902       0.14429978       0.33545138
H       -1.98342145      -4.05107608       1.16737364       0.09889952       0.33411154      -0.37856200
H       -0.69849134      -2.96322385       1.68891863      -0.42528903       0.22020968      -0.88882709
H       -0.48635805      -3.95809952       0.23209990       0.06415117       0.02218209      -0.38648525
H        0.81839387       4.13093109       0.93617014      -0.18352954       0.23450240       0.08899331
H       -0.47562404       3.17796393       0.11468340       0.30877627       0.07203982       0.22307872
H        1.07701187       3.46045967      -0.66243123       0.01293232       0.12291793      -0.18618564
H        3.19066469       2.40843685       0.23449851       0.20182213       0.10475658       0.00551891
H        3.11857073       1.15783062       1.47733534      -0.10059511       0.17834408      -0.08484533
H        2.96305720       2.84330292       1.95127834      -0.16002353       0.02911664      -0.25292716
H        0.70027228       1.89039977       1.85632182      -0.32842676      -0.54037733       0.48850730
