20
Properties=species:S:1:pos:R:3:forces:R:3 id=1096 bond=C-S smiles="[H:10]/[C:4](=[C:3](/[H:9])[S:1][S:2][C:5]([H:11])([H:12])[H:13])/[C:8]([H:20])([C:6]([H:14])([H:15])[H:16])[C:7]([H:17])([H:18])[H:19]" dataset=PubChem energy=-28086.40530853781 pbc="F F F"
S       -0.34924552      -1.32358883      -1.12219808      -0.90999289       0.53584169       0.61910034
S       -1.93021330      -2.32119345      -0.13621811     -24.94121153      36.11857166     -32.24589250
C       -0.12150923      -0.03015672       0.08182694       3.77485583       1.28977003      -0.37276589
C        1.10365587       0.63062329       0.17375715      -2.62924628      -1.88315545       0.01474415
C       -1.36129151      -3.14501854       0.58532232      23.51330608     -33.55026308      30.35206618
C        0.75861108       3.05399752       0.49757086       0.32136377      -0.17943663      -0.12671509
C        2.86542311       1.89660014       1.36668332      -0.12409399      -0.19861498       0.17577846
C        1.35688749       1.77787174       1.11417826       0.15913124       0.44956523      -0.65939443
H       -0.95815882       0.25674807       0.69864655      -0.16155273      -0.08950183      -0.00783492
H        1.94580474       0.31437425      -0.46679888      -0.59020375       0.15610589       0.32346257
H       -2.14145528      -3.82223578       0.96694574       0.48492139      -0.42462575       0.33550897
H       -0.85652517      -2.73438355       1.48849073       0.49839696      -0.89364952       0.56893591
H       -0.64439188      -3.72925922       0.03167200       0.84325532      -1.53480255       0.73209499
H        0.97642770       3.90209079       1.13659804      -0.18402800       0.24048303       0.09056847
H       -0.31759021       2.94912363       0.31511130       0.30903193       0.07041860       0.22154115
H        1.23504570       3.23161937      -0.46200333       0.01215178       0.12074520      -0.18673540
H        3.34869852       2.17959655       0.43492641       0.20099772       0.10383379       0.00453053
H        3.27660456       0.92899032       1.67776324      -0.10096672       0.17722555      -0.08585055
H        3.12109103       2.61446262       2.15170624      -0.15667515       0.03162452      -0.25147325
H        0.85830611       1.66155947       2.05674972      -0.32513080      -0.53347688       0.49625095
