20
Properties=species:S:1:pos:R:3:forces:R:3 id=1096 bond=C-S smiles="[H:10]/[C:4](=[C:3](/[H:9])[S:1][S:2][C:5]([H:11])([H:12])[H:13])/[C:8]([H:20])([C:6]([H:14])([H:15])[H:16])[C:7]([H:17])([H:18])[H:19]" dataset=PubChem energy=-28091.418271432252 pbc="F F F"
S       -0.87391784      -0.56383903      -1.78761871      -2.05806403      -0.46256481       2.00790054
S       -2.45488562      -1.56144365      -0.80163874       2.37468830      -0.25414272      -0.39754110
C       -0.64618155       0.72959308      -0.58359369       3.52993691       1.37938754      -0.55991432
C        0.57898355       1.39037309      -0.49166348      -2.53126118      -1.86246493      -0.10250670
C       -0.83661919      -3.90476834       1.25074295       0.11335517      -0.82561185       1.82391838
C        0.23393876       3.81374732      -0.16784977       0.28882414      -0.19897401      -0.17916201
C        2.34075079       2.65634994       0.70126269      -0.10729711      -0.21121536       0.16341368
C        0.83221517       2.53762154       0.44875763       0.19697586       0.40104535      -0.58875896
H       -1.48283114       1.01649787       0.03322592      -0.12650575      -0.18253858      -0.02913256
H        1.42113242       1.07412405      -1.13221951      -0.57823012       0.16204086       0.31499823
H       -1.61678296      -4.58198558       1.63236637      -0.34544220       0.74268653      -0.72262743
H       -0.33185285      -3.49413335       2.15391136      -0.52030693       0.69400853      -1.01888228
H       -0.11971956      -4.48900902       0.69709263       0.02007175       0.43300290      -0.98385171
H        0.45175538       4.66184059       0.47117741      -0.17891997       0.21255020       0.09044938
H       -0.84226253       3.70887343      -0.35030933       0.30726218       0.07827223       0.22450327
H        0.71037338       3.99136917      -1.12742396       0.01299427       0.12882805      -0.18448147
H        2.82402620       2.93934635      -0.23049422       0.20266409       0.10720753       0.00642683
H        2.75193224       1.68874012       1.01234261      -0.10054058       0.18213382      -0.08166652
H        2.59641871       3.37421242       1.48628561      -0.16636351       0.02326574      -0.25664768
H        0.33363379       2.42130927       1.39132909      -0.33311711      -0.54566603       0.47581658
