20
Properties=species:S:1:pos:R:3:forces:R:3 id=1096 bond=C-S smiles="[H:10]/[C:4](=[C:3](/[H:9])[S:1][S:2][C:5]([H:11])([H:12])[H:13])/[C:8]([H:20])([C:6]([H:14])([H:15])[H:16])[C:7]([H:17])([H:18])[H:19]" dataset=PubChem energy=-28094.469801957464 pbc="F F F"
S       -0.60209965      -0.95744435      -1.44288272      -1.38891385      -0.19539044       1.39750693
S       -2.18306743      -1.95504897      -0.45690275       2.59447058      -1.90658442       1.22017698
C       -0.37436336       0.33598776      -0.23885770       3.66303827       1.41142267      -0.42077156
C        0.85080174       0.99676777      -0.14692749      -2.62344276      -1.93281470      -0.06818943
C       -1.10843738      -3.51116302       0.90600696      -1.02243502       0.95214132       0.23379941
C        0.50575695       3.42014200       0.17688622       0.31275843      -0.18306014      -0.13898700
C        2.61256898       2.26274462       1.04599868      -0.11920003      -0.20418562       0.16936901
C        1.10403336       2.14401622       0.79349362       0.16444652       0.44890073      -0.64478251
H       -1.21101295       0.62289255       0.37796191      -0.13457276      -0.13376260      -0.02679919
H        1.69295061       0.68051873      -0.78748352      -0.57595940       0.14590228       0.33261614
H       -1.88860115      -4.18838026       1.28763038      -0.09112157       0.56931642      -0.57383821
H       -0.60367104      -3.10052803       1.80917537      -0.52100967       0.52237273      -1.02315333
H       -0.39153775      -4.09540370       0.35235664      -0.00617287       0.30973561      -0.73433852
H        0.72357357       4.26823527       0.81591340      -0.18291558       0.23160903       0.08908847
H       -0.57044434       3.31526811      -0.00557334       0.30877305       0.07256524       0.22343257
H        0.98219157       3.59776385      -0.78268797       0.01306750       0.12381579      -0.18612649
H        3.09584439       2.54574103       0.11424177       0.20214252       0.10509074       0.00564430
H        3.02375043       1.29513480       1.35707860      -0.10057889       0.17865772      -0.08440096
H        2.86823690       2.98060710       1.83102160      -0.16075956       0.02832308      -0.25331316
H        0.60545198       2.02770395       1.73606508      -0.32936247      -0.54189123       0.48589344
