15
Properties=species:S:1:pos:R:3:forces:R:3 id=24524 bond=C-N smiles="[H:8][C:2]1=[C:3]([C:7]([O:1][N:4]([C:6]1([H:13])[H:14])[H:10])([H:15])[N:5]([H:11])[H:12])[H:9]" dataset=PubChem energy=-9303.45029840398 pbc="F F F"
O        0.45020106      -0.83891214       1.33599003      -2.12516599       2.65362460      -1.01949531
C        0.15721569       1.95334469       1.90905126      -2.32679546      -0.34572853      -3.59706150
C       -0.48699529       1.39857863       0.74343460       3.30417755       1.16634530       3.96519376
N        1.33776777      -0.08085610       2.17341085       1.06518709      -1.51167303      -0.10397365
N        0.58967262      -0.35524762      -2.18846909      -0.06835864      -0.48285254      -0.08033312
C        0.82343172       1.05420090       2.86424311      -0.18250057       1.46631025       0.40718907
C       -0.47375275      -0.00543673       0.50594945       0.64648566      -1.96708072       2.36912063
H        0.14748862       3.03089463       2.15993293      -0.40909283      -0.73757216      -0.50187373
H       -1.07498295       1.97661291       0.10906132      -0.70654014       0.99664553      -0.97814547
H        2.12482612       0.19106757       1.60730328       0.03470077      -0.04771616      -0.41604413
H        1.64383130      -0.51415438      -2.23490730      -1.75051744      -0.16744970       0.53506833
H        0.14382361      -1.22417111      -2.62116852       0.90657779       1.19802826       1.08821105
H        0.06803640       0.76175636       3.64114185       1.02803475       0.19763220      -0.23980222
H        1.69159799       1.71858632       3.27370329      -1.28743556      -1.88685474      -0.19391450
H       -1.56147749      -0.35328556       0.63088479       1.87112931      -0.53038509      -1.23417830
