12
Properties=species:S:1:pos:R:3:forces:R:3 id=11958 bond=C-S smiles="[H:7][C:3](=[C:5]([H:11])[S:1][S:2][C:6](=[C:4]([H:9])[H:10])[H:12])[H:8]" dataset=PubChem energy=-25918.073340022773 pbc="F F F"
S       -1.16273305      -0.58390146      -0.39865883       2.93125978       2.23422354       0.22613898
S       -1.42625508       1.35175163       0.50485596       0.36785347      -2.21284917      -0.37616987
C        2.02890505      -0.79786386      -1.90229118      -1.72936578       1.75856894       3.46793490
C       -0.36456386       2.08195335       2.93778746      -3.10867731      -1.63908299      -5.25593334
C        1.41609835      -0.24270858      -0.80420649      -0.40526931      -2.30515016      -2.93289850
C       -0.59175304       1.01308900       2.02953880      -0.89322682       7.73690770       1.96709370
H        3.12180747      -0.63747909      -2.03627336      -1.03140525      -0.30942575      -0.09872858
H        1.36238669      -1.36626710      -2.51492178       0.36908714      -0.26426867      -0.84066518
H        0.13979539       1.96189219       3.80615084       1.55177705      -0.51971268       2.42929979
H       -0.84672693       3.08427686       2.74869077       0.66093664      -1.29162740       0.18722229
H        1.89843692       0.22787846       0.01682680      -0.33551805       0.61586676       0.75278878
H       -0.13865186       0.13666010       2.10626547       1.62447520      -3.80391338       0.47726613
