36
Properties=species:S:1:pos:R:3:forces:R:3 id=10000 bond=C-P smiles="[H:20][c:6]1[c:10]([c:9]([c:5]([c:8]([c:7]1[Cl:2])[O:4][P:18](=[S:1])([C:16]([H:34])([H:35])[Cl:3])[C:17]([H:36])([C:14]([H:29])([H:30])[H:31])[C:15]([H:32])([H:33])[C:13]([H:26])([H:27])[H:28])[H:19])[N:11]([H:21])[H:22])[C:12]([H:23])([H:24])[H:25]" dataset=PubChem energy=-61463.614769523934 pbc="F F F"
S        1.11654407       2.90353994       1.90814901      -0.06492587       0.09171851      -0.43507453
Cl      -0.21971136      -1.63887234      -1.23601280       0.23172187       0.05480897       0.51336866
Cl       2.28255276       2.96763921      -1.97972270       0.03016263      -0.24470175       0.31972426
O       -0.42453342       0.68805201       0.68141318       0.45361867       0.62400479      -0.95943565
C        0.93765849      -0.31687672       2.42066479      -0.46456463      -0.49815092       0.31644228
C        1.35739995      -2.55819364       0.82894990      -0.33971305       1.38812239       1.17766034
C        0.51636670      -1.52721758       0.35378989       0.69592252       0.01399110       0.65682036
C        0.33004888      -0.38397212       1.16483153       0.50878854      -0.48407240      -0.26439790
C        1.74800813      -1.34327908       2.92161179       0.46255553      -0.27384541       0.11015118
C        1.99068225      -2.47335048       2.09847332      -0.53246736      -0.34694768      -0.57730468
N        2.28458131      -1.23189803       4.23162366      -0.32711071      -1.02206186      -1.43722150
C        2.79592657      -3.68652125       2.56100846      -0.11364888       0.88749632       0.47982126
C       -1.43205022       1.82504921      -2.62963151       1.02505867       0.27048546       0.34491769
C       -1.44842183       4.22155742       0.43618052       0.36062329       0.42863960      -0.33267070
C       -1.89489793       2.56121163      -1.38149451       0.62366627      -1.10668877       0.12895627
C        1.88883619       1.66919350      -0.82744595      -1.35108784      -0.73623505       0.12818647
C       -0.75192940       3.26675801      -0.59103524      -1.99517305      -0.33622620       0.10222113
P        0.39017948       2.09805958       0.28177298       1.36879365       0.63810363       1.24105284
H        0.69277112       0.47227921       3.11548162       0.03793709       0.26645258      -0.44160228
H        1.49161625      -3.45105930       0.25370590       0.05829020      -0.17308473      -0.30497212
H        2.10201645      -0.39869519       4.75499249       0.25129641       0.05083770      -0.05573335
H        3.09329343      -1.80439945       4.45387602      -0.52575819       0.57135227       0.02895158
H        3.66142178      -3.38799687       3.17087079      -0.24457655      -0.18009570      -0.20332220
H        2.18852091      -4.37963839       3.14225198      -0.05904182       0.16803149       0.18264840
H        3.15948701      -4.24779578       1.72268224       0.24350224      -0.12732475      -0.47112391
H       -2.25030112       1.29341916      -3.05114363      -0.66284098      -0.33928386      -0.55133865
H       -0.66344857       1.08038286      -2.41314386      -0.01839068       0.05796815       0.07623279
H       -1.01113104       2.52008848      -3.35563825      -0.07977069      -0.06231980      -0.09352417
H       -0.74505472       4.89083032       0.94935436      -0.09752499      -0.51665518      -0.10584693
H       -1.98019909       3.62609200       1.18965400       0.03378106       0.34703534      -0.26655125
H       -2.14545536       4.90453891      -0.10933804       0.37112491      -0.84167604       0.34525125
H       -2.42055034       1.81659750      -0.76294743       0.16566152       0.51997876       0.10058654
H       -2.61158490       3.29203634      -1.70789074      -0.31060563       0.48154246       0.17874472
H        2.74049477       1.40840018      -0.19937315      -0.21859460       0.48522047       0.05117290
H        1.62713245       0.77116653      -1.38172790       0.02185456       0.06762933      -0.28592024
H       -0.20429480       3.84890036      -1.32907199       0.45735988      -0.13271262       0.30785843
