36
Properties=species:S:1:pos:R:3:forces:R:3 id=10000 bond=C-P smiles="[H:20][c:6]1[c:10]([c:9]([c:5]([c:8]([c:7]1[Cl:2])[O:4][P:18](=[S:1])([C:16]([H:34])([H:35])[Cl:3])[C:17]([H:36])([C:14]([H:29])([H:30])[H:31])[C:15]([H:32])([H:33])[C:13]([H:26])([H:27])[H:28])[H:19])[N:11]([H:21])[H:22])[C:12]([H:23])([H:24])[H:25]" dataset=PubChem energy=-61462.844088668746 pbc="F F F"
S        0.99708593       2.93772492       1.99656502      -0.01858175       0.00505799      -0.63265876
Cl      -0.33916950      -1.60468736      -1.14759679       0.23931982       0.05560759       0.52107474
Cl       2.40201090       2.93345423      -2.06813871      -0.22245545      -0.31777104       0.55457598
O       -0.54399156       0.72223699       0.76982919       0.46489505       0.63530703      -0.93877592
C        0.81820035      -0.28269174       2.50908080      -0.46471951      -0.49458985       0.30720357
C        1.23794181      -2.52400866       0.91736591      -0.34560285       1.39505287       1.17313703
C        0.39690856      -1.49303260       0.44220590       0.68709911       0.02180572       0.64472194
C        0.21059074      -0.34978714       1.25324754       0.51106438      -0.48772202      -0.26324969
C        1.62854999      -1.30909410       3.01002780       0.45892976      -0.27880955       0.10248680
C        1.87122411      -2.43916550       2.18688933      -0.53266985      -0.34086387      -0.56873172
N        2.16512317      -1.19771305       4.32003967      -0.32619977      -1.02116511      -1.42819188
C        2.67646843      -3.65233627       2.64942447      -0.11359331       0.88804335       0.48013073
C       -1.55150836       1.85923419      -2.54121550       1.03668591       0.25887123       0.34579356
C       -1.56787997       4.25574240       0.52459653       0.37325134       0.44776116      -0.29613515
C       -2.01435607       2.59539661      -1.29307850       0.64158312      -1.13330261       0.11667739
C        2.00829433       1.63500852      -0.91586196      -2.22934084      -0.24265805       0.78160597
C       -0.87138754       3.30094299      -0.50261923      -1.95022481      -0.31051869       0.01472624
P        0.27072134       2.13224456       0.37018899       2.63060608      -0.00371270       0.29215054
H        0.57331298       0.50646419       3.20389763       0.04013578       0.26245784      -0.43860873
H        1.37215811      -3.41687432       0.34212191       0.05817646      -0.17262319      -0.30561590
H        1.98255831      -0.36451021       4.84340850       0.25248078       0.04913503      -0.05596390
H        2.97383529      -1.77021447       4.54229203      -0.52549388       0.57245459       0.02892807
H        3.54196364      -3.35381189       3.25928680      -0.24430056      -0.18027567      -0.20313712
H        2.06906277      -4.34545341       3.23066799      -0.05902168       0.16772146       0.18265079
H        3.04002887      -4.21361080       1.81109825       0.24349262      -0.12723694      -0.47124748
H       -2.36975926       1.32760414      -2.96272762      -0.66725953      -0.33409340      -0.55166390
H       -0.78290671       1.11456784      -2.32472785      -0.01144910       0.06797440       0.08711659
H       -1.13058918       2.55427346      -3.26722224      -0.08140940      -0.05905680      -0.09520203
H       -0.86451286       4.92501530       1.03777037      -0.09993389      -0.51424406      -0.10827948
H       -2.09965723       3.66027698       1.27807001       0.03626039       0.34344074      -0.27388067
H       -2.26491350       4.93872389      -0.02092203       0.37427138      -0.84414711       0.33694995
H       -2.54000848       1.85078248      -0.67453142       0.16924516       0.52345703       0.10283752
H       -2.73104304       3.32622132      -1.61947473      -0.30497235       0.48888226       0.18536549
H        2.85995291       1.37421520      -0.28778916      -0.33506695       0.60823181       0.25310549
H        1.74659059       0.73698155      -1.47014391      -0.21186662       0.18713109      -0.12995395
H       -0.32375294       3.88308534      -1.24065598       0.52305904      -0.12076389       0.25592585
