36
Properties=species:S:1:pos:R:3:forces:R:3 id=10000 bond=C-P smiles="[H:20][c:6]1[c:10]([c:9]([c:5]([c:8]([c:7]1[Cl:2])[O:4][P:18](=[S:1])([C:16]([H:34])([H:35])[Cl:3])[C:17]([H:36])([C:14]([H:29])([H:30])[H:31])[C:15]([H:32])([H:33])[C:13]([H:26])([H:27])[H:28])[H:19])[N:11]([H:21])[H:22])[C:12]([H:23])([H:24])[H:25]" dataset=PubChem energy=-61463.020516240525 pbc="F F F"
S        1.01880559       2.93150947       1.98048938      -0.02331520       0.01684437      -0.60395388
Cl      -0.31744984      -1.61090281      -1.16367243       0.23799210       0.05532494       0.51980653
Cl       2.38029124       2.93966968      -2.05206307      -0.19157586      -0.29918661       0.51800177
O       -0.52227190       0.71602154       0.75375355       0.46465567       0.63626930      -0.94643453
C        0.83992001      -0.28890719       2.49300516      -0.46522095      -0.49505306       0.30877371
C        1.25966147      -2.53022411       0.90129027      -0.34442623       1.39380400       1.17404899
C        0.41862822      -1.49924805       0.42613026       0.68841655       0.02062899       0.64663645
C        0.23231040      -0.35600259       1.23717190       0.51299337      -0.48832543      -0.26325059
C        1.65026965      -1.31530955       2.99395216       0.45938814      -0.27780265       0.10376336
C        1.89294377      -2.44538095       2.17081369      -0.53262131      -0.34199111      -0.57014908
N        2.18684283      -1.20392850       4.30396403      -0.32642678      -1.02141608      -1.42988344
C        2.69818809      -3.65855172       2.63334883      -0.11352196       0.88764357       0.48015240
C       -1.52978870       1.85301874      -2.55729114       1.03532051       0.26169981       0.34585963
C       -1.54616031       4.24952695       0.50852089       0.37285797       0.44416235      -0.30146312
C       -1.99263641       2.58918116      -1.30915414       0.63833822      -1.12887682       0.11820292
C        1.98657467       1.64122397      -0.89978632      -2.22763925      -0.29185852       0.77945120
C       -0.84966788       3.29472754      -0.51869487      -1.95091861      -0.31866943       0.02602959
P        0.29244100       2.12602911       0.35411335       2.55887647       0.06234572       0.34947330
H        0.59503264       0.50024874       3.18782199       0.03980795       0.26311637      -0.43924124
H        1.39387777      -3.42308977       0.32604627       0.05817180      -0.17266772      -0.30548669
H        2.00427797      -0.37072566       4.82733286       0.25232135       0.04939775      -0.05599686
H        2.99555495      -1.77642992       4.52621639      -0.52561251       0.57230553       0.02889193
H        3.56368330      -3.36002734       3.24321116      -0.24443081      -0.18027696      -0.20324921
H        2.09078243      -4.35166886       3.21459235      -0.05893010       0.16784896       0.18258719
H        3.06174853      -4.21982625       1.79502261       0.24346591      -0.12718254      -0.47112521
H       -2.34803960       1.32138869      -2.97880326      -0.66628711      -0.33510865      -0.55155567
H       -0.76118705       1.10835239      -2.34080349      -0.01204651       0.06610596       0.08562789
H       -1.10886952       2.54805801      -3.28329788      -0.08089740      -0.05960687      -0.09473856
H       -0.84279320       4.91879985       1.02169473      -0.09977384      -0.51471999      -0.10778331
H       -2.07793757       3.65406153       1.26199437       0.03592140       0.34414077      -0.27273161
H       -2.24319384       4.93250844      -0.03699767       0.37420627      -0.84425965       0.33814493
H       -2.51828882       1.84456703      -0.69060706       0.16875806       0.52301200       0.10252636
H       -2.70932338       3.32000587      -1.63555037      -0.30579393       0.48745320       0.18429737
H        2.83823325       1.38043065      -0.27171352      -0.32021826       0.59111772       0.22268117
H        1.72487093       0.74319700      -1.45406827      -0.17141005       0.17014746      -0.15313714
H       -0.30203328       3.87686989      -1.25673162       0.51633584      -0.12206060       0.26171838
