36
Properties=species:S:1:pos:R:3:forces:R:3 id=10000 bond=C-P smiles="[H:20][c:6]1[c:10]([c:9]([c:5]([c:8]([c:7]1[Cl:2])[O:4][P:18](=[S:1])([C:16]([H:34])([H:35])[Cl:3])[C:17]([H:36])([C:14]([H:29])([H:30])[H:31])[C:15]([H:32])([H:33])[C:13]([H:26])([H:27])[H:28])[H:19])[N:11]([H:21])[H:22])[C:12]([H:23])([H:24])[H:25]" dataset=PubChem energy=-61410.742259928076 pbc="F F F"
S        1.50749800       2.79166183       1.61878755      -0.38212498       1.43688640       2.37302281
Cl       0.17124257      -1.75075045      -1.52537426       0.21285639       0.09859554       0.44511140
Cl       1.89159883       3.07951732      -1.69036124       7.04755831      -1.17781052      -2.38789782
O       -0.03357949       0.57617390       0.39205172      -0.95725474      -0.58911467       0.66761549
C        1.32861242      -0.42875483       2.13130333      -0.38325898      -0.52218935       0.36731038
C        1.74835388      -2.67007175       0.53958844      -0.31673595       1.35408664       1.18802026
C        0.90732063      -1.63909569       0.06442843       0.78915392      -0.04130802       0.70549014
C        0.72100281      -0.49585023       0.87547007       0.05164132      -0.07884193      -0.30759117
C        2.13896206      -1.45515719       2.63225033       0.48734791      -0.23379172       0.15684868
C        2.38163618      -2.58522859       1.80911186      -0.53124652      -0.38165093      -0.61195693
N        2.67553524      -1.34377614       3.94226220      -0.33220396      -1.02810839      -1.47995033
C        3.18688050      -3.79839936       2.27164700      -0.11570756       0.88471608       0.47907005
C       -1.04109629       1.71317110      -2.91899297       0.95015452       0.30463484       0.35107075
C       -1.05746790       4.10967931       0.14681906      -0.03640198       0.48061011      -0.66973712
C       -1.50394400       2.44933352      -1.67085597       0.51066648      -0.93759648       0.34645479
C        1.49788226       1.78107161      -0.53808449     177.33530935     -50.96483883    -135.57421420
C       -0.36097547       3.15487990      -0.88039670      -5.38145680       0.50360015       1.56109994
P        0.78113341       1.98618147      -0.00758848    -177.74143615      51.15597312     134.32025666
H        1.08372505       0.36040110       2.82612016       0.01182628       0.28433232      -0.44333379
H        1.88257018      -3.56293741      -0.03565556       0.06121883      -0.17697260      -0.30172140
H        2.49297038      -0.51057330       4.46563103       0.24374933       0.05838551      -0.05352296
H        3.48424736      -1.91627756       4.16451456      -0.52791229       0.56689498       0.03160994
H        4.05237571      -3.49987498       2.88150933      -0.24553815      -0.17976480      -0.20383667
H        2.57947484      -4.49151650       2.85289052      -0.05834186       0.16861080       0.18289243
H        3.55044094      -4.35967389       1.43332078       0.24380275      -0.12824597      -0.47061982
H       -1.85934719       1.18154105      -3.34050509      -0.63174408      -0.36264526      -0.56762533
H       -0.27249464       0.96850475      -2.70250532      -0.01179775      -0.01602353       0.00017936
H       -0.62017711       2.40821037      -3.64499971      -0.07592927      -0.07491143      -0.12161158
H       -0.35410079       4.77895221       0.65999290      -0.05518373      -0.51368126      -0.09456411
H       -1.58924516       3.51421389       0.90029254       0.02469390       0.35706259      -0.21981631
H       -1.75450143       4.79266080      -0.39869950       0.25635884      -0.71504538       0.42864616
H       -2.02959641       1.70471939      -1.05230889       0.12527495       0.47770847       0.07132547
H       -2.22063097       3.18015823      -1.99725220      -0.36841124       0.45799358       0.11933876
H        2.34954084       1.52027829       0.08998831       0.66465025      -0.47491329      -0.32337345
H        1.23617852       0.88304464      -1.09236644       1.08377607       0.02857717      -1.11261993
H        0.18665913       3.73702225      -1.61843345      -1.94247659      -0.03230977       1.15223979
