36
Properties=species:S:1:pos:R:3:forces:R:3 id=10000 bond=C-P smiles="[H:20][c:6]1[c:10]([c:9]([c:5]([c:8]([c:7]1[Cl:2])[O:4][P:18](=[S:1])([C:16]([H:34])([H:35])[Cl:3])[C:17]([H:36])([C:14]([H:29])([H:30])[H:31])[C:15]([H:32])([H:33])[C:13]([H:26])([H:27])[H:28])[H:19])[N:11]([H:21])[H:22])[C:12]([H:23])([H:24])[H:25]" dataset=PubChem energy=-61460.847467607324 pbc="F F F"
S        0.74730981       3.00920260       2.18143484       0.00385151      -0.06461557      -0.82911508
Cl      -0.58894562      -1.53320968      -0.96272697       0.24723422       0.05301881       0.54070926
Cl       2.65178702       2.86197655      -2.25300853      -0.37212887      -0.55166230       0.84867937
O       -0.79376768       0.79371467       0.95469901       0.44412723       0.56564376      -0.81693665
C        0.56842423      -0.21121406       2.69395062      -0.45528568      -0.48919668       0.29130575
C        0.98816569      -2.45253098       1.10223573      -0.36029525       1.41186546       1.16775107
C        0.14713244      -1.42155492       0.62707572       0.67579503       0.02566314       0.61618326
C       -0.03918538      -0.27830946       1.43811736       0.46980807      -0.47996788      -0.26215550
C        1.37877387      -1.23761642       3.19489762       0.45330029      -0.28725118       0.08404075
C        1.62144799      -2.36768782       2.37175915      -0.53428713      -0.32910925      -0.55363297
N        1.91534705      -1.12623537       4.50490949      -0.32039998      -1.01794551      -1.40832073
C        2.42669231      -3.58085859       2.83429429      -0.11424496       0.88998933       0.48041016
C       -1.80128448       1.93071187      -2.35634568       1.04792836       0.22827879       0.34523161
C       -1.81765609       4.32722008       0.70946635       0.34405747       0.48837367      -0.27133127
C       -2.26413219       2.66687429      -1.10820868       0.67366164      -1.17474005       0.11566491
C        2.25807045       1.56353084      -1.10073178      -1.06056035      -0.05870343       0.02021154
C       -1.12116366       3.37242067      -0.31774941      -2.02760086      -0.16907127      -0.01581303
P        0.02094522       2.20372224       0.55505881       2.09838814      -0.20640515       0.53079622
H        0.32353686       0.57794187       3.38876745       0.04203719       0.25330844      -0.43012165
H        1.12238199      -3.34539664       0.52699173       0.05832241      -0.17123788      -0.30719283
H        1.73278219      -0.29303253       5.02827832       0.25486962       0.04477072      -0.05573548
H        2.72405917      -1.69873679       4.72716185      -0.52435767       0.57438903       0.02827446
H        3.29218752      -3.28233421       3.44415662      -0.24317640      -0.18035057      -0.20244959
H        1.81928665      -4.27397573       3.41553781      -0.05896302       0.16665133       0.18288381
H        2.79025275      -4.14213312       1.99596807       0.24355981      -0.12715491      -0.47131208
H       -2.61953538       1.39908182      -2.77785780      -0.67718649      -0.32343280      -0.55322565
H       -1.03268283       1.18604552      -2.13985803      -0.00702851       0.08698567       0.09579574
H       -1.38036530       2.62575114      -3.08235242      -0.08521642      -0.05430958      -0.09964020
H       -1.11428898       4.99649298       1.22264019      -0.09746872      -0.50674441      -0.11506609
H       -2.34943335       3.73175466       1.46293983       0.03622541       0.33536073      -0.28348011
H       -2.51468962       5.01020157       0.16394779       0.36826981      -0.83452601       0.33586917
H       -2.78978460       1.92226016      -0.48966160       0.17182972       0.52615565       0.10367203
H       -2.98081916       3.39769900      -1.43460491      -0.29866112       0.50500034       0.19568482
H        3.10972903       1.30273752      -0.47265898      -0.38106041       0.70674359       0.42646822
H        1.99636671       0.66550387      -1.65501373      -0.55444969       0.28109831       0.01896203
H       -0.57352906       3.95456302      -1.05578616       0.53380668      -0.12456901       0.24653293
