26
Properties=species:S:1:pos:R:3:forces:R:3 id=19385 bond=C-C smiles="[H:24][C:10]1([C:11]([C:12]([S:5][C:8]([C:9]1([H:23])[O:1][H:13])([H:22])[S:4][C:6]([H:16])([H:17])[H:18])([H:26])[C:7]([H:19])([H:20])[H:21])([H:25])[O:3][H:15])[O:2][H:14]" dataset=PubChem energy=-35305.44702500188 pbc="F F F"
O       -0.06972151      -0.82532597       2.51679507      -0.70653025      -1.20767659      -1.09240275
O       -0.56458692       2.76906919       2.08989981       0.97131565      -1.78958472       0.55479826
O        1.75597079       3.29314469       1.27541896       1.73799754       0.94214128       0.12636407
S       -0.94103567      -1.93804551      -0.13282218      -1.22811171       0.49617966       1.64390964
S        1.40836443      -0.35536170      -0.55442301       0.10964164       1.00170123       1.29061305
C       -0.49075048      -2.49950934      -1.75368008      -0.71451998       0.66819062      -0.46706467
C        2.82666346       1.76053934      -0.53980003      14.99797114      15.68232441     -20.30595600
C       -0.28775691      -0.23713518       0.11038333       0.79606130       0.60150786       0.32056238
C       -0.44682794       0.23396333       1.64022854       2.90032317      -0.73562845      -0.51935954
C        0.38177441       1.56804096       1.99811998      -2.61795756      -0.03656013      -0.56974237
C        1.16182334       2.11413824       0.86981571      -0.89430040      -0.89222967      -0.49496865
C        2.21166618       1.19167900       0.21627822     -16.26491424     -15.43747579      22.86045331
H       -0.55162458      -1.60556603       2.08365014       1.37734398       1.18226654       1.34668043
H       -1.26834266       2.58978950       2.70239678      -0.26781928      -0.20438458       0.46039439
H        1.14160790       3.93635702       1.64578262      -0.24989191      -0.67743424      -0.20785469
H       -1.31496220      -3.13735628      -2.07546362       0.12575141       0.02314141       0.05633210
H        0.43177390      -3.05162406      -1.78820285       0.39594723       0.21001652      -0.12430696
H       -0.54852597      -1.58069301      -2.33729896       0.52472408      -0.46486913      -0.53111567
H        1.99578115       2.39365356      -0.99126302       2.11690578       0.02275042      -1.82519554
H        3.40306827       1.09994643      -1.15407775       0.49184172       0.23369387      -1.34351281
H        3.55805489       2.40924554      -0.08212529       0.15813036       0.73320414      -0.15023852
H       -0.73129885       0.57482226      -0.46255407      -0.67693626      -0.54453074      -0.21305467
H       -1.45866983       0.34444072       1.83402589      -2.10951137       1.02095599      -0.13428161
H        1.03687341       1.41865533       2.86490574      -0.65657825       0.10689158       0.09446894
H        0.43327571       2.34260868       0.09767979      -0.20691829       0.00445194      -0.50439406
H        2.77099616       0.87769806       1.12165847      -0.10946896      -0.93629513      -0.26952166
