26
Properties=species:S:1:pos:R:3:forces:R:3 id=19385 bond=C-C smiles="[H:24][C:10]1([C:11]([C:12]([S:5][C:8]([C:9]1([H:23])[O:1][H:13])([H:22])[S:4][C:6]([H:16])([H:17])[H:18])([H:26])[C:7]([H:19])([H:20])[H:21])([H:25])[O:3][H:15])[O:2][H:14]" dataset=PubChem energy=-35310.017926350505 pbc="F F F"
O       -0.15130279      -0.90078703       2.61709116      -0.70246111      -1.21032659      -1.09680621
O       -0.64616820       2.69360813       2.19019590       1.00227572      -1.81254290       0.53900256
O        1.67438951       3.21768363       1.37571505       1.75003294       1.00843288       0.16180552
S       -1.02261695      -2.01350657      -0.03252609      -1.15636164       0.52489061       1.63128238
S        1.32678315      -0.43082276      -0.45412692       0.73726381       1.43219927       1.16000048
C       -0.57233176      -2.57497040      -1.65338399      -0.71936740       0.66233068      -0.47762631
C        2.90824474       1.83600040      -0.64009612      -0.21348475       2.06054238      -1.49861377
C       -0.36933819      -0.31259624       0.21067942       0.79779816       0.74759803       0.35603139
C       -0.52840922       0.15850227       1.74052463       2.86731374      -0.74518452      -0.51521929
C        0.30019313       1.49257990       2.09841607      -2.59871148      -0.11174979      -0.62872376
C        1.08024206       2.03867718       0.97011180      -0.28597770      -0.52994210      -1.73054974
C        2.13008490       1.11621794       0.31657431      -1.48087299      -1.97142315       3.92883740
H       -0.63320586      -1.68102709       2.18394623       1.37778588       1.18256867       1.35126304
H       -1.34992394       2.51432844       2.80269287      -0.26136621      -0.21477643       0.46437594
H        1.06002662       3.86089596       1.74607871      -0.25025028      -0.67334843      -0.20038480
H       -1.39654348      -3.21281734      -1.97516753       0.12494948       0.02244679       0.05660429
H        0.35019262      -3.12708512      -1.68790676       0.39247691       0.21088680      -0.12339493
H       -0.63010725      -1.65615407      -2.23700287       0.52508116      -0.46581723      -0.53026458
H        2.07736243       2.46911462      -1.09155911       1.80749411      -0.55065893      -0.74653939
H        3.48464955       1.17540749      -1.25437384      -0.12598659      -0.15960235      -0.97024206
H        3.63963617       2.48470660      -0.18242138      -0.08749779       0.37541989       0.29567726
H       -0.81288013       0.49936120      -0.36225798      -0.68335947      -0.54313596      -0.20769090
H       -1.54025111       0.26897966       1.93432198      -2.10833843       1.02184157      -0.13135540
H        0.95529213       1.34319427       2.96520183      -0.64121705       0.10909635       0.09681693
H        0.35169443       2.26714762       0.19797588      -0.26266083       0.07079539      -0.38427727
H        2.68941488       0.80223700       1.22195456       0.19718609      -0.43837702      -0.79833225
