13
Properties=species:S:1:pos:R:3:forces:R:3 id=3711 bond=C-C smiles="[H:12][C:5]([H:13])([C:3]([H:8])([H:9])[O:1][H:6])[C:4]([H:10])([H:11])[O:2][H:7]" dataset="DES370K Monomers" energy=-7335.320218039608 pbc="F F F"
O        2.28765340      -0.23075520       0.42975800      -2.40059445       1.80025599       0.71417849
O       -1.07286353      -1.28483245      -1.37013833       1.82529922      -0.09322032      -1.09728185
C        1.42208095       0.85549650       0.94601206       0.80530072      -1.08570068      -2.28376179
C       -1.42977352       0.00614464      -0.99089567       2.39149696       0.27957769       1.93866398
C       -1.22258146       0.25962197       0.54399730       0.36129258       0.11937740      -0.43572520
H        1.96745248      -0.44027999      -0.46512916       0.21177949       0.22194720       0.54356880
H       -1.62722297      -1.96125779      -1.04627429      -1.03326873      -0.69090507       0.74965238
H        1.66161128       1.03499422       1.97713617      -0.42804146      -0.54566998       0.51580388
H        1.64592166       1.80849645       0.38617636      -1.02384661      -1.08136538       0.15000723
H       -2.43957229       0.11944129      -1.19880585      -2.03518693       0.89801854      -0.52166233
H       -0.77278465       0.64699563      -1.60330180      -0.68955291       0.02006849       0.32410383
H       -1.95165379       0.93071141       1.03132601       0.95245097       0.87047457      -0.64473060
H       -1.51637818      -0.62910244       1.09197934       1.06199665      -0.70972323       0.04750046
