13
Properties=species:S:1:pos:R:3:forces:R:3 id=3711 bond=C-C smiles="[H:12][C:5]([H:13])([C:3]([H:8])([H:9])[O:1][H:6])[C:4]([H:10])([H:11])[O:2][H:7]" dataset="DES370K Monomers" energy=-7336.381888829773 pbc="F F F"
O        1.53203557      -0.40100507       0.31489664       0.37930535       1.29194943       0.68539030
O       -0.31724570      -1.11458258      -1.25527697       1.24148942      -0.36157296      -1.62938301
C        0.66646312       0.68524663       0.83115070      22.61022843       5.49361034       2.47241780
C       -0.67415569       0.17639451      -0.87603431      -0.33860078       0.12158004       1.08600153
C       -0.46696363       0.42987184       0.65885866     -22.48226576      -5.48671307      -3.85052283
H        1.21183465      -0.61052986      -0.57999052       0.42491701      -0.21793376       0.81854856
H       -0.87160514      -1.79100792      -0.93141293      -0.96165098      -0.74653887       0.72810871
H        0.90599345       0.86474435       1.86227481       0.90957382      -0.03710719       0.56668173
H        0.89030383       1.63824658       0.27131500       0.71829177      -0.49362572       0.59011214
H       -1.68395446       0.28969116      -1.08394449      -1.89694952       0.79258277      -0.81140537
H       -0.01716682       0.81724550      -1.48844044      -0.58108226       0.10905079       0.45277781
H       -1.19603596       1.10096128       1.14618737       0.19855495       0.49008132      -0.87205032
H       -0.76076035      -0.45885257       1.20684070      -0.22047278      -0.95655032      -0.23515047
