16
Properties=species:S:1:pos:R:3:forces:R:3 id=15547 bond=C-C smiles="[H:14][C:7]1=[C:9]([N:11]([C:6](=[S:4])[C:8](=[C:10]1[C:12]([F:1])([F:2])[F:3])[H:15])[O:5][H:13])[H:16]" dataset=PubChem energy=-28820.557527819677 pbc="F F F"
F        1.43211464      -1.87441570      -1.33256099      -0.17373772      -1.19146040       0.81814496
F        2.25683777      -2.12816722       0.68038795       0.93044124      -0.72600443       0.17013618
F        0.17270593      -2.59520346       0.40200424       0.30796329      -0.64155890      -0.77690268
S        0.49235500       3.09790646      -1.37816356      -0.05375861       0.17439383       0.05625608
O       -0.38653910       3.40084873       1.40873339       0.56911174      -1.82353554       0.80871758
C        0.53776828       1.86892055      -0.26891152       0.11068054      -0.30483117       0.30477232
C        0.33872968      -0.22326011       1.63183798      -0.20539179       2.13961051       0.28587055
C        0.95230294       0.48898262      -0.65488062      -1.12487098       0.45303044       3.54520982
C       -0.00395685       1.09518056       1.99435582       0.45915612      -1.02834191      -0.86822232
C        0.83051085      -0.53943897       0.28587711      -3.13759395      12.56655184       2.52287709
N        0.15530000       2.12826227       1.07446202      -0.51750805      -0.73673446      -1.06682496
C        1.17149524      -1.75290591       0.01284619       1.91112642      -8.67252448      -2.74765634
H       -0.42138249       3.94615565       0.60447510       0.43454689      -0.57025523      -0.72885871
H        0.25696433      -0.95456684       2.44445183       0.06159213       0.16485467      -0.77502728
H        1.32209552       0.31211588      -1.63501845       0.00359217       0.18077022      -0.45070238
H       -0.39899337       1.33708631       3.00358786       0.43569378       0.01243591      -1.10080605
