16
Properties=species:S:1:pos:R:3:forces:R:3 id=15547 bond=C-C smiles="[H:14][C:7]1=[C:9]([N:11]([C:6](=[S:4])[C:8](=[C:10]1[C:12]([F:1])([F:2])[F:3])[H:15])[O:5][H:13])[H:16]" dataset=PubChem energy=-28808.33561987912 pbc="F F F"
F        1.38949159      -1.72273234      -1.29843212       0.68740666      -3.97743065      -1.08535651
F        2.21421472      -1.97648386       0.71451682       2.77731147      -2.46549928       0.79968856
F        0.13008288      -2.44352010       0.43613311      -0.71683156      -3.23553846      -0.74038171
S        0.53497805       2.94622310      -1.41229243      -0.04417882       0.09222424       0.05423002
O       -0.34391605       3.24916537       1.37460452       0.56524526      -1.83123741       0.77883189
C        0.58039133       1.71723719      -0.30304039       0.05788107      -0.10845688       0.48049309
C        0.38135273      -0.37494347       1.59770911      -0.57543128       3.42744333       1.11934100
C        0.99492599       0.33729926      -0.68900949      -1.44129142       2.09755574       3.81346013
C        0.03866620       0.94349720       1.96022695       0.51468161      -1.33031277      -0.82046160
C        0.87313390      -0.69112233       0.25174824     -20.51918783      74.69857182      16.15948710
N        0.19792305       1.97657891       1.04033315      -0.46985757      -0.57227524      -1.23818768
C        1.12887219      -1.60122255       0.04697506      18.29108649     -66.86811560     -16.38610684
H       -0.37875944       3.79447229       0.57034623       0.42472531      -0.56647765      -0.70574168
H        0.29958738      -1.10625020       2.41032296       0.10338507       0.18342592      -0.86059087
H        1.36471857       0.16043252      -1.66914732      -0.07901629       0.45412424      -0.27023288
H       -0.35637032       1.18540295       2.96945899       0.43114514       0.00178748      -1.09963357
