23
Properties=species:S:1:pos:R:3:forces:R:3 id=35969 bond=C-S smiles="[H:15][C:5]([H:16])([H:17])[C:8]([C:6]([H:18])([H:19])[H:20])([C:7]([H:21])([H:22])[H:23])[S:1][N:2]([C:3]([H:9])([H:10])[H:11])[C:4]([H:12])([H:13])[H:14]" dataset=PubChem energy=-18748.983326618803 pbc="F F F"
S       -0.46306255       0.62334792       0.25267046    -115.62626423     186.42546261      49.58751423
N        0.63191961       1.59488211       1.14289563      -0.72492858       4.09167158       3.24589905
C        0.28097621       1.92805801       2.58089882       1.67821048      -0.03950972      -2.06797776
C        1.49878380       2.56272994       0.40169698      -1.69902923       1.48844973       0.54672518
C       -0.24079436      -1.10907966       1.15232705       2.10229487      -7.89207086       3.28952650
C       -0.52841073      -0.72019356      -1.33892561       0.24897619      -3.48201503      -0.65806494
C        1.57624669       0.11872786      -0.03940625       2.36681627      -4.76865354      -7.22977164
C        0.02672399      -0.13760060       0.02798967     112.91496652    -176.54716425     -50.70846642
H       -0.44730237       2.71150480       2.56966453      -0.76280476       0.38225152       0.49752975
H        1.19686214       2.33271776       3.11570506      -1.00955796      -0.85086597      -0.46638369
H       -0.09491619       0.96689867       2.94612723       0.05088243       0.77028712       0.62779101
H        1.34779403       2.44941578      -0.73258907      -0.00129700       1.05927711       2.12206833
H        1.26394144       3.57187400       0.81478303      -0.07606816      -0.26581228      -0.89040306
H        2.56978152       2.47680650       0.63228091      -0.06754674      -0.74123089      -0.08514190
H        0.07319713      -0.82915181       2.20700442       0.15646329       0.42489258      -1.76811144
H        0.11743479      -2.17468148       1.04148548      -0.30653352       0.29485462       0.27353806
H       -1.29498487      -1.05975979       1.18475639      -1.15999451      -0.75583708       0.16131577
H       -0.18602210      -1.79146057      -1.49743224      -0.40795331       1.21540472       0.24215796
H       -0.05624061      -0.06080579      -2.02150727       0.17039606       0.44128874      -0.75721490
H       -1.64225047      -0.67106587      -1.43236852       1.07687347       0.21927965       0.57729884
H        1.98800487       0.45942062       0.80667522       1.30391811       0.07759976       2.44577554
H        2.13024003      -0.75788790      -0.43522156      -0.43980316      -0.03868136       0.10127307
H        1.64595169       0.89386577      -0.85190714       0.21041779      -1.49928838       0.91660741
