11
Properties=species:S:1:pos:R:3:forces:R:3 id=41888 bond=N-P smiles="[H:6][N:2]([H:7])[P:5](=[S:1])([N:3]([H:8])[H:9])[N:4]([H:10])[H:11]" dataset=PubChem energy=-24695.944553758287 pbc="F F F"
S       -0.52861583       2.79989281       1.46641257      -0.01815349      -0.00686351      -0.57630847
N        1.55859959       0.86201197       2.14838254       1.00599217      -0.41778236       1.20276828
N        1.00473772       0.19260012      -1.64655472      -1.14816607      -0.69151657       1.82445511
N       -0.81130659      -0.11333695       1.74100924      -1.42467233      -0.35213193      -0.21994014
P        0.21876114       1.03503036       1.26204796      -0.02691597       2.92694072      -2.41413415
H        1.55002403       1.70357111       2.73809057       0.56256291      -0.52667762      -0.17496659
H        1.38080728       0.03654018       2.71714193       0.68091860       0.13306579       0.19163444
H        0.85288015       0.99424143      -2.24645759       0.32798116       0.44380261       0.29605687
H        1.99680237      -0.01188199      -1.57111360       0.10390283       0.52308050       0.07618057
H       -1.74185979       0.28510026       1.54648802       0.36459012      -0.81054022       0.13455309
H       -0.61909890      -0.93470487       1.21520674      -0.42725543      -1.22113785      -0.34843102
