11
Properties=species:S:1:pos:R:3:forces:R:3 id=41888 bond=N-P smiles="[H:6][N:2]([H:7])[P:5](=[S:1])([N:3]([H:8])[H:9])[N:4]([H:10])[H:11]" dataset=PubChem energy=-24700.330033931747 pbc="F F F"
S       -0.36938782       2.62922806       0.87716979      -0.16031358       0.26555909      -0.34124368
N        1.71782760       0.69134722       1.55913976       1.14103534      -0.37774024       1.37935665
N        0.84550971       0.36326487      -1.05731194      -0.51185805       0.51153280       3.07115418
N       -0.65207858      -0.28400170       1.15176646      -1.63622643      -0.23518292       0.35448174
P        0.37798915       0.86436561       0.67280518      -0.05282712       1.93491366      -4.15200823
H        1.70925204       1.53290636       2.14884779       0.48913058      -0.62996790      -0.11549689
H        1.54003529      -0.13412457       2.12789915       0.63556353       0.22413084       0.27738616
H        0.69365214       1.16490618      -1.65721481       0.14434497      -0.03944063       0.03536665
H        1.83757436       0.15878276      -0.98187082      -0.04056257       0.19299339      -0.39183753
H       -1.58263178       0.11443551       0.95724524       0.43044215      -0.84320695       0.25379576
H       -0.45987089      -1.10536962       0.62596396      -0.44093835      -1.00723945      -0.37396091
