11
Properties=species:S:1:pos:R:3:forces:R:3 id=41888 bond=N-P smiles="[H:6][N:2]([H:7])[P:5](=[S:1])([N:3]([H:8])[H:9])[N:4]([H:10])[H:11]" dataset=PubChem energy=-24694.413320923846 pbc="F F F"
S       -0.29485556       2.54934244       0.60135401      -0.53454703       0.92734544       0.14178047
N        1.79235986       0.61146160       1.28332398       1.56779174      -0.12627155       2.71418513
N        0.77097745       0.44315049      -0.78149616      11.56991723      -8.19395849     -36.09710962
N       -0.57754632      -0.36388732       0.87595068      -2.75813888      -0.59774658       2.05734177
P        0.45252141       0.78447999       0.39698940     -11.35354056      11.17617155      33.33163438
H        1.78378430       1.45302074       1.87303201       0.57777486      -0.77580880       0.06065064
H        1.61456755      -0.21401019       1.85208337       0.65448994       0.30369957       0.43225825
H        0.61911988       1.24479180      -1.38139903       0.11509463      -0.55760940      -1.20491688
H        1.76304210       0.23866838      -0.70605504       0.23966969      -0.42515035      -1.51641693
H       -1.50809952       0.03454989       0.68142946       0.41442217      -0.93566083       0.40086573
H       -0.38533863      -1.18525524       0.35014818      -0.49023348      -0.80027181      -0.33186667
