21
Properties=species:S:1:pos:R:3:forces:R:3 id=10423 bond=C-C smiles="[H:19][C:13]1([O:7][C:14]([O:9][C:15]([O:8]1)([H:21])[C:12]([H:18])([Cl:5])[Cl:6])([H:20])[C:11]([H:17])([Cl:3])[Cl:4])[C:10]([H:16])([Cl:1])[Cl:2]" dataset=PubChem energy=-87570.80184193488 pbc="F F F"
Cl      -0.93395493       3.05752578       2.71693862      -0.25140240       1.63469019       0.80298911
Cl       0.60997748       3.38543382       0.26588367      -1.13015029       5.79856308      -1.72763731
Cl       2.40547707      -0.75762569       2.14553419      -0.46671308      -2.33886597       0.66533157
Cl       3.76543929       1.62369348       2.26638201      -0.02750783       0.29025673      -1.02331781
Cl      -2.16231416      -1.43742620      -0.09824535      -0.14144137       0.75443607       0.41621227
Cl       0.25297459      -2.67907201      -0.47199592       1.40910460      -0.53640960      -0.52780888
O        0.71996180       1.33995424       1.35152045       2.37473355      -4.47362172       0.90408640
O       -0.84468482       1.23083015      -0.48268720       0.59126433      -3.75252426      -0.28922590
O        1.35458400       0.50242390      -0.73839232      -1.17930715      -1.60540320      -0.78697613
C       -0.74486206       2.43423071       0.96055020     -26.31001769     221.43932100      17.68538044
C        2.94844558       0.47204424       1.11402271      -0.57361519       1.12060186       0.50548845
C       -0.39392451      -1.17194353       0.04082319      -0.28677808       1.09552291       1.49751297
C       -0.66760144       1.68036218       0.90299109      24.69241509    -217.34160874     -18.46914845
C        1.75802376       1.15734958       0.38436532       0.97897353      -0.07589681       2.28154155
C       -0.01427940       0.08073474      -0.77328929      -0.31647542       1.02954474      -2.27394882
H       -1.72029779       2.75669232       0.43657921       1.07291858       0.71220976       0.93206952
H        3.65493585       0.13144935       0.38331285       0.37119738      -0.14457404      -0.16185008
H       -0.06493960      -0.97102843       1.09364548      -0.70657537      -0.46392314      -0.88211934
H       -1.27062366       1.32506372       1.72763780      -0.66935270      -2.72977428      -0.37817472
H        2.18141975       2.12110974       0.13849592       0.16921834      -0.41014150      -0.39156020
H       -0.24100397      -0.09550153      -1.86397513       0.39720818      -0.00212001       1.21036439
