21
Properties=species:S:1:pos:R:3:forces:R:3 id=10423 bond=C-C smiles="[H:19][C:13]1([O:7][C:14]([O:9][C:15]([O:8]1)([H:21])[C:12]([H:18])([Cl:5])[Cl:6])([H:20])[C:11]([H:17])([Cl:3])[Cl:4])[C:10]([H:16])([Cl:1])[Cl:2]" dataset=PubChem energy=-87611.72618909462 pbc="F F F"
Cl      -1.00302124       3.73143854       2.76839296       0.06549389      -1.27517593      -1.53539179
Cl       0.54091117       4.05934658       0.31733801      -0.64150226      -1.06359634       0.06732621
Cl       2.47454338      -1.43153845       2.09407985      -0.54112550      -2.26664559       0.60478526
Cl       3.83450560       0.94978072       2.21492767      -0.02172631       0.26564581      -1.04023589
Cl      -2.09324785      -2.11133896      -0.14969969      -0.10888544       0.74103064       0.40985864
Cl       0.32204090      -3.35298477      -0.52345026       1.42252823      -0.52468184      -0.53268774
O        0.78902811       0.66604148       1.30006611      -2.27289343       0.39134585      -0.98284927
O       -0.77561851       0.55691739      -0.53414154       0.21808326       0.27123597       3.20328738
O        1.42365031      -0.17148886      -0.78984666      -1.17010258      -1.72737117      -0.71788788
C       -0.81392837       3.10814347       1.01200454      -1.01374358      -0.78846742      -0.16724057
C        3.01751189      -0.20186852       1.06256837      -0.48147672       1.37944953       0.50464558
C       -0.32485820      -1.84585629      -0.01063115      -0.35131464       1.07264031       1.53385166
C       -0.59853513       1.00644942       0.85153675       3.88985506       2.02124627      -1.20982580
C        1.82709007       0.48343682       0.33291098       0.22805954       1.59588050       2.00966293
C        0.05478691      -0.59317802      -0.82474363      -0.15463083       1.04813547      -2.16463931
H       -1.78936410       3.43060508       0.48803355       1.75242026      -0.83896590       0.80363613
H        3.72400216      -0.54246341       0.33185851       0.34676811      -0.15170097      -0.16448661
H        0.00412671      -1.64494119       1.04219114      -0.72213409      -0.48638867      -0.88849119
H       -1.20155735       0.65115096       1.67618346      -0.59364246      -0.12499668      -0.46303665
H        2.25048606       1.44719698       0.08704158      -0.26130841       0.44311086      -0.52735815
H       -0.17193766      -0.76941429      -1.91542947       0.40684671       0.01966397       1.25408066
