21
Properties=species:S:1:pos:R:3:forces:R:3 id=10423 bond=C-C smiles="[H:19][C:13]1([O:7][C:14]([O:9][C:15]([O:8]1)([H:21])[C:12]([H:18])([Cl:5])[Cl:6])([H:20])[C:11]([H:17])([Cl:3])[Cl:4])[C:10]([H:16])([Cl:1])[Cl:2]" dataset=PubChem energy=-87603.73540353858 pbc="F F F"
Cl      -0.94683170       3.18317053       2.72653180      -0.04392141       0.15518308      -0.62472458
Cl       0.59710071       3.51107857       0.27547685      -0.95766737       2.30925845      -0.70241966
Cl       2.41835384      -0.88327044       2.13594101      -0.49455610      -2.30387156       0.64007321
Cl       3.77831606       1.49804873       2.25678883      -0.01936452       0.28621166      -1.02455163
Cl      -2.14943739      -1.56307095      -0.10783853      -0.13038553       0.74297799       0.40961789
Cl       0.26585136      -2.80471676      -0.48158910       1.41707204      -0.53852559      -0.53136462
O        0.73283857       1.21430949       1.34192727       0.25588306      -2.17179783      -0.08082388
O       -0.83180805       1.10518540      -0.49228038       0.44532421      -1.73877037       1.38699167
O        1.36746077       0.37677915      -0.74798550      -1.19558332      -1.67105235      -0.76884454
C       -0.75773883       2.55987546       0.97014338      -8.07377200      59.69683543       3.95496268
C        2.96132235       0.34639949       1.10442953      -0.56225057       1.24746004       0.49161621
C       -0.38104774      -1.29758828       0.03123001      -0.31530892       1.10058943       1.52191723
C       -0.65472467       1.55471743       0.89339791       8.76855728     -56.21861373      -4.80806376
C        1.77090053       1.03170483       0.37477214       0.54858249       0.85959859       2.20261861
C       -0.00140263      -0.04491001      -0.78288247      -0.32617784       1.08889042      -2.17526861
H       -1.73317456       2.88233707       0.44617239       1.36401892       0.06892608       0.88307690
H        3.66781262       0.00580460       0.37371967       0.36021697      -0.14709214      -0.16002677
H       -0.05206283      -1.09667318       1.08405230      -0.71538481      -0.46785762      -0.88474071
H       -1.25774689       1.19941897       1.71804462      -0.67463207      -2.22425741      -0.49591787
H        2.19429652       1.99546499       0.12890274      -0.06692268      -0.07002352      -0.47699787
H       -0.22812720      -0.22114628      -1.87356831       0.41064268       0.00354530       1.24011241
