44
Properties=species:S:1:pos:R:3:forces:R:3 id=2080 bond=C-O smiles="[H:34][c:14]1[c:18]([c:25]([c:19]([c:20]([c:15]1[H:35])[F:2])[H:39])[C:28]([H:43])([H:44])[N:26]2[C:11](=[C:10]([N:3]=[N:4]2)[C:9](=[O:1])/[C:12](=[C:13](/[c:24]3[c:16]([c:21]([c:23]([c:22]([c:17]3[H:37])[O:7][H:31])[O:8][H:32])[O:6][H:30])[H:36])[O:5][H:29])/[H:33])[C:27]([H:40])([H:41])[H:42])[H:38]" dataset=PubChem energy=-37402.433829701 pbc="F F F"
O        0.37629606       1.30240568       3.80390032       0.17845351      -0.61496387      -3.17940295
F        4.50421919      -5.98810628       0.35956439       0.47345205       1.18885780      -0.35772747
N        1.16888424      -0.25286440       0.53440418       0.68288145       0.50751525      -0.64685880
N        2.32181074      -0.78704277       0.16709986      -2.40484467      -0.62138041      -1.02858269
O       -2.12281809       2.23447009       3.93582304      -1.65447189      -0.13866190      -2.14052042
O       -6.39500103       4.72469517       2.55666670      -1.20756360       1.70152521      -2.01710361
O       -4.24179873       3.57042678      -2.56215338      -0.28140897       0.72506124       3.21706829
O       -6.08945093       5.07229324      -0.27704195      -0.42945600       0.81724747       0.14311636
C        0.26101448       1.15395375       2.52945789      -2.06209315       0.49788643       2.92980917
C        1.28716197       0.35020771       1.76638307       1.93842705      -1.06891604       0.21078303
C        2.58633294       0.01802852       2.20579871       0.79825667       1.62471779      -0.89158429
C       -0.98502503       1.73842748       1.89739116       0.34258503      -0.31573690      -0.71358594
C       -2.16888056       2.16750702       2.55777844       4.90657831       0.05466130       0.83370741
C        5.65894784      -3.32602933      -1.98175493      -1.81949330      -1.30908505       3.80919259
C        5.44242133      -4.64783624      -1.41603986      -0.35915757       1.75549450       0.63613679
C       -4.29579220       3.49312540       2.58683511      -0.11919580       0.09109043      -1.23119968
C       -3.32757101       2.91700264       0.47300645       2.54436032      -1.70927484      -3.07051991
C        5.30583753      -2.20962814      -1.21071783      -0.26598420      -0.81277942       0.46408869
C        4.37099113      -3.56470254       0.56548270       1.05937532      -2.85186324      -0.86060882
C        4.81019105      -4.75522045      -0.16340033      -0.49106713       1.60441469      -0.89464165
C       -5.32284269       4.19614025       1.91787067       1.15243668      -0.11169397      -0.83149423
C       -4.25233183       3.66631456      -0.21898667       0.70701996      -0.84631802       1.50709794
C       -5.22283134       4.39946075       0.53026494       1.03720686      -1.43000130      -4.00274867
C       -3.20208273       2.89851543       1.87916782      -3.49142267       0.72915548      -0.22156620
C        4.65041055      -2.30444196       0.10089763       1.96928921       0.13676815      -1.24269460
N        3.17937627      -0.70282034       1.13152896      -1.76990124       3.23970169       4.73013930
C        3.42490687       0.65942957       3.30503568       1.53153445       0.74031740      -0.29513353
C        4.53866662      -1.13708273       1.15286595       0.12340914      -2.94555001      -2.65729450
H       -1.23728380       1.92358598       4.14528187       0.94367627      -0.33161780       0.50433714
H       -6.87314710       5.28372618       1.82429125       1.00630556      -1.49182262       2.29021565
H       -3.96214900       2.67536577      -2.81030206      -0.09386186       0.04582026       0.75303110
H       -5.72936974       5.09734674      -1.20567456      -0.46894916      -0.28689453       1.40204286
H       -0.81295619       1.89567527       0.80921928      -0.80331834      -0.31130840       0.96078199
H        6.03543987      -3.20547250      -2.95152370       0.68032748       0.07004196      -1.00476120
H        5.82414092      -5.48272613      -1.96040812      -0.15284098      -0.61231137      -0.03954257
H       -4.44871245       3.36664721       3.63495620       0.35376188      -0.00559357       0.54455721
H       -2.58564196       2.24225065      -0.16075507      -1.66167530       1.64292851       1.48423145
H        5.63982906      -1.31785277      -1.71422402      -0.47702625       0.77157693       0.63874012
H        3.97351613      -3.81052211       1.54540291      -0.15586072       0.49096202      -0.06572205
H        4.23089947       1.50424572       2.98894175      -1.85525848      -2.14396662      -0.05850188
H        4.03968181      -0.15943710       3.75896128      -0.64702457       0.97356920       0.24459318
H        2.78268780       1.24064311       3.99650868       0.32753601      -1.06252770      -0.18506030
H        5.23943652      -0.38823566       0.85299476       0.24809113       0.72625163       0.22714452
H        4.81797065      -1.66322998       2.07054826      -0.33809101       0.88361144       0.10678920
