16
Properties=species:S:1:pos:R:3:forces:R:3 id=39922 bond=C-S smiles="[H:12][C:8](=[C:9]([H:14])[C:11]([H:15])([H:16])[S:6][C:7](=[S:1])[S:5][C:10]([Cl:2])([Cl:3])[Cl:4])[H:13]" dataset=PubChem energy=-75351.24840007845 pbc="F F F"
S        1.28912962       2.36337099       1.71778044      -0.64079967      -0.18785103      -1.52987344
Cl      -1.91106995       2.25355286       1.32002480      -1.44231887      -0.54750127       0.95045804
Cl      -1.37127121       0.29345543      -0.77049987      -0.82680295       0.11962799       0.02315328
Cl      -2.94974645       2.74785299      -1.36324708       0.16495118      -0.31421014       0.22353704
S       -0.32358503       2.90769706      -0.75184086       7.15523069       4.46411666      -3.08515873
S        1.95121598       0.83169264      -0.72388652      -0.34492877       0.12699527      -0.59646467
C        0.91081304       1.97830818       0.14107484       2.33281065      -0.05390941       2.39937231
C        0.48466374      -1.07118406       1.89441845       1.07172959      -0.60710191      -2.69658853
C        1.28676486      -1.27416982       0.79760167      -2.06914666      -0.07817085       2.40635581
C       -1.58463128       2.05269820      -0.40215998      -5.85509955      -4.09374662       1.46114153
C        2.46434081      -0.41118904       0.53890941       0.38060484       0.01238566       0.75988629
H        0.68266869      -0.25745173       2.53431579       0.36321806       0.58441836       0.81899962
H       -0.45843571      -1.57359018       2.03835830       0.10553505      -0.31915721      -0.05545382
H        0.99371338      -2.04529395       0.08779254       0.27017125       0.21972644      -0.01664984
H        2.78952611       0.08664216       1.47325149      -0.21740141      -0.09385959      -0.71919395
H        3.31722415      -1.02272203       0.18326300      -0.44475477       0.77217840      -0.34073217
