16
Properties=species:S:1:pos:R:3:forces:R:3 id=39922 bond=C-S smiles="[H:12][C:8](=[C:9]([H:14])[C:11]([H:15])([H:16])[S:6][C:7](=[S:1])[S:5][C:10]([Cl:2])([Cl:3])[Cl:4])[H:13]" dataset=PubChem energy=-75352.03190723585 pbc="F F F"
S        1.47718037       2.49087082       1.66563504      -0.86622457      -0.18017822      -1.34392287
Cl      -2.09912070       2.12605303       1.37217020      -0.00422253      -0.11700609      -0.36079080
Cl      -1.55932196       0.16595560      -0.71835447      -0.09328216       1.27467417       0.03192823
Cl      -3.13779720       2.62035316      -1.31110168       1.00938715      -0.38475992       0.44156479
S       -0.13553428       3.03519689      -0.80398626      -1.54845575      -1.58989882       0.05913249
S        2.13926673       0.95919247      -0.77603192      -0.55690732      -0.00602455      -0.56711985
C        1.09886379       2.10580801       0.08892944       1.60530829       0.03215170       2.02500590
C        0.67271449      -0.94368423       1.84227305       1.06486861      -0.60169514      -2.69227854
C        1.47481561      -1.14666999       0.74545627      -2.08501584      -0.06918361       2.38926376
C       -1.77268203       1.92519837      -0.35001458       0.97338495       0.47525942      -0.41674785
C        2.65239156      -0.28368921       0.48676401       0.42497002       0.01246337       0.73536359
H        0.87071944      -0.12995190       2.48217039       0.36296078       0.58356241       0.81846624
H       -0.27038496      -1.44609035       1.98621290       0.10690771      -0.32216617      -0.05201200
H        1.18176413      -1.91779412       0.03564714       0.27207297       0.22370995      -0.01822039
H        2.97757686       0.21414199       1.42110609      -0.21813587      -0.09413572      -0.71982521
H        3.50527490      -0.89522220       0.13111760      -0.44476921       0.76015106      -0.32738627
