38
Properties=species:S:1:pos:R:3:forces:R:3 id=46660 bond=C-S smiles="[H:37][C@@:16]1([C@:14]([C@@:13]([O:3][C@:15]([C@:17]1([H:38])[O:5][H:20])([H:36])[O:2][C:8]([H:23])([H:24])[H:25])([H:34])[C:12]([H:32])([H:33])[S:6][C:9]([H:26])([H:27])[C:11]([H:30])([H:31])[C:10]([H:28])([H:29])[N:7]([H:21])[H:22])([H:35])[O:1][H:18])[O:4][H:19]" dataset=PubChem energy=-33246.0114591226 pbc="F F F"
O        0.86484204       2.11031702      -1.97556783      -1.19324162      -2.49162093       1.23953377
O       -1.98158187       2.02636472       2.75684808       1.72004438       0.53957696      -1.38465389
O       -1.31211299       0.99541608       0.78376751      -0.00003173       0.87388795      -0.55798617
O        1.21176353       4.24582199      -0.19607432      -0.30075376       1.70054655      -0.20944096
O       -1.36062592       4.50537446       1.35867946       2.44676466      -0.42197474      -1.30669521
S        1.52397656      -0.71765861      -1.44888688     -80.93361386     180.02923643       2.89863879
N        3.82639073      -3.55889462       1.42609965      -1.94067955      -0.21126866       1.88911761
C       -2.53072899       0.84439830       3.32004808      -0.94351637      -1.23293047      -2.20172500
C        1.91747581      -1.59301924      -1.46342033      78.29560818    -172.06888975      -2.33844719
C        2.68340562      -3.40045213       0.49647916       2.02319284       1.21333788      -1.11476493
C        2.83151577      -1.90270137      -0.14622850       1.96074210      -5.74648127       0.67858254
C        0.28763488      -0.57393494      -0.03402461      -0.18738043      -0.00669480      -0.72087912
C       -0.36566633       0.72724703      -0.31273319      -0.42193337       1.40830489       2.21572554
C        0.58346774       1.88725701      -0.53604830       2.20393114       1.97877376      -0.40069196
C       -0.89794618       1.93489245       1.76581239      -0.34022680      -1.06498696       0.72221643
C        0.10028761       3.29025820      -0.17693712      -0.18155013       1.38735035       0.30203135
C       -0.45393592       3.35685352       1.19216173      -1.54246267       0.34766136       3.49123065
H        1.55761534       2.72781042      -2.08084560       1.09965020       1.00604229       0.32358580
H        0.90620184       5.22841933      -0.06570907       0.35406220      -3.25678791      -0.38472919
H       -2.19359344       4.23923257       1.64647971      -2.03763172      -0.99394872       0.75169426
H        4.74508784      -3.65580796       1.08666825       0.77675948       0.23458600      -1.31320468
H        3.69885705      -4.38680457       1.99630135      -0.16785060       0.14686136       0.11019022
H       -2.57306594       0.88162360       4.36402463      -0.23504806       0.80612945       1.60413651
H       -3.56313771       0.64992491       2.89075612       1.12867061       0.42690321       0.56177889
H       -1.99537105      -0.09457495       3.15361713       0.44735923       0.35161711      -0.58903986
H        2.49685000      -1.59158134      -2.38774175       0.90995044      -1.76165394       0.34256664
H        1.18942730      -2.34181975      -1.60905808       0.01406546      -4.69876961      -0.08481579
H        2.75500749      -4.23340558      -0.21682483      -0.46155729       0.61354081      -0.47635214
H        1.71893392      -3.48745774       0.99663847       0.29422910       0.08797467       0.30339671
H        3.86958240      -1.76701807      -0.45847112      -0.04399226      -0.05551603      -0.03298457
H        2.65408681      -1.23756622       0.67244360      -0.54832910       0.71861917      -0.14825893
H        0.69693315      -0.56458237       0.95556174       0.77244479       0.15404036       0.49803909
H       -0.51287907      -1.33385858       0.06494905       0.44506885      -0.09612582      -0.75475797
H       -0.89856690       0.68230400      -1.18690707      -1.79895474      -0.32821159      -1.94108298
H        1.46483093       1.61522666       0.14308967      -0.43143641       0.79288045      -1.44727145
H        0.04729175       1.49544791       2.25203084      -1.23102332       0.63489865      -0.32814877
H       -0.59855253       3.67359927      -0.94596316      -0.05007081      -0.74058927       0.62497275
H        0.32404885       3.62818507       1.93135749       0.09271039      -0.27033831      -0.82102471
