38
Properties=species:S:1:pos:R:3:forces:R:3 id=46660 bond=C-S smiles="[H:37][C@@:16]1([C@:14]([C@@:13]([O:3][C@:15]([C@:17]1([H:38])[O:5][H:20])([H:36])[O:2][C:8]([H:23])([H:24])[H:25])([H:34])[C:12]([H:32])([H:33])[S:6][C:9]([H:26])([H:27])[C:11]([H:30])([H:31])[C:10]([H:28])([H:29])[N:7]([H:21])[H:22])([H:35])[O:1][H:18])[O:4][H:19]" dataset=PubChem energy=-33283.061947583956 pbc="F F F"
O        0.77489935       2.31039945      -1.97224589      -1.19354164      -2.61978979       1.27367234
O       -2.07152456       2.22644715       2.76017002       1.74539027       0.53924408      -1.43520831
O       -1.40205568       1.19549851       0.78708945       0.12928997       0.65525205      -0.69140618
O        1.12182084       4.44590442      -0.19275238      -0.31667562       1.66875181      -0.21063808
O       -1.45056861       4.70545689       1.36200140       2.46036334      -0.44142074      -1.31255052
S        1.43403387      -0.51757618      -1.44556494     -10.04833392      21.31221627       0.57884999
N        3.91633342      -3.75897705       1.42277771      -1.96266497      -0.17328668       1.82795652
C       -2.62067168       1.04448073       3.32337002      -0.95774844      -1.25097508      -2.18896100
C        2.00741850      -1.79310167      -1.46674227       9.44698102     -18.81846891       2.04338051
C        2.77334831      -3.60053456       0.49315722       1.90563484       1.28080679      -1.23551245
C        2.92145846      -2.10278380      -0.14955044      -0.02785581      -3.32335492      -1.19429543
C        0.19769219      -0.37385251      -0.03070267       0.23860137      -0.97883034      -0.76323394
C       -0.45560902       0.92732946      -0.30941125      -0.40711564       1.58204742       2.04666237
C        0.49352505       2.08733944      -0.53272636       2.22913322       2.01644540      -0.38429912
C       -0.98788887       2.13497488       1.76913433      -0.30067654      -0.99406730       0.83211553
C        0.01034492       3.49034063      -0.17361518      -0.17182004       1.41055914       0.32038412
C       -0.54387861       3.55693595       1.19548367      -1.55809002       0.35806421       3.49204047
H        1.46767265       2.92789285      -2.07752366       1.11885065       0.99835138       0.30844235
H        0.81625915       5.42850176      -0.06238713       0.35438081      -3.25213827      -0.38703735
H       -2.28353613       4.43931500       1.64980165      -2.04203808      -0.98928857       0.75290273
H        4.83503053      -3.85589039       1.08334631       0.78054810       0.22850927      -1.31737553
H        3.78879974      -4.58688700       1.99297941      -0.18017128       0.17140742       0.09353788
H       -2.66300863       1.08170603       4.36734657      -0.23297649       0.80667272       1.59996810
H       -3.65308040       0.85000734       2.89407806       1.13172564       0.42958880       0.56269327
H       -2.08531374       0.10550748       3.15693907       0.44781820       0.35146338      -0.58552138
H        2.58679269      -1.79166377      -2.39106369       0.51582263      -0.55503081       0.16999396
H        1.27936999      -2.54190218      -1.61238002      -0.50941731      -1.90494753      -0.04433910
H        2.84495018      -4.43348801      -0.22014677      -0.45217587       0.60434002      -0.48884482
H        1.80887661      -3.68754017       0.99331653       0.29797413       0.08930594       0.30376409
H        3.95952509      -1.96710050      -0.46179306      -0.05928237      -0.09286055       0.17599941
H        2.74402950      -1.43764865       0.66912166      -0.40195185       0.59486300       0.11557313
H        0.60699046      -0.36449994       0.95888368       0.91791189       0.16736813       0.45347283
H       -0.60282176      -1.13377615       0.06827099       0.51945643       0.06477206      -0.78235657
H       -0.98850959       0.88238643      -1.18358513      -1.79280319      -0.35655313      -1.95292158
H        1.37488824       1.81530909       0.14641161      -0.42209479       0.79613961      -1.43805847
H       -0.04265094       1.69553034       2.25535278      -1.24129935       0.63684085      -0.33516675
H       -0.68849522       3.87368170      -0.94264122      -0.04950949      -0.74809354       0.62064024
H        0.23410616       3.82826750       1.93467943       0.09102245      -0.27464835      -0.82113164
