38
Properties=species:S:1:pos:R:3:forces:R:3 id=46660 bond=C-S smiles="[H:37][C@@:16]1([C@:14]([C@@:13]([O:3][C@:15]([C@:17]1([H:38])[O:5][H:20])([H:36])[O:2][C:8]([H:23])([H:24])[H:25])([H:34])[C:12]([H:32])([H:33])[S:6][C:9]([H:26])([H:27])[C:11]([H:30])([H:31])[C:10]([H:28])([H:29])[N:7]([H:21])[H:22])([H:35])[O:1][H:18])[O:4][H:19]" dataset=PubChem energy=-33285.47487411827 pbc="F F F"
O        0.60625681       2.68555400      -1.96601727      -1.16880174      -2.72622271       1.26873885
O       -2.24016710       2.60160170       2.76639864       1.75503228       0.54285791      -1.45429375
O       -1.57069822       1.57065306       0.79331807       0.16687084       0.58351233      -0.72815968
O        0.95317830       4.82105897      -0.18652376      -0.32278704       1.65743411      -0.21373331
O       -1.61921115       5.08061144       1.36823002       2.46724695      -0.44868903      -1.31607720
S        1.26539133      -0.14242163      -1.43933632       0.77485476      -3.39946568       0.54766865
N        4.08497596      -4.13413160       1.41654909      -1.95192109      -0.10506329       1.74779347
C       -2.78931422       1.41963528       3.32959864      -0.96362835      -1.26078833      -2.18375394
C        2.17606104      -2.16825622      -1.47297089       0.81383805       1.98741253       2.20569812
C        2.94199085      -3.97568911       0.48692860       1.70807423       1.20441168      -1.26685403
C        3.09010100      -2.47793835      -0.15577906      -0.94278552      -1.74536365      -1.62512233
C        0.02904965       0.00130204      -0.02447405       0.20897719      -1.30942409      -0.57824577
C       -0.62425156       1.30248401      -0.30318263      -0.40197729       1.67121995       1.93671816
C        0.32488251       2.46249399      -0.52649774       2.21138367       2.03814892      -0.33103546
C       -1.15653141       2.51012943       1.77536295      -0.28467168      -0.97204618       0.87540885
C       -0.15829762       3.86549518      -0.16738656      -0.16318999       1.42168208       0.32782029
C       -0.71252115       3.93209050       1.20171229      -1.56705818       0.36039794       3.49274317
H        1.29903011       3.30304740      -2.07129504       1.13630178       0.99938467       0.29741424
H        0.64761661       5.80365631      -0.05615851       0.35511317      -3.24956638      -0.38794528
H       -2.45217867       4.81446955       1.65603027      -2.04393702      -0.98822077       0.75329632
H        5.00367307      -4.23104494       1.07711769       0.78609330       0.22271306      -1.31631870
H        3.95744228      -4.96204155       1.98675079      -0.20282834       0.18529983       0.08096369
H       -2.83165117       1.45686058       4.37357519      -0.23219622       0.80749432       1.59869834
H       -3.82172294       1.22516189       2.90030668       1.13333673       0.43065019       0.56297836
H       -2.25395628       0.48066203       3.16316769       0.44748059       0.35199100      -0.58502276
H        2.75543523      -2.16681832      -2.39729231       0.04818859       0.61776922       0.28410239
H        1.44801253      -2.91705673      -1.61860864      -1.34159408      -0.38310385       0.15381930
H        3.01359272      -4.80864256      -0.22637539      -0.44481390       0.59906124      -0.49429281
H        1.97751915      -4.06269472       0.98708791       0.31024531       0.09496477       0.29518227
H        4.12816763      -2.34225505      -0.46802168      -0.11009245      -0.08524842       0.17162479
H        2.91267204      -1.81280320       0.66289304      -0.27491519       0.49587623       0.22220286
H        0.43834792       0.01065461       0.96511230       0.94475778       0.18418105       0.39536927
H       -0.77146430      -0.75862160       0.07449961       0.56999736       0.16901732      -0.80034323
H       -1.15715213       1.25754098      -1.17735651      -1.79724371      -0.36547699      -1.95807507
H        1.20624570       2.19046364       0.15264023      -0.41736784       0.79891388      -1.43453571
H       -0.21129348       2.07068489       2.26158140      -1.24566029       0.63796047      -0.33861560
H       -0.85713776       4.24883625      -0.93641260      -0.05056227      -0.75052978       0.61730273
H        0.06546362       4.20342205       1.94090805       0.09061630      -0.27588537      -0.82196904
