38
Properties=species:S:1:pos:R:3:forces:R:3 id=25705 bond=C-N smiles="[H:23][C:11]1([C:5]2=[C:6]([C:12]([C:18]([C:17]1([H:35])[H:36])([H:37])[H:38])([H:25])[H:26])[N:7]([C:4](=[N:2]2)[C:3](=[O:1])[N:8]3[C:13]([C:15]([N:9]([C:16]([C:14]3([H:29])[H:30])([H:33])[H:34])[C:10]([H:20])([H:21])[H:22])([H:31])[H:32])([H:27])[H:28])[H:19])[H:24]" dataset=PubChem energy=-21824.892173641725 pbc="F F F"
O        2.09114404       3.42726536       1.55132128       0.62803491      -2.57233156      -1.54799052
N        1.73510297       1.43640466      -1.36518274      -3.14417911       0.90728466       0.37490137
C        2.31414695       2.32630212       0.93516470       0.14167087       3.02741222       4.04722060
C        1.47907849       2.08301754      -0.22101985       1.34712289      -0.60071754      -1.46801319
C        0.40525510       1.37638129      -1.90978824      -0.34666047      -1.08937408       0.41639321
C       -0.53020457       1.81920822      -0.98291610      -1.83800258      -0.20416392      -4.03102844
N        0.18395509       2.46012969      -0.06653766      -0.66249042       0.05667675       3.26585139
N        3.09834035       1.38146801       1.56996490       0.09693222      -1.55600271      -0.97317058
N        1.85849352      -0.70762150       3.15645374      -0.81191937      -1.87664506       0.97751883
C        0.72325644      -2.08631554       4.01659599       0.49564636       3.01785827      -0.63829315
C       -0.06288145       0.87022370      -3.27667080       0.10489176       1.68940176       0.93694879
C       -2.09321897       1.69549806      -1.21474634       2.26139163       2.01614118      -1.79366984
C        3.04628499      -0.04071038       1.11810507      -1.20506601      -0.60740290      -0.14828082
C        3.20664437       1.39564813       3.03238310      -1.06631106      -0.99073334       0.14302695
C        1.71308120      -0.63524561       1.65797903      -1.05757475      -0.59416900       1.43214206
C        1.98602779       0.67025977       3.76127423       0.28440310      -0.58880394       0.50901287
C       -1.50722568       0.41921537      -3.31335627      -1.02807843      -1.92828302      -0.79180692
C       -2.52374474       1.42475642      -2.69303904       0.87653482      -2.37048346       0.75377825
H       -0.21022276       2.81855578       0.82344957       0.87992985      -0.28369339      -1.02861233
H        0.66713452      -1.76829806       5.08017459       0.45749459      -0.32707900      -0.92974703
H        1.05846884      -3.09286299       3.82566181       1.31391584       0.18999555       0.06245380
H       -0.28769830      -2.14372936       3.61713067      -0.04811852       0.97225054      -0.28887851
H        0.03214659       1.72954769      -3.96549664       0.43252936      -0.65657780      -0.06063301
H        0.51397662       0.02623732      -3.51997267       1.07665360      -0.70256073      -0.90442670
H       -2.65606181       2.56546087      -0.98062860      -0.01167213       1.08892086       0.78477373
H       -2.45324294       0.95385253      -0.60662686      -0.78604080      -2.01617697       1.40445862
H        3.76191194      -0.74606817       1.54486538       0.53983948       1.00595991       0.68640792
H        3.25166948      -0.20976804       0.05925108      -0.76489342       0.74422760      -0.04978575
H        4.07745273       0.83245463       3.30827941       0.47156241      -0.24071045      -0.11804053
H        3.32734664       2.38244505       3.39154161      -0.15042166       0.97631633       0.25369364
H        1.51073571      -1.69152408       1.27762980       0.17735213       1.61744136       0.33322680
H        0.83588946       0.05550916       1.58985247       0.51465248      -0.63312083      -1.29026929
H        1.10689847       1.39717503       3.81674517       0.64275507      -1.21441118      -0.49350245
H        2.32427151       0.48148589       4.81839693      -0.40822211       0.42885378      -0.96358091
H       -1.76814739       0.07594980      -4.37037383       0.21449800       1.17577825       0.99276802
H       -1.53509227      -0.61098318      -2.87069140      -0.25760540       1.02746401       0.52889155
H       -2.51153485       2.29938586      -3.33403479      -0.34680820       0.26150036       0.29168712
H       -3.53591601       0.93317286      -2.58072983       0.97856049       0.84785212      -0.67462636
