38
Properties=species:S:1:pos:R:3:forces:R:3 id=25705 bond=C-N smiles="[H:23][C:11]1([C:5]2=[C:6]([C:12]([C:18]([C:17]1([H:35])[H:36])([H:37])[H:38])([H:25])[H:26])[N:7]([C:4](=[N:2]2)[C:3](=[O:1])[N:8]3[C:13]([C:15]([N:9]([C:16]([C:14]3([H:29])[H:30])([H:33])[H:34])[C:10]([H:20])([H:21])[H:22])([H:31])[H:32])([H:27])[H:28])[H:19])[H:24]" dataset=PubChem energy=-21825.538212111787 pbc="F F F"
O        2.05287762       3.38079252       1.58031484       0.62548752      -2.56954691      -1.54743235
N        1.69683655       1.38993182      -1.33618918      -3.14495223       0.90748272       0.37501965
C        2.27588053       2.27982928       0.96415826       0.14807829       3.02264267       4.04982981
C        1.44081207       2.03654470      -0.19202629       1.34828673      -0.60071061      -1.46908239
C        0.36698868       1.32990845      -1.88079468      -0.34715909      -1.08913077       0.41642202
C       -0.56847099       1.77273538      -0.95392254      -1.83884826      -0.20466175      -4.03195723
N        0.14568867       2.41365685      -0.03754410      -0.66294319       0.05618980       3.26630971
N        3.06007393       1.33499517       1.59895846       0.08912418      -1.55537318      -0.97800078
N        1.82022710      -0.75409434       3.18544730      -1.13494268      -2.04758549       1.00700697
C        0.76152286      -2.03984270       3.98760243       0.82889983       3.39978359      -0.81342980
C       -0.10114787       0.82375086      -3.24767724       0.10470888       1.68943511       0.93693232
C       -2.13148539       1.64902522      -1.18575278       2.26138376       2.01628266      -1.79374247
C        3.00801857      -0.08718322       1.14709863      -1.23649528      -0.62840945      -0.19878771
C        3.16837795       1.34917529       3.06137666      -1.10470149      -0.97189456       0.19980531
C        1.67481478      -0.68171845       1.68697259      -0.88948198      -0.56992980       1.44005426
C        1.94776137       0.62378693       3.79026779       0.41676421      -0.59524201       0.45909578
C       -1.54549210       0.37274253      -3.28436271      -1.02791732      -1.92816007      -0.79179993
C       -2.56201116       1.37828358      -2.66404548       0.87642070      -2.37059382       0.75377384
H       -0.24848918       2.77208294       0.85244313       0.88005666      -0.28286145      -1.02889160
H        0.70540094      -1.72182522       5.05118103       0.37022433      -0.44651388      -0.87370462
H        1.09673526      -3.04639015       3.79666825       1.23673523       0.14799186       0.12779581
H       -0.24943188      -2.09725652       3.58813711      -0.09833913       0.91831613      -0.23942358
H       -0.00611983       1.68307485      -3.93650308       0.43257150      -0.65659448      -0.06057186
H        0.47571020      -0.02023552      -3.49097911       1.07669000      -0.70253797      -0.90445692
H       -2.69432823       2.51898803      -0.95163504      -0.01171661       1.08893620       0.78476105
H       -2.49150936       0.90737969      -0.57763330      -0.78632904      -2.01622306       1.40438028
H        3.72364552      -0.79254101       1.57385894       0.53211581       1.00669846       0.68566772
H        3.21340306      -0.25624088       0.08824464      -0.75522387       0.75495491      -0.04951311
H        4.03918631       0.78598179       3.33727297       0.47177329      -0.24232787      -0.11748787
H        3.28908022       2.33597221       3.42053517      -0.13978626       0.97686778       0.24445545
H        1.47246929      -1.73799692       1.30662336       0.17142744       1.60725586       0.33306870
H        0.79762304       0.00903632       1.61884603       0.50518160      -0.63312604      -1.27447855
H        1.06863205       1.35070219       3.84573873       0.62431146      -1.22548591      -0.49265555
H        2.28600509       0.43501305       4.84739049      -0.40793337       0.42918120      -0.95668574
H       -1.80641381       0.02947696      -4.34138027       0.21449415       1.17576922       0.99285398
H       -1.57335869      -0.65745602      -2.84169784      -0.25765517       1.02734823       0.52887335
H       -2.54980127       2.25291302      -3.30504123      -0.34680353       0.26150641       0.29176176
H       -3.57418243       0.88670002      -2.55173627       0.97858216       0.84786507      -0.67463239
