25
Properties=species:S:1:pos:R:3:forces:R:3 id=2288 bond=C-N smiles="[C:25]([C:24]([N:18]([C:22]([C:19]([F:1])([F:2])[F:3])([F:10])[F:11])[C:23]([C:20]([F:4])([F:5])[F:6])([F:12])[F:13])([F:14])[F:15])([C:21]([F:7])([F:8])[F:9])([F:16])[F:17]" dataset=PubChem energy=-54965.90445357805 pbc="F F F"
F       -0.19196514      -1.57615254       0.45890295      -0.33983803       0.17960037      -0.52455495
F        1.64117148      -2.80358503       0.57264796      -1.53786146       2.91892885       1.74641715
F        0.37432968      -2.31146763       2.42546739       1.73858250       1.49425610      -2.51371739
F        0.32164866       0.18437451       4.31013825       0.59443348      -0.53125745      -2.01635943
F       -1.22380326       1.44246437       4.20237639      -2.16834013       1.60290673      -0.93180628
F       -1.39171026      -0.43674592       3.19425633      -1.40691694      -1.37234102      -1.22884480
F        0.31455935       1.08368935      -4.01945493      -0.92546550       0.30216090       3.17451533
F        2.08130815       1.66228320      -3.07556651      -1.26489089       0.36216734       1.87354921
F        0.24805277       2.90502550      -2.68052314       0.69123114      -3.02359957       0.14289200
F        2.75211288      -0.31242511       0.52417436      -2.15809483      -0.92347161       1.43648303
F        2.00990918      -0.06937401       2.59872081       0.98629449      -2.10275850       0.58581930
F        0.15457692       2.59994557       2.45977034      -0.61639131      -0.14705650      -0.46448388
F       -1.40890858       1.35424330       1.37817617       0.56513447       1.06334867       0.07062704
F        0.37686073       2.82091596      -0.13722370      -2.82602733      -1.65460565      -0.29936301
F        2.13871290       1.98965730      -0.19586132       4.00369799      -1.06932256      -1.98484854
F       -0.83371101       0.52566997      -1.56644246       0.84515726      -0.43649353       0.77796075
F        1.25534501      -0.43352923      -1.79831002      -1.89584217       2.39480999       1.29979699
N        0.83609109       0.87618845       1.11720820      -2.10771306      -1.18106918      -1.37736320
C        0.85990816      -1.76352999       1.19690844       0.60057072      -3.57145160       1.15417219
C       -0.65542171       0.58180700       3.37994005       3.39233583       0.99148372       3.55358534
C        0.73189246       1.58771863      -2.75652072       2.59005936       3.44276420      -6.47222809
C        1.62805846      -0.37838224       1.37058231       0.90978070       3.32695045      -0.81756805
C       -0.20785574       1.38610115       2.03965904       0.27582843      -1.95624134       0.12727486
C        0.92234679       1.55000593      -0.22031657      -0.03479560       1.49963038       2.78023563
C        0.49592135       0.76453121      -1.54927967       0.06671863      -1.62791106      -0.07491154
