29
Properties=species:S:1:pos:R:3:forces:R:3 id=40516 bond=C-N smiles="[H:19][c:6]1[c:9]2[c:10]3[c:8]([c:5]([c:7]1[Cl:1])[H:18])[S:2][C:13]([C:15]([N:11]3[C:3](=[C:4]2[C:14]([H:24])([H:25])[C:16]([H:28])([H:29])[N:12]([H:20])[H:21])[H:17])([H:26])[H:27])([H:22])[H:23]" dataset=PubChem energy=-39006.62986454816 pbc="F F F"
Cl       4.13010780       2.39310653      -2.43061883      -0.33938311      -0.25788311       0.68527045
S        3.52839366       1.76656658       3.06693856       0.13442588      -0.66640424       0.42289000
C       -0.19630977      -0.25847476       1.39163952      -1.70910140       0.12202294      -0.53805475
C       -0.13869937       0.00453205       0.04062025       1.97517614       0.17565822       0.94096246
C        3.68992440       1.85510058       0.26120804       0.21719712       0.67989263       2.32692877
C        1.96955649       1.19125766      -1.22458680      -0.86682587      -0.42693692      -0.52862638
C        3.21229879       1.80267913      -1.05078967      -0.86904328      -1.04457949       0.97892747
C        2.98251311       1.47258378       1.41303407      -2.06042984      -1.06280869      -1.95020590
C        1.16228108       0.66264660      -0.17732967       1.75711843       0.84405303       1.95970471
C        1.75039236       0.82497687       1.13994263      -0.77024397      -0.23991455       0.57028141
N        0.87798063       0.26219461       2.07374005       0.55022692       0.24379060       1.50135919
N       -3.19900953      -0.84522584      -2.16486705       1.38470926      -2.82101793       1.61373637
C        1.92713753       1.62063939       3.95096581      -2.01284169       0.61218603      -0.55657823
C       -1.09230454      -0.19957071      -1.06433256       0.22093592       0.42985736       0.03481407
C        1.03562484       0.37068253       3.59685223       1.55804591       1.64307695      -2.88526731
C       -2.39771087      -0.91928189      -0.82950170      -0.58293379       1.71466751      -2.07935956
H       -1.08848889      -0.70401996       1.88504498       1.14176880       0.40446055      -0.13473587
H        4.57320634       2.26905471       0.68835972       1.24067316       0.75739025      -1.35043120
H        1.59092633       1.06574530      -2.21724017      -0.04842063       0.16987512      -0.54342902
H       -3.64766633       0.00053224      -2.32364166      -0.55440059       1.63489091      -0.23712888
H       -2.75106012      -1.22903421      -3.02799595      -0.30383775       0.70397898       1.64647979
H        1.36880163       2.52462680       3.54936282       0.40394093      -1.07071426       0.85233608
H        1.98971693       1.71127755       5.07719819       0.47950160      -0.08149736      -1.49279795
H       -1.38403793       0.81695364      -1.33142836       0.16981847      -0.03953014      -0.65523555
H       -0.51494248      -0.67105954      -1.86332972      -0.40474143       0.16776097      -0.29268395
H        1.35660188      -0.51351791       4.02006428       1.93158279      -2.00719080       0.28427034
H        0.11731489       0.36024540       4.07949440      -2.25616435       1.18872180       0.32367967
H       -2.90095766      -0.41166787       0.02646290      -0.23278719      -0.41009573      -0.99732685
H       -2.20644339      -1.91428631      -0.54417928      -0.15907894      -1.36689543       0.10047961
