29
Properties=species:S:1:pos:R:3:forces:R:3 id=40516 bond=C-N smiles="[H:19][c:6]1[c:9]2[c:10]3[c:8]([c:5]([c:7]1[Cl:1])[H:18])[S:2][C:13]([C:15]([N:11]3[C:3](=[C:4]2[C:14]([H:24])([H:25])[C:16]([H:28])([H:29])[N:12]([H:20])[H:21])[H:17])([H:26])[H:27])([H:22])[H:23]" dataset=PubChem energy=-39002.74333747321 pbc="F F F"
Cl       4.34760315       2.37300560      -2.06816252      -0.35300947      -0.26548168       0.70417770
S        3.74588901       1.74646565       3.42939487       0.13056349      -0.66994396       0.41631302
C        0.02118558      -0.27857569       1.75409583      -1.67749077       0.13417486      -0.47535756
C        0.07879598      -0.01556888       0.40307656       1.87295728       0.07126878       1.26882902
C        3.90741975       1.83499965       0.62366435       0.20405607       0.67182883       2.33589832
C        2.18705184       1.17115673      -0.86213049      -0.86989396      -0.42807012      -0.54511098
C        3.42979414       1.78257820      -0.68833336      -0.86075032      -1.03987057       0.95691100
C        3.20000846       1.45248285       1.77549038      -2.04823929      -1.05322087      -1.94832723
C        1.37977643       0.64254567       0.18512664       1.75693367       0.86138154       1.86064668
C        1.96788771       0.80487594       1.50239894      -0.82155844      -0.26200685       0.53438216
N        1.09547598       0.24209368       2.43619636       0.48230331       0.20876660       1.46541478
N       -3.41650488      -0.82512491      -2.52732336       1.51411082      -3.58662988       2.03859610
C        2.14463288       1.60053846       4.31342212      -2.01483472       0.61541254      -0.56313786
C       -0.87480919      -0.21967164      -0.70187625      -0.68776030       0.37321005      -1.32178844
C        1.25312019       0.35058160       3.95930854       1.55804398       1.64017930      -2.85063698
C       -2.18021552      -0.93938282      -0.46704539       0.39432810       2.04427326      -0.40762502
H       -0.87099354      -0.72412089       2.24750129       1.14330878       0.40534125      -0.12381515
H        4.79070169       2.24895378       1.05081603       1.23939244       0.75546317      -1.35194519
H        1.80842168       1.04564437      -1.85478386      -0.04724265       0.17087203      -0.54043438
H       -3.86516168       0.02063317      -2.68609797      -0.24708583       2.19725780       0.01767038
H       -2.96855547      -1.20893328      -3.39045226       0.20699647       0.82408095       1.50025456
H        1.58629698       2.50452587       3.91181913       0.40474205      -1.07010164       0.85435677
H        2.20721228       1.69117662       5.43965450       0.47792107      -0.08327210      -1.49497550
H       -1.16654258       0.79685271      -0.96897205       0.23775786      -0.04224753      -0.63815870
H       -0.29744713      -0.69116047      -1.50087341      -0.38850639       0.21788201      -0.24036880
H        1.57409723      -0.53361884       4.38252059       1.93057288      -2.00653076       0.27807721
H        0.33481024       0.34014447       4.44195071      -2.25484763       1.18828172       0.32164043
H       -2.68346231      -0.43176880       0.38891921      -0.67274506      -0.25251057      -1.39206803
H       -1.98894804      -1.93438724      -0.18172297      -0.61578861      -1.62298373      -0.65717552
