27
Properties=species:S:1:pos:R:3:forces:R:3 id=24416 bond=C-N smiles="[H:15][C:5]([H:16])([H:17])[C:7]([H:21])([H:22])[O:1][C:9]([H:25])([C:10]([H:26])([H:27])[N:3]([H:11])[C:4]([H:12])([H:13])[H:14])[O:2][C:8]([H:23])([H:24])[C:6]([H:18])([H:19])[H:20]" dataset=PubChem energy=-13123.07077517298 pbc="F F F"
O        0.67952106      -0.37315092      -1.09505165       0.07493834      -0.05884204       0.08049959
O        1.45302553      -0.35834388       1.09144599       0.43973993       0.21195814      -0.88428261
N       -0.66185924       3.03366806       0.75783421       1.85060463       1.21419785      -0.06766136
C       -1.06621858       4.22330930      -0.05422773       0.79555525      -1.57461403      -0.14978435
C       -0.68182920      -2.40665004      -0.87808108       0.24718570       0.19182638       0.35571491
C        2.52824808      -0.86389182       3.18606376      -0.17656420       1.13668032       0.02599495
C        0.61790407      -1.79581878      -1.33366286       1.33760677      -0.35586040       1.18125752
C        2.36638583       0.16076149       2.07245469      -0.62171275      -0.14793930      -0.24451000
C        1.68515600       0.14887100      -0.24769312      -2.11301635      -0.08865023       0.90562066
C        1.61933089       1.68756773      -0.35543090       0.05821065      -0.97435103      -0.97122527
H       -1.43777426       2.39816906       0.90440958      -0.05272517      -0.33500061      -0.70134358
H       -0.17952854       4.76566388      -0.43855508      -0.47993715      -0.27376197       0.60424376
H       -1.65468629       3.94096639      -0.91480632      -0.29315460       0.00104944      -0.41368721
H       -1.69807276       4.88074090       0.55265274       0.22514597      -0.03598209       0.20676141
H       -0.65575420      -3.48945663      -1.02446103      -0.00483912       0.14435351      -0.11782715
H       -1.43851148      -1.97274873      -1.49941253      -0.91571148       0.06619807       0.08184595
H       -0.82679783      -2.21667645       0.19870202      -0.14796689       0.08940550      -0.60599123
H        2.94601823      -1.75897572       2.80143643       0.22998108      -0.91196409      -0.41239318
H        3.20728791      -0.50192366       3.95242810       0.03773557       0.19964606       0.06309026
H        1.57645733      -1.06204793       3.65174437      -0.29191445      -0.16146153       0.09844740
H        1.38464559      -2.30944130      -0.73824340       0.24598051       0.36955692      -0.20567278
H        0.82545233      -2.02971313      -2.38015222      -0.11760344       0.40143824      -0.02442520
H        1.97216476       1.12485345       2.41802406       0.15622948      -0.20245247       0.11249426
H        3.31595434       0.33550399       1.58887315       0.51508329       0.13275584      -0.08500824
H        2.66034353      -0.22023390      -0.59869385       0.23922036       0.28071568       0.14050847
H        2.52035213       2.15580084       0.06009609      -0.86655245       0.30851354       0.37303686
H        1.50148402       1.91042306      -1.42627573      -0.37363948       0.37302899       0.65613018
