25
Properties=species:S:1:pos:R:3:forces:R:3 id=25289 bond=C-O smiles="[H:13][C:5]1=[C:3]([S:2][C:4](=[C:6]1[C:11]([C:8]([H:17])([H:18])[H:19])([C:9]([H:20])([H:21])[H:22])[C:10]([H:23])([H:24])[H:25])[O:1][C:7]([H:14])([H:15])[H:16])[H:12]" dataset=PubChem energy=-22452.471533701577 pbc="F F F"
O        0.30903631      -1.10181502      -0.70840814      -0.99919952      -1.39184739      -0.14430184
S       -1.10709355      -1.79211179       1.58642325       0.27033195       0.53134063       0.02902712
C       -1.05354950      -0.62896720       2.88680503       0.38375811       0.57565707      -0.56231321
C       -0.14062378      -0.76551441       0.54194049       0.98949600       1.16901787       0.82422309
C       -0.32155583       0.47471341       2.51925323      -0.22358989       0.36553306       0.30022440
C        0.25958535       0.42227929       1.19115261      -0.33443550      -0.49923179      -0.18601926
C       -0.12375424      -2.39194230      -1.30182128       0.63017234       0.47044952       0.85466892
C        0.30868893       2.12145087      -0.60970059       0.52893361      -0.65652152      -1.72274374
C        2.52386024       1.13571688       0.10410170      -1.35439692      -1.27503270      -0.00978174
C        1.23954763       2.78766760       1.50378469       0.26473970      -0.52047132       0.85822381
C        1.10010698       1.58148738       0.54766479       0.06566733      -0.01583098       0.70166173
H       -1.59978185      -0.74988476       3.82359502       0.19939565      -0.19113032      -0.59118279
H       -0.27158234       1.37243100       3.19698522       0.15342895      -1.20898200      -0.91729368
H       -1.19604741      -2.58563928      -1.20707505       0.16429313       0.30192511       0.28469724
H        0.45697947      -3.23906449      -0.88069110      -0.38349659       0.64269159       0.03650260
H        0.10748358      -2.33914951      -2.35451620       0.12992759       0.29011463      -0.15154853
H        0.07422661       1.34320166      -1.33560183       0.10400705      -0.05389332      -0.03158375
H        0.85871457       2.88825043      -1.14409401       0.23838687       0.18764652      -0.04561173
H       -0.61591706       2.54799398      -0.33160528      -1.00737521       0.42503134       0.63299361
H        3.09907141       1.93015655      -0.29908916       0.37148651       0.99697336      -0.19251695
H        2.44018807       0.39176130      -0.69534793      -0.00862030       0.00356157       0.23149463
H        3.06329288       0.67982301       0.92552463       0.07247993      -0.00372039       0.17580686
H        1.60455885       2.45708832       2.48462043      -0.00552328       0.08224906      -0.15319878
H        1.98603513       3.52298172       1.14710907      -0.67596259      -0.34185649      -0.10643880
H        0.25249147       3.23964294       1.67205677       0.42919651       0.12054245      -0.11334558
