25
Properties=species:S:1:pos:R:3:forces:R:3 id=25289 bond=C-O smiles="[H:13][C:5]1=[C:3]([S:2][C:4](=[C:6]1[C:11]([C:8]([H:17])([H:18])[H:19])([C:9]([H:20])([H:21])[H:22])[C:10]([H:23])([H:24])[H:25])[O:1][C:7]([H:14])([H:15])[H:16])[H:12]" dataset=PubChem energy=-22452.510202107496 pbc="F F F"
O        0.30590015      -1.11116377      -0.71270824      -0.88502846      -0.97689900       0.07105880
S       -1.11022971      -1.80146054       1.58212315       0.26778423       0.52515811       0.02969834
C       -1.05668566      -0.63831595       2.88250493       0.38622665       0.57259283      -0.57206660
C       -0.14375994      -0.77486316       0.53764039       1.00379366       1.20970550       0.84851144
C       -0.32469199       0.46536466       2.51495313      -0.22005292       0.37065913       0.29746920
C        0.25644919       0.41293054       1.18685251      -0.33755353      -0.50230291      -0.18244180
C       -0.12061808      -2.38259355      -1.29752118       0.54460810       0.16827251       0.68668811
C        0.30555277       2.11210212      -0.61400069       0.52833001      -0.65685529      -1.72263680
C        2.52072408       1.12636813       0.09980160      -1.35438973      -1.27568677      -0.00961647
C        1.23641147       2.77831885       1.49948459       0.26455047      -0.52045425       0.85852707
C        1.09697082       1.57213863       0.54336469       0.06678435      -0.01495296       0.70144583
H       -1.60291801      -0.75923351       3.81929492       0.19900231      -0.19219660      -0.59167446
H       -0.27471850       1.36308225       3.19268512       0.15356731      -1.20905758      -0.91755601
H       -1.19291125      -2.57629053      -1.20277495       0.14794162       0.26131725       0.26279575
H        0.46011563      -3.22971574      -0.87639100      -0.39494484       0.58933796       0.01707614
H        0.11061974      -2.32980076      -2.35021610       0.11418748       0.23835781      -0.17301905
H        0.07109045       1.33385291      -1.33990193       0.10401606      -0.05311539      -0.03186917
H        0.85557841       2.87890168      -1.14839411       0.23825716       0.18720544      -0.04527230
H       -0.61905322       2.53864523      -0.33590538      -1.00735499       0.42500551       0.63280176
H        3.09593525       1.92080780      -0.30338926       0.37116271       0.99670512      -0.19240286
H        2.43705191       0.38241255      -0.69964803      -0.00805443       0.00408552       0.23139187
H        3.06015672       0.67047426       0.92122453       0.07257973      -0.00363641       0.17571120
H        1.60142269       2.44773957       2.48032033      -0.00549296       0.08233445      -0.15332092
H        1.98289897       3.51363297       1.14280897      -0.67608404      -0.34209950      -0.10643061
H        0.24935531       3.23029419       1.66775667       0.42930143       0.12057760      -0.11340208
