43
Properties=species:S:1:pos:R:3:forces:R:3 id=13843 bond=C-S smiles="[H:29][c:11]1[c:14]([c:21]([c:15]([c:17]([c:12]1[H:30])[Br:1])[H:33])[S:7][c:10]2[c:22]3[c:9]([n:2][c:8]([n:3]2)[H:28])[O:4][c:20]4[c:13]([c:18]([c:19]([c:16]([c:23]4[C:27]([N:24]3[H:35])([H:42])[H:43])[H:34])[O:6][C:26]([H:39])([H:40])[H:41])[O:5][C:25]([H:36])([H:37])[H:38])[H:31])[H:32]" dataset=PubChem energy=-111474.58604295352 pbc="F F F"
Br      -5.53112953       5.94378454       1.29632356       0.19598455      -0.05629104       0.13452157
N        0.29773618       2.07754836      -2.33563856      -0.05151121      -0.42769271       0.32965097
N       -1.11895003       2.84401223      -0.62525068      -0.63062884      -2.54658906       1.49206835
O        1.17240921      -0.01645616      -2.45211748      -1.48032559       0.78380287      -0.20206373
O        5.58932612      -1.16902688      -1.02983550      -0.61800518       0.29821619      -0.26821952
O        4.63016055      -3.02194717       0.64775815      -0.37476935       0.50492996       0.19480357
S       -2.60041301       1.18098040       2.14155539       1.24337419       0.68685844      -2.43167627
C       -0.43115690       3.03508303      -1.76348380       0.22916555      -1.36027024       0.71386796
C        0.32307465       0.85780960      -1.79703025       0.01266707       0.96535176      -0.36552117
C       -1.16526892       1.60564718      -0.09072663       0.25103578       2.63053755      -1.23731616
C       -3.03266685       4.50195534       4.32468089       0.45237728      -0.09700424       0.24147812
C       -3.88280456       5.31647856       3.58483227      -0.23728036      -0.16943037      -0.75746261
C        3.32156870      -0.68025282      -1.84885768       0.65152000      -0.01452396       0.69326747
C       -2.57541387       3.25731642       3.84431179      -0.49838796       0.93306228       0.26800329
C       -3.93740814       3.62247641       1.85878452       0.03113290       0.66786506      -0.46793827
C        2.29366586      -2.58623746      -0.08511848       2.06393630       1.24399474      -0.48921169
C       -4.34493750       4.88694079       2.33047541       0.83318918      -1.45884636       0.36913083
C        4.22191975      -1.36884585      -1.01628641      -0.00225973      -0.19126804      -0.17364834
C        3.71284387      -2.34071567      -0.12514825      -1.00806671      -0.41306766       0.24523123
C        1.95968399      -0.83373085      -1.69718067       0.26821353      -1.05686452       1.14138351
C       -3.05336373       2.82334502       2.62186213      -0.34044609      -0.14562990      -0.88979283
C       -0.47408452       0.52268608      -0.67654768      -1.00379536      -1.80473521       2.01995184
C        1.42368648      -1.78503921      -0.82040367       0.22934275      -0.78964067      -0.51994969
N       -0.59417656      -0.77153972      -0.08312292      -0.84001584       0.79662366       0.12681171
C        6.04993603      -0.00172904      -1.72121064       0.35405467       0.39570598       0.39137101
C        4.17198155      -3.55092838       1.90241356      -0.04361201       0.38632270       0.05456595
C       -0.07184811      -1.99835780      -0.69162033       0.47797885       1.03273895      -0.69468812
H       -0.40072968       4.01330564      -2.21939734      -0.20174371       0.02123207       0.13976204
H       -2.69537943       4.89959461       5.28281268       0.01106132      -0.31790227      -0.25933292
H       -4.17236631       6.30592711       3.91490754       0.05640493      -0.18376867       0.24119975
H        3.66004035       0.05491516      -2.56033305       0.05082003       0.03005747       0.05338738
H       -1.87877720       2.59583266       4.34870895      -0.13728770       0.44774428       0.25596486
H       -4.21342724       3.32130034       0.83743750       0.01253335      -0.04057793       0.77511982
H        1.88087985      -3.35282710       0.53363000       0.02238580      -0.26080355       0.35227428
H       -1.28913715      -0.88022044       0.67723651       0.80191159       0.46990975      -1.14840116
H        7.15063402       0.07436684      -1.60399131      -0.79819451      -0.28251058       0.23261457
H        5.57929680       0.91886848      -1.31530289       0.23575975      -0.56473466      -0.17640351
H        5.86569521      -0.04532423      -2.79023198      -0.20722743      -0.15324364      -0.13151220
H        5.05445931      -3.82373502       2.51351758      -0.43259382       0.35701845      -0.55766405
H        3.62096689      -4.46051815       1.69284936      -0.28518384      -0.15798476       0.24402989
H        3.53270934      -2.82052639       2.46900697       0.58685677      -0.61501218      -0.62684105
H       -0.26574256      -2.84696510      -0.03799863      -0.07425473       0.23295277       0.00752349
H       -0.52351406      -2.21747234      -1.68946997       0.20030267       0.22214034       0.68290534
