22
Properties=species:S:1:pos:R:3:forces:R:3 id=29370 bond=C-N smiles="[H:13][c:4]1[c:5]([c:7]([c:9]([c:8]([c:6]1[H:15])[H:17])[S:3][C:12]([H:21])([H:22])[N:10]([C:11]([H:18])([H:19])[H:20])[N:2]=[O:1])[H:16])[H:14]" dataset=PubChem energy=-24329.09141539777 pbc="F F F"
O        1.88858609       4.39293737       3.28463019       1.18197190      -2.52646408      -1.58544350
N        2.15011709       3.27475590       2.76792348      -2.49264065       2.48799199       0.87400512
S        1.15625214       1.45993194      -0.11967441       0.35093493      -0.42681906      -0.34576946
C       -0.03852821      -2.85028734      -0.97984847       0.18516950       0.19482254      -0.16338117
C        1.28607749      -2.43124213      -1.15598401      -0.62333739      -0.02641463       0.09168194
C       -0.95687247      -1.95475283      -0.44288704       0.00419810       0.41547567       0.16860564
C        1.64793812      -1.11939111      -0.84461662       0.49899536      -0.71807912       0.11229674
C       -0.60378421      -0.63700357      -0.12907388       0.61435389      -0.84659519      -0.26089750
C        0.71856584      -0.21859130      -0.33021119      -0.51764485      -0.61319992      -0.61057341
N        1.16280442       2.86227555       1.91976012       0.78009648       7.57043730       2.12741917
C        0.05311828       3.75913996       1.49723871       0.24365575      -0.35708289       0.47132883
C        1.03878074       1.59665659       1.69255760      -1.00750622      -5.81009245      -1.48860632
H       -0.39028729      -3.83872356      -1.29732701       0.38176813       0.38826139       0.29250945
H        2.02713203      -3.12859097      -1.52768144      -0.04820585       0.14745289      -0.03875721
H       -1.97042323      -2.28002253      -0.27222642      -0.13319912       0.01152395      -0.04663287
H        2.70176458      -0.85954085      -0.96848830      -0.49127259       0.26500939       0.03079191
H       -1.33410347       0.05192164       0.25597021      -0.13987796       0.10262105       0.01253853
H       -0.66424270       3.19541354       0.88732709       0.51215737       0.06813523       0.27382942
H        0.43361245       4.58737702       0.91817577       0.17565444       0.14503005      -0.05156802
H       -0.44781454       4.14645762       2.37037195      -0.08581505       0.15864489       0.28158705
H        0.05152809       1.24944624       2.03478041       0.19656391      -0.33851651      -0.22823572
H        1.79450499       1.02486765       2.19627801       0.41260447      -0.29304088       0.08503977
