20
Properties=species:S:1:pos:R:3:forces:R:3 id=10727 bond=C-N smiles="[H:11][C:3]([H:12])([H:13])[C:7]([C:4]([H:14])([H:15])[H:16])([C:5]([H:17])([H:18])[H:19])[C:6]([H:20])([N:2]([H:9])[H:10])[O:1][H:8]" dataset=PubChem energy=-8937.97217893342 pbc="F F F"
O        1.39394832      -1.23982530      -0.38734686      -0.32049938      -0.13702645       0.02722314
N        2.60170917       0.17990993       1.37601248      -3.64217905       0.30067353      -1.22362771
C       -1.37636029      -0.04040780      -0.18012314      -0.07628234       0.87291292       0.14701353
C       -0.38289928       1.38285053       1.66263229      -0.67321056      -1.36077184       0.42423430
C        0.56299293       1.40215344      -0.65779596      -0.02532427      -2.89702397      -1.31552178
C        0.92962647      -0.68949574       0.76145703       1.56291254       2.14548660       0.69752011
C       -0.11396888       0.51037433       0.43263880       1.54822803       0.36646896      -0.05760392
H        1.56960309      -0.46402388      -0.94298380       0.25715569      -0.66891396      -0.07392058
H        3.32303945      -0.45981266       1.65993760      -0.31312935      -0.33599293       0.56832621
H        2.36986450       0.93075127       2.04949615       0.47699176      -1.14758145      -0.24077783
H       -1.87778341      -0.59276050       0.56658143      -0.82062492      -0.94704691       0.67244920
H       -2.05326998       0.81939534      -0.43541634       0.74130155      -0.93282780      -0.22441453
H       -1.08240497      -0.67880815      -1.00143104      -0.52410236      -0.00287415      -0.38521150
H       -1.42400598       1.73112018       1.79326052       0.49068260      -0.22667068      -0.40391407
H        0.25933872       2.20714826       1.56920523       0.72502606       1.26090181       0.41423357
H       -0.11998703       0.82238502       2.55940873      -0.04880095       0.15513184       0.14560114
H        0.34928589       0.97857261      -1.69145220      -0.44206584       1.03759572       1.03744533
H        1.61191929       1.21742356      -0.62049394       1.10125443       0.62413449       0.55619766
H        0.38467840       2.43376202      -0.55364101      -0.46406785       1.07088922      -0.14027380
H        0.59306276      -1.46090715       1.49703461       0.44780546       0.82025581      -0.62440735
