20
Properties=species:S:1:pos:R:3:forces:R:3 id=10727 bond=C-N smiles="[H:11][C:3]([H:12])([H:13])[C:7]([C:4]([H:14])([H:15])[H:16])([C:5]([H:17])([H:18])[H:19])[C:6]([H:20])([N:2]([H:9])[H:10])[O:1][H:8]" dataset=PubChem energy=-8938.473410715325 pbc="F F F"
O        1.45031066      -1.21051949      -0.36663151      -0.43715443      -0.46275980      -0.51509820
N        2.54534683       0.15060412       1.35529713      -3.82115465       0.27493100      -0.94964754
C       -1.31999795      -0.01110199      -0.15940779      -0.07710885       0.93067763       0.14824900
C       -0.32653694       1.41215634       1.68334764      -0.68130460      -1.36121625       0.41452394
C        0.61935527       1.43145925      -0.63708061      -0.03625175      -2.88388649      -1.31611232
C        0.98598881      -0.66018993       0.78217238       2.12218161       2.56398648       1.13775497
C       -0.05760654       0.53968014       0.45335415       1.39914881       0.23758170      -0.11926886
H        1.62596543      -0.43471807      -0.92226845       0.26826448      -0.71253830      -0.03128157
H        3.26667711      -0.48911847       1.63922225      -0.31335334      -0.30636433       0.50798677
H        2.31350216       0.90144546       2.02878080       0.54419218      -1.12806941      -0.25825866
H       -1.82142107      -0.56345469       0.58729678      -0.81614193      -0.94733693       0.67618947
H       -1.99690764       0.84870115      -0.41470099       0.72621344      -0.93695241      -0.23320457
H       -1.02604263      -0.64950234      -0.98071569      -0.51616435      -0.00409602      -0.38125911
H       -1.36764364       1.76042599       1.81397587       0.49434447      -0.22199784      -0.39688582
H        0.31570106       2.23645407       1.58992058       0.71919818       1.27712949       0.41389145
H       -0.06362469       0.85169083       2.58012408      -0.06445635       0.15238707       0.15654522
H        0.40564823       1.00787842      -1.67073685      -0.44086815       1.03738151       1.04287863
H        1.66828163       1.24672937      -0.59977859       1.08122438       0.62469313       0.53825047
H        0.44104074       2.46306783      -0.53292566      -0.46838060       1.07631573      -0.14182101
H        0.64942510      -1.43160134       1.51774996       0.31611066       0.78869773      -0.69161581
