47
Properties=species:S:1:pos:R:3:forces:R:3 id=9699 bond=C-O smiles="[H:28][c:8]1[c:12]([c:11]([c:7]([c:9]([c:10]1[O:3][C:13]([H:29])([H:30])[H:31])[Br:1])[H:27])[O:2][H:23])[C:17]([H:40])([H:41])[C@@:21]2([C:6](=[C:5]([H:25])[H:26])[C@:22]([C:20]([C:16]([C:18]2([C:14]([H:32])([H:33])[H:34])[C:15]([H:35])([H:36])[H:37])([H:38])[H:39])([H:45])[H:46])([C:19]([H:42])([H:43])[H:44])[O:4][H:24])[H:47]" dataset=PubChem energy=-95270.5411856965 pbc="F F F"
Br      -3.75936607       3.36625306       4.61466566       0.32944171       0.01654195      -0.39546166
O        1.37126328       4.28713620       1.30004037      -1.04176867      -2.03885567       0.21554874
O       -3.24338034       0.35506855       4.32346288      -0.54316131       1.05382390       0.55959501
O       -1.34320191      -1.08043034       0.01917962       0.56975331       0.06760172       0.12860764
C       -0.20178268       1.64529316      -1.61757740      -0.12923769      -4.04393843       1.07217953
C        0.16091516       0.45144050      -0.98105463      -0.87940250       3.07727661      -1.31720227
C       -1.47547439       3.22443692       2.83569495       1.30438618       0.03203396      -0.58194690
C       -1.39467934       0.43295853       2.84849039       1.23619002       2.68398197      -0.71868040
C       -2.43046287       2.49526278       3.56224242       0.37500618      -0.58171138       0.15486602
C       -2.37190011       1.09197144       3.63026873       1.70393152      -0.11070655      -1.68339900
C       -0.39990059       2.56372849       2.18472902      -1.72285891      -1.06217317       0.65523680
C       -0.34408084       1.13018076       2.08713702      -1.60775635       2.55221881       1.57812920
C       -2.75224164      -0.64017953       5.20854250      -1.35534703      -1.35304772      -0.60709617
C        3.52333232      -0.63833691       0.74867618      -4.16877845      -3.13388724       1.81903412
C        3.14562722      -0.08449804      -1.52838238      -0.04560475      -3.15446335      -1.21607088
C        1.65545961      -2.05851348      -0.30352481      -0.05143969       2.75308346      -0.02544502
C        0.78572586       0.39562251       1.53331212       0.50560258      -2.68098765      -0.40886748
C        2.30217143      -0.55580171      -0.28907665       3.14956598      -0.32541998       1.19767922
C       -1.41640750      -1.09330375      -2.43792494      -2.53861576       0.14091014       1.84927174
C        0.53600835      -2.03683074      -1.35713728       0.76068464      -1.47846188       0.40577692
C        1.24470958       0.56760104       0.06717566       1.13333894      -0.32744214      -0.09871563
C       -0.48753873      -0.93461330      -1.14567932      -1.78718141       0.70113481      -2.17601555
H        2.03762360       3.82555902       0.72839702      -1.05781186       0.19420670       0.80886167
H       -1.41767625      -0.20512329       0.45818335      -0.05987446      -0.94353070      -0.72063318
H        0.24935384       2.56169431      -1.33910974       0.44732968       0.60939324       0.25154725
H       -0.99475602       1.68447213      -2.35417088       0.14305079      -0.10573598      -0.01342006
H       -1.58153096       4.30073516       2.85695306       0.31030112      -0.05467336      -0.15205814
H       -1.38145450      -0.62896879       2.83220831       0.15484560      -0.63916765      -0.11685671
H       -2.20034698      -1.37292273       4.59150807      -0.82469085      -0.35953984       0.47400444
H       -1.99227527      -0.34414967       5.92073504      -0.35559039       0.81907211       0.43430112
H       -3.75954417      -0.98973055       5.65479676       2.26739485      -0.01942989      -0.37681850
H        3.02935668      -0.90572913       1.77314488       1.38679101       0.56404859      -1.49188992
H        4.21663972      -1.44557138       0.51673809      -0.32613256      -0.13048284      -0.24718747
H        4.07787629       0.20925394       0.80132698       1.31593080       2.75798480       0.31510272
H        2.58277246      -0.21754445      -2.43516406      -0.39434386       0.37913351      -0.55334340
H        4.08273336      -0.71332456      -1.75583537      -1.41786170       0.44692655       0.84418909
H        3.54625388       0.89039324      -1.50919660      -0.11801862       1.33696021       0.53100067
H        1.33802053      -2.28870709       0.78428565       0.43233569       0.08088842      -2.04709317
H        2.40226098      -2.73696787      -0.68500407       0.40632338      -0.25558681       0.47920464
H        0.47897684      -0.68932433       1.54194645       0.43878486       1.08485094       0.53167254
H        1.60656735       0.51249029       2.26564328      -0.19412598      -0.00382247      -0.71973498
H       -2.16356352      -0.28319622      -2.55520710       0.30877916      -0.17267379       0.68135385
H       -2.10113290      -2.03559406      -2.38474043       1.70913811       1.42798739       0.05216112
H       -0.92813042      -1.01505692      -3.36244853       1.21811228      -0.47053974      -1.08135093
H        0.09875283      -3.05652840      -1.42241057      -0.37783948       0.75452834       0.36101361
H        0.99110016      -1.97874363      -2.39250787      -0.39944875       0.57913735       1.24971395
H        1.72084650       1.56235282      -0.05709012      -0.20836957      -0.67117404       0.10303861
