47
Properties=species:S:1:pos:R:3:forces:R:3 id=9699 bond=C-O smiles="[H:28][c:8]1[c:12]([c:11]([c:7]([c:9]([c:10]1[O:3][C:13]([H:29])([H:30])[H:31])[Br:1])[H:27])[O:2][H:23])[C:17]([H:40])([H:41])[C@@:21]2([C:6](=[C:5]([H:25])[H:26])[C@:22]([C:20]([C:16]([C:18]2([C:14]([H:32])([H:33])[H:34])[C:15]([H:35])([H:36])[H:37])([H:38])[H:39])([H:45])[H:46])([C:19]([H:42])([H:43])[H:44])[O:4][H:24])[H:47]" dataset=PubChem energy=-95270.9488309829 pbc="F F F"
Br      -3.71581286       3.40863194       4.59291102       0.32325709       0.01755169      -0.39101016
O        1.32771007       4.24475732       1.32179501      -1.28002603      -2.22873202       0.34102705
O       -3.19982713       0.39744743       4.30170824      -0.55297913       1.03713551       0.57393931
O       -1.29964870      -1.03805146      -0.00257502       0.57375949       0.06698413       0.12010822
C       -0.15822947       1.68767204      -1.63933204      -0.12824161      -4.04832623       1.07062130
C        0.20446837       0.49381938      -1.00280927      -0.87680096       3.08341849      -1.32025626
C       -1.43192118       3.26681580       2.81394031       1.26518736      -0.02299509      -0.54259008
C       -1.35112613       0.47533741       2.82673575       1.25346478       2.67122799      -0.74031132
C       -2.38690966       2.53764166       3.54048778       0.38493583      -0.57254220       0.13559340
C       -2.32834690       1.13435032       3.60851409       1.71132034      -0.10339048      -1.68800297
C       -0.35634738       2.60610737       2.16297438      -1.37486942      -0.76924693       0.45241621
C       -0.30052763       1.17255964       2.06538238      -1.67201005       2.54599069       1.63067097
C       -2.70868843      -0.59780065       5.18678786      -1.35832342      -1.34463278      -0.61266670
C        3.56688553      -0.59595803       0.72692154      -4.16984813      -3.13548131       1.82076624
C        3.18918043      -0.04211916      -1.55013702      -0.04539930      -3.15614108      -1.21641640
C        1.69901282      -2.01613460      -0.32527945      -0.05272564       2.75222910      -0.02414208
C        0.82927907       0.43800139       1.51155748       0.50300593      -2.66412745      -0.40263068
C        2.34572464      -0.51342283      -0.31083129       3.15201531      -0.32188819       1.19492205
C       -1.37285429      -1.05092487      -2.45967958      -2.53787426       0.14154279       1.84823005
C        0.57956156      -1.99445186      -1.37889192       0.76114408      -1.47773181       0.40495571
C        1.28826279       0.60997992       0.04542102       1.12735000      -0.34079485      -0.08852087
C       -0.44398552      -0.89223442      -1.16743396      -1.79105030       0.69910932      -2.16930272
H        1.99407039       3.78318014       0.75015166      -1.08839408       0.15934178       0.82284301
H       -1.37412304      -0.16274441       0.43642871      -0.06032543      -0.94090268      -0.71370096
H        0.29290705       2.60407319      -1.36086438       0.44423482       0.60835436       0.25129860
H       -0.95120281       1.72685101      -2.37592552       0.14317584      -0.10464147      -0.01248124
H       -1.53797775       4.34311404       2.83519842       0.32112732      -0.05963932      -0.15277216
H       -1.33790129      -0.58658991       2.81045367       0.14579494      -0.63895007      -0.11226899
H       -2.15679377      -1.33054385       4.56975343      -0.82400203      -0.35968766       0.47379007
H       -1.94872206      -0.30177079       5.89898040      -0.35464883       0.81862984       0.43494768
H       -3.71599096      -0.94735167       5.63304212       2.26680994      -0.01999422      -0.37608094
H        3.07290989      -0.86335025       1.75139024       1.38686493       0.56469694      -1.49315958
H        4.26019293      -1.40319250       0.49498345      -0.32576741      -0.12998991      -0.24760720
H        4.12142950       0.25163282       0.77957234       1.31695534       2.75822482       0.31481419
H        2.62632567      -0.17516557      -2.45691870      -0.39428431       0.37922335      -0.55337942
H        4.12628657      -0.67094568      -1.77759001      -1.41765171       0.44726668       0.84383095
H        3.58980709       0.93277212      -1.53095124      -0.11733825       1.33741320       0.53065635
H        1.38157374      -2.24632821       0.76253101       0.43232471       0.08174071      -2.04778640
H        2.44581419      -2.69458899      -0.70675871       0.40674354      -0.25518029       0.47871408
H        0.52253005      -0.64694545       1.52019181       0.44038869       1.08463039       0.53034381
H        1.65012056       0.55486917       2.24388864      -0.19101872      -0.00600282      -0.72144627
H       -2.12001031      -0.24081734      -2.57696174       0.30867804      -0.17279331       0.68161589
H       -2.05757969      -1.99321518      -2.40649507       1.70922589       1.42823532       0.05250202
H       -0.88457721      -0.97267804      -3.38420317       1.21815890      -0.47064660      -1.08186804
H        0.14230604      -3.01414952      -1.44416521      -0.37777328       0.75479282       0.36131367
H        1.03465337      -1.93636475      -2.41426251      -0.39918201       0.57887880       1.24928101
H        1.76439971       1.60473170      -0.07884476      -0.20351619      -0.67565988       0.09300347
