28
Properties=species:S:1:pos:R:3:forces:R:3 id=31941 bond=C-C smiles="[H:12][C:2]([H:13])([H:14])[C:8]([H:28])([C:7]([H:26])([H:27])[C:9]([C:3]([H:15])([H:16])[H:17])([C:4]([H:18])([H:19])[H:20])[C:5]([H:21])([H:22])[H:23])[C:6]([H:24])([H:25])[P:1]([H:10])[H:11]" dataset=PubChem energy=-17897.434913603414 pbc="F F F"
P        1.21993456       2.78984663      -2.23253428       0.87552839       0.00620345      -1.24286873
C        2.66875682      -0.25029561      -1.41361367      -0.66887026      -1.58353830       0.94627345
C       -0.56188613      -0.87080543       3.10715309       0.70490910      -1.51922221      -0.09485226
C       -0.60984939       1.43470461       2.50298241       0.01329945      -0.57264885       0.07977656
C       -1.58440333      -0.37563108       0.92096157       2.37827989       0.98952852       0.50145754
C        1.73369608       2.02595755      -0.71836823       0.01988716      -0.40857862       2.55199489
C        1.02578759      -0.23979990       1.26258967      -0.65228900       3.20935455      -2.26231698
C        1.44336019       0.50255725      -0.80260384       0.30529838      -1.06702249       2.37958820
C       -0.35301590       0.05791633       1.88481681      -3.04599474      -1.87492174       0.12224755
H       -0.16344317       2.87932560      -2.44267571       0.61371102       0.48731755      -0.10688657
H        2.31788824       3.35317561      -2.92987501      -1.16598004       0.20552722       0.04953830
H        2.44877706      -1.30807927      -1.83464467       0.05369128       1.85045205       0.82335871
H        3.46248970      -0.38080171      -0.64658499      -0.43357968       0.19734562      -0.52519356
H        3.05406771       0.34133375      -2.22849285       0.18181512       0.20331571      -0.31936409
H       -1.54925781      -0.77927403       3.52758709      -0.38337664       0.62419367       0.13903278
H       -0.53673011      -1.99611656       2.93400828       0.68175353       1.36596460      -0.12265484
H        0.16688431      -0.54659544       3.85021655      -0.01832144      -0.55161353       0.30963329
H        0.30319503       1.62752195       3.07070033      -0.43230657       0.57225475       0.34304015
H       -0.67661386       2.10176916       1.68814752      -0.05147945       1.29775208      -0.67410913
H       -1.57585674       1.51530226       3.11666313       1.63562652      -0.35945498      -0.83748908
H       -2.56196218      -0.33449946       1.36315385      -0.27877977       0.55942048       0.51945560
H       -1.52266889       0.25338778       0.02861349      -0.25076573      -0.53809475      -0.11814536
H       -1.40404278      -1.42132358       0.77489954       0.07208449      -0.51450841      -0.91991607
H        1.28732042       2.59939989       0.16458284       0.42331519      -1.26918149      -1.03550433
H        2.82808528       2.09762916      -0.55669486      -0.57446948       0.43889595      -0.39640992
H        1.81686610       0.15644993       1.86579052       0.47739916       1.22224539       0.07956081
H        1.27743733      -1.23168735       1.34506688      -0.05963500      -2.69744030      -0.81134820
H        0.59314387       0.33736542      -1.45448076      -0.42116046      -0.27357119       0.61901762
