28
Properties=species:S:1:pos:R:3:forces:R:3 id=31941 bond=C-C smiles="[H:12][C:2]([H:13])([H:14])[C:8]([H:28])([C:7]([H:26])([H:27])[C:9]([C:3]([H:15])([H:16])[H:17])([C:4]([H:18])([H:19])[H:20])[C:5]([H:21])([H:22])[H:23])[C:6]([H:24])([H:25])[P:1]([H:10])[H:11]" dataset=PubChem energy=-17896.172602807143 pbc="F F F"
P        1.25222111       2.84724538      -2.39221418       0.83443121      -0.07779372      -1.19803591
C        2.70104337      -0.19289686      -1.57329357      -0.69985783      -1.69181332       1.09915965
C       -0.59417268      -0.92820418       3.26683299       0.74098348      -1.57529620      -0.06484925
C       -0.64213594       1.37730586       2.66266231       0.01916317      -0.57580181       0.08366013
C       -1.61668988      -0.43302983       1.08064147       2.34355778       0.97180384       0.50194681
C        1.76598263       2.08335630      -0.87804813       0.00881445      -0.43199563       2.80586772
C        0.99350104      -0.29719865       1.42226957      -0.94767775       2.91984139      -1.15810366
C        1.47564674       0.55995600      -0.96228374       0.65505688      -0.57991575       1.12854896
C       -0.38530245       0.00051758       2.04449671      -2.97981397      -1.77845959      -0.05030638
H       -0.13115662       2.93672435      -2.60235561       0.61408595       0.48394990      -0.11003486
H        2.35017479       3.41057436      -3.08955491      -1.15290980       0.16893734       0.04060173
H        2.48106361      -1.25068052      -1.99432457       0.05083106       1.86156085       0.82776699
H        3.49477625      -0.32340296      -0.80626489      -0.43854324       0.20097996      -0.54253949
H        3.08635426       0.39873250      -2.38817275       0.16888078       0.23949429      -0.31979067
H       -1.58154436      -0.83667278       3.68726699      -0.39147872       0.62956708       0.12824261
H       -0.56901666      -2.05351531       3.09368818       0.68046025       1.36723165      -0.11941323
H        0.13459776      -0.60399419       4.00989645      -0.02436099      -0.55237296       0.30609204
H        0.27090848       1.57012320       3.23038023      -0.43343190       0.57160429       0.34356319
H       -0.70890041       2.04437041       1.84782742      -0.04107747       1.28903793      -0.68458986
H       -1.60814329       1.45790351       3.27634303       1.63523154      -0.36045120      -0.83610007
H       -2.59424873      -0.39189821       1.52283375      -0.28515404       0.55586052       0.52795189
H       -1.55495544       0.19598903       0.18829339      -0.22002917      -0.53602346      -0.11507108
H       -1.43632933      -1.47872233       0.93457944       0.07345816      -0.51108451      -0.91988880
H        1.31960697       2.65679864       0.00490294       0.42586993      -1.26607833      -1.04298249
H        2.86037183       2.15502791      -0.71637476      -0.58183767       0.43487944      -0.39238875
H        1.78457955       0.09905118       2.02547042       0.51164234       1.29523175      -0.02759357
H        1.24515078      -1.28908610       1.50474678      -0.04597551      -2.71076373      -0.94010231
H        0.62543042       0.39476417      -1.61416066      -0.52075390      -0.34238102       0.72497081
