28
Properties=species:S:1:pos:R:3:forces:R:3 id=31941 bond=C-C smiles="[H:12][C:2]([H:13])([H:14])[C:8]([H:28])([C:7]([H:26])([H:27])[C:9]([C:3]([H:15])([H:16])[H:17])([C:4]([H:18])([H:19])[H:20])[C:5]([H:21])([H:22])[H:23])[C:6]([H:24])([H:25])[P:1]([H:10])[H:11]" dataset=PubChem energy=-17869.381350502434 pbc="F F F"
P        1.08863596       2.55642505      -1.58316931       0.93904020       0.41118321      -1.37784044
C        2.53745822      -0.48371719      -0.76424870       1.22063678      -0.30990067      -2.81968256
C       -0.43058753      -0.63738385       2.45778812       0.41632934      -1.33054520      -0.07569332
C       -0.47855079       1.66812619       1.85361744      -0.60349732      -0.61965081       0.39852738
C       -1.45310473      -0.14220950       0.27159660       2.65176596       1.07088416       0.46561914
C        1.60239748       1.79253597      -0.06900326       0.34840105       3.06164073      -1.02649396
C        1.15708619      -0.00637832       0.61322470     -29.78273209     -50.95891640     143.99147522
C        1.31206159       0.26913567      -0.15323887      29.58652908      51.26938646    -143.25806361
C       -0.22171730       0.29133791       1.23545184      -4.37408936      -2.13847538       3.27403436
H       -0.29474177       2.64590402      -1.79331074       0.60358655       0.54091313      -0.13014143
H        2.18658964       3.11975403      -2.28051004      -1.19422708       0.34625497      -0.01185120
H        2.31747846      -1.54150085      -1.18527970      -0.24808963       1.85323983       0.89841610
H        3.33119110      -0.61422329       0.00277998      -0.62455833       0.34239936      -0.19064513
H        2.92276911       0.10791217      -1.57912788       0.56087692      -0.07438330      -0.48474478
H       -1.41795921      -0.54585245       2.87822212      -0.36845326       0.57529057       0.21647957
H       -0.40543151      -1.76269498       2.28464331       0.69255538       1.37951967      -0.14006418
H        0.29818291      -0.31317386       3.20085158      -0.00332700      -0.54612591       0.26878624
H        0.43449363       1.86094353       2.42133536      -0.55386032       0.51068072       0.46983042
H       -0.54531526       2.33519074       1.03878255      -0.41445425       1.30415576      -0.43717884
H       -1.44455814       1.74872384       2.46729816       1.58635096      -0.38765915      -0.78244362
H       -2.43066358      -0.10107788       0.71378888      -0.16691401       0.59480888       0.53526015
H       -1.39137029       0.48680936      -0.62075148      -0.45587856      -0.54060297      -0.20363340
H       -1.27274418      -1.18790200       0.12553457       0.05503700      -0.56535414      -0.93453097
H        1.15602182       2.36597831       0.81394781       0.94171361      -1.59405718      -1.54019079
H        2.69678668       1.86420758       0.09267011      -0.51096574      -0.01504910      -0.45927491
H        1.94816470       0.38987151       1.21642555       0.77295878      -0.53387423       3.54812064
H        1.40873593      -0.99826577       0.69570191      -1.34634717      -3.83207406       2.26451095
H        0.46184527       0.10394384      -0.80511579       0.27275812       0.18615973      -2.45913470
