28
Properties=species:S:1:pos:R:3:forces:R:3 id=31941 bond=C-C smiles="[H:12][C:2]([H:13])([H:14])[C:8]([H:28])([C:7]([H:26])([H:27])[C:9]([C:3]([H:15])([H:16])[H:17])([C:4]([H:18])([H:19])[H:20])[C:5]([H:21])([H:22])[H:23])[C:6]([H:24])([H:25])[P:1]([H:10])[H:11]" dataset=PubChem energy=-17897.072447054332 pbc="F F F"
P        1.22854431       2.80515296      -2.27511558       0.86449267      -0.02100721      -1.22907026
C        2.67736657      -0.23498928      -1.45619497      -0.67820799      -1.61616289       0.99524983
C       -0.57049588      -0.88611176       3.14973439       0.71647889      -1.53464304      -0.08741816
C       -0.61845914       1.41939828       2.54556371       0.01632074      -0.57393429       0.08028072
C       -1.59301308      -0.39093741       0.96354287       2.36954614       0.98455234       0.50203819
C        1.74230583       2.04126388      -0.76094953       0.01532904      -0.42057590       2.62891396
C        1.01717784      -0.25510623       1.30517097      -0.73375456       3.13944015      -1.97574452
C        1.45196994       0.51786358      -0.84518514       0.40094466      -0.93601130       2.05190553
C       -0.36162565       0.04261000       1.92739811      -3.02825952      -1.84767178       0.06979233
H       -0.15483342       2.89463193      -2.48525701       0.61389000       0.48656409      -0.10771980
H        2.32649799       3.36848194      -2.97245631      -1.16246985       0.19547407       0.04729324
H        2.45738681      -1.29277294      -1.87722597       0.05292100       1.85375635       0.82467006
H        3.47109945      -0.36549538      -0.68916629      -0.43536184       0.19834201      -0.53118107
H        3.06267746       0.35664008      -2.27107415       0.17702022       0.21447908      -0.31957731
H       -1.55786756      -0.79458036       3.57016839      -0.38543464       0.62574095       0.13590047
H       -0.54533986      -2.01142289       2.97658958       0.68132427       1.36625635      -0.12166933
H        0.15827456      -0.56190177       3.89279785      -0.02007086      -0.55190794       0.30895472
H        0.29458528       1.61221562       3.11328163      -0.43270949       0.57203867       0.34324188
H       -0.68522361       2.08646283       1.73072882      -0.04768548       1.29549598      -0.67812194
H       -1.58446649       1.49999593       3.15924443       1.63562767      -0.35959872      -0.83724164
H       -2.57057193      -0.34980579       1.40573515      -0.28081127       0.55835463       0.52165742
H       -1.53127864       0.23808145       0.07119479      -0.24106259      -0.53730818      -0.11742207
H       -1.41265253      -1.43662991       0.81748084       0.07259691      -0.51336740      -0.91985001
H        1.29593017       2.61470622       0.12200154       0.42342808      -1.26787807      -1.03716403
H        2.83669503       2.11293549      -0.59927616      -0.57683393       0.43785909      -0.39535997
H        1.80825635       0.14114360       1.90837182       0.48777429       1.24587878       0.04301279
H        1.26882758      -1.24699368       1.38764818      -0.05485700      -2.69983033      -0.85359216
H        0.60175362       0.35267175      -1.49706206      -0.45066291      -0.29451746       0.65491344
