28
Properties=species:S:1:pos:R:3:forces:R:3 id=31941 bond=C-C smiles="[H:12][C:2]([H:13])([H:14])[C:8]([H:28])([C:7]([H:26])([H:27])[C:9]([C:3]([H:15])([H:16])[H:17])([C:4]([H:18])([H:19])[H:20])[C:5]([H:21])([H:22])[H:23])[C:6]([H:24])([H:25])[P:1]([H:10])[H:11]" dataset=PubChem energy=-17898.161261282243 pbc="F F F"
P        1.12953225       2.62913013      -1.78543053       0.96777874       0.23453776      -1.31056010
C        2.57835451      -0.41101211      -0.96650992      -0.24959076      -0.96101986      -0.40446870
C       -0.47148382      -0.71008893       2.66004934       0.53860249      -1.37254698      -0.13684514
C       -0.51944708       1.59542111       2.05587866      -0.21270922      -0.56572342       0.16612449
C       -1.49400102      -0.21491458       0.47385782       2.45069013       1.04498181       0.50858732
C        1.64329377       1.86524105      -0.27126448       0.18799767       0.56064235       0.96822125
C        1.11618990      -0.07908340       0.81548592      -2.99154070      -2.50740573      11.64186754
C        1.35295788       0.34184075      -0.35550009       2.61248560       3.85935655     -11.19547115
C       -0.26261359       0.21863283       1.43771306      -3.33095012      -2.15762489       1.21873470
H       -0.25384548       2.71860910      -1.99557196       0.61010874       0.49393340      -0.10805268
H        2.22748593       3.19245911      -2.48277126      -1.19499064       0.30016695       0.04745793
H        2.35837475      -1.46879577      -1.38754092      -0.00098878       1.81776979       0.83537204
H        3.37208739      -0.54151821      -0.19948124      -0.45933747       0.22662308      -0.39803314
H        2.96366540       0.18061725      -1.78138910       0.30945333       0.03737841      -0.34658126
H       -1.45885550      -0.61855753       3.08048334      -0.36889281       0.60213157       0.18022155
H       -0.44632780      -1.83540006       2.48690453       0.69026580       1.37119195      -0.13567100
H        0.25728662      -0.38587894       3.40311280      -0.00193639      -0.54684602       0.29427191
H        0.39359734       1.78823845       2.62359658      -0.43971665       0.56526181       0.35637139
H       -0.58621155       2.26248566       1.24104377      -0.21953589       1.29670733      -0.53157986
H       -1.48545443       1.67601876       2.66955938       1.62497470      -0.37295081      -0.81997340
H       -2.47155987      -0.17378296       0.91605010      -0.23377905       0.57571375       0.51252712
H       -1.43226658       0.41410428      -0.41849026      -0.40704497      -0.54733563      -0.13779140
H       -1.31364047      -1.26060708       0.32779579       0.06432527      -0.53829179      -0.92762986
H        1.19691811       2.43868339       0.61168659       0.59660498      -1.38339590      -1.20746522
H        2.73768297       1.93691266      -0.10959111      -0.53127368       0.33879528      -0.40779431
H        1.90726841       0.31716643       1.41868677       0.34341021       0.50578061       1.40589115
H        1.36783964      -1.07097085       0.89796313      -0.40768688      -2.94912349       0.43637687
H        0.50274156       0.17664892      -1.00737701       0.05409244       0.07223325      -0.50466005
