38
Properties=species:S:1:pos:R:3:forces:R:3 id=14824 bond=N-O smiles="[H:22][c:6]1[c:7]([c:9]([c:11]2[c:10]([c:8]1[H:24])[C:3](=[C:4]([N:12]2[H:26])/[C:5](=[N:1][O:2][H:20])/[C:19]3([C:17]([C:15]([N:13]([C:16]([C:18]3([H:36])[H:37])([H:32])[H:33])[C:14]([H:27])([H:28])[H:29])([H:30])[H:31])([H:34])[H:35])[H:38])[H:21])[H:25])[H:23]" dataset=PubChem energy=-22395.08867638881 pbc="F F F"
N        2.92246305      -0.32582164       1.34298539      -2.39484824      -0.94388548      -3.57730560
O        3.58267754       0.00553743       2.44715475       0.57331260       1.00462713       2.29888457
C       -0.14122750       1.82367998       1.56871563      -0.82649309       0.04220715      -0.00354627
C        1.14783286       1.37676615       1.70622485      -1.34719893       0.27027550      -0.10708649
C        1.80756759       0.26864469       0.94432317       3.05530548       0.43906523       2.49903650
C       -1.54392041       4.45028812       3.90932136      -0.43370295       0.77240837       0.07326925
C       -0.36625625       4.65620238       4.64900690       1.31858894      -0.78816173       0.36641083
C       -1.56349099       3.56392485       2.85343771      -0.42177759      -0.20494708       0.13720228
C        0.81670003       3.89594132       4.36031299      -1.25325452       1.52617624       0.64520956
C       -0.41628135       2.84098321       2.58158069      -0.31295712      -1.00887576      -1.78735936
C        0.75544960       3.02518922       3.29990487       0.28307158      -1.49613889      -0.95612760
N        1.65762555       2.11834604       2.74398833       2.95532588       0.15160467       1.81265757
N        0.30569513      -2.05260843      -2.35569925      -0.04235710      -1.01429890       0.14660202
C       -0.38148023      -2.65619701      -3.52083916       0.57375902       1.06853731       0.10815172
C       -0.58066560      -1.68924302      -1.22947842      -0.11221591      -0.86628442      -0.44053972
C        1.40014290      -1.12121516      -2.69322962      -0.53652963      -0.18754599       0.11291996
C        0.20607026      -1.37584727       0.03756832       0.71080327      -0.11528773      -2.07973197
C        2.18452631      -0.68555349      -1.45035309      -0.58887196       0.03356557       0.80568277
C        1.17498271      -0.23888963      -0.32567001       0.23475266      -0.14206743      -0.20880698
H        4.27737277      -0.66903259       2.63122128      -1.08091765       0.65052424      -0.84207634
H       -0.88743044       1.42931521       0.89625692       0.14907407       0.09042495      -0.08651825
H       -2.45656408       5.03731448       4.12125354       0.73868548      -0.41725240       0.04113092
H       -0.36502195       5.35218245       5.51301723       0.05353632      -0.55060155      -0.82466416
H       -2.46204699       3.35410625       2.27819937       0.11882983       0.26596235       0.14627226
H        1.73565601       4.02302581       4.90476327       0.01762564       0.14678338       0.27312593
H        2.57141601       1.91565448       3.17239933      -0.92777428       0.19469730      -0.59720130
H       -0.83391321      -1.89764589      -4.19164652       0.04770510      -0.12879130       0.25023797
H       -1.16205932      -3.36532419      -3.26296419       0.01364390       0.09894121       0.48822987
H        0.33789441      -3.20676630      -4.12173647       0.18632423       0.02347763       0.00231652
H       -1.22901667      -0.84907967      -1.47196359      -0.20496487       0.38774796      -0.14429970
H       -1.25082029      -2.55273026      -1.03326506       0.40478191       0.43520100      -0.26767271
H        0.97437374      -0.23169612      -3.14240093      -0.15007075       0.53827535      -0.38953912
H        2.07963716      -1.56551450      -3.45508713      -0.55525867       0.06136110       0.60802869
H        0.76077035      -2.26886600       0.27070754       0.37492730      -0.22180413       0.36869095
H       -0.42580218      -1.12887233       0.84995502      -0.66840338       0.33826989       0.72174701
H        2.77317797      -1.54127425      -1.10636849       0.00250689       0.36404386       0.12849748
H        2.84474264       0.17876339      -1.65614385      -0.25446432      -0.63908118      -0.07747865
H        0.56767655       0.57125164      -0.76975388       0.30347693      -0.18020763       0.35582899
