38
Properties=species:S:1:pos:R:3:forces:R:3 id=14824 bond=N-O smiles="[H:22][c:6]1[c:7]([c:9]([c:11]2[c:10]([c:8]1[H:24])[C:3](=[C:4]([N:12]2[H:26])/[C:5](=[N:1][O:2][H:20])/[C:19]3([C:17]([C:15]([N:13]([C:16]([C:18]3([H:36])[H:37])([H:32])[H:33])[C:14]([H:27])([H:28])[H:29])([H:30])[H:31])([H:34])[H:35])[H:38])[H:21])[H:25])[H:23]" dataset=PubChem energy=-22372.429504215386 pbc="F F F"
N        3.05141119      -0.26110307       1.55864347     -78.35176212     -34.50169653    -125.65915192
O        3.45372940      -0.05918114       2.23149667      75.93827854      34.96465443     124.46752868
C       -0.01227936       1.88839855       1.78437371      -0.90313727       0.11154666      -0.01115400
C        1.27678100       1.44148472       1.92188293      -0.72414593      -0.49363787      -0.32055296
C        1.93651573       0.33336326       1.15998125      -1.93177306       1.94466812      -1.82699411
C       -1.41497227       4.51500669       4.12497944      -0.31523888       0.82055257       0.20377175
C       -0.23730811       4.72092095       4.86466498       1.12253090      -0.65908030       0.40589909
C       -1.43454285       3.62864342       3.06909579      -0.33596062      -0.25644294       0.09206046
C        0.94564817       3.96065989       4.57597107      -1.21239026       1.31826103       0.46398553
C       -0.28733321       2.90570178       2.79723877      -0.27866475      -0.99749863      -1.84226853
C        0.88439774       3.08990779       3.51556295       0.08610684      -1.04580152      -0.50405772
N        1.78657369       2.18306461       2.95964641       3.07997194       0.07737142       1.77172913
N        0.43464327      -1.98788986      -2.14004117      -0.02099809      -1.03445576       0.12224937
C       -0.25253209      -2.59147844      -3.30518108       0.59329244       1.08065919       0.12098002
C       -0.45171746      -1.62452445      -1.01382034      -0.20068999      -0.98139986      -0.34457859
C        1.52909104      -1.05649659      -2.47757154      -0.46926087      -0.26285861       0.06209672
C        0.33501840      -1.31112870       0.25322640       0.62641781      -0.01588018      -2.46096259
C        2.31347445      -0.62083492      -1.23469501      -0.80203253       0.14984573       0.77548497
C        1.30393085      -0.17417106      -0.11001193       0.12045270      -0.16892745       0.25185910
H        4.14842463      -0.73375116       2.41556320       4.37104723      -0.93602227       3.30227583
H       -0.75848230       1.49403378       1.11191500       0.16489885       0.06502641      -0.05287029
H       -2.32761594       5.10203305       4.33691162       0.73233138      -0.40897168       0.04900784
H       -0.23607381       5.41690102       5.72867531       0.05147738      -0.54561034      -0.82108010
H       -2.33309885       3.41882482       2.49385745       0.12391119       0.25788086       0.14005336
H        1.86460415       4.08774438       5.12042135       0.03427404       0.15536114       0.28740890
H        2.70036415       1.98037305       3.38805741      -1.04689760       0.42992984      -0.48957381
H       -0.70496507      -1.83292732      -3.97598844       0.04296289      -0.12674746       0.24361597
H       -1.03311118      -3.30060562      -3.04730611       0.01174230       0.10209034       0.48949899
H        0.46684255      -3.14204773      -3.90607839       0.18926775       0.02028656      -0.00924991
H       -1.10006853      -0.78436110      -1.25630551      -0.18903960       0.38432706      -0.13906529
H       -1.12187215      -2.48801169      -0.81760698       0.36978766       0.41051886      -0.31683173
H        1.10332188      -0.16697755      -2.92674285      -0.13098746       0.54220073      -0.36215248
H        2.20858530      -1.50079593      -3.23942905      -0.56543634       0.04231403       0.56752702
H        0.88971849      -2.20414743       0.48636562       0.38493232      -0.29435997       0.36306413
H       -0.29685404      -1.06415376       1.06561310      -0.63411054       0.38632728       0.71978998
H        2.90212611      -1.47655568      -0.89071041       0.03479812       0.25839345       0.09479957
H        2.97369078       0.24348196      -1.44048577      -0.25452868      -0.60055641      -0.08703343
H        0.69662469       0.63597021      -0.55409580       0.29234454      -0.19213271       0.25178685
