38
Properties=species:S:1:pos:R:3:forces:R:3 id=14824 bond=N-O smiles="[H:22][c:6]1[c:7]([c:9]([c:11]2[c:10]([c:8]1[H:24])[C:3](=[C:4]([N:12]2[H:26])/[C:5](=[N:1][O:2][H:20])/[C:19]3([C:17]([C:15]([N:13]([C:16]([C:18]3([H:36])[H:37])([H:32])[H:33])[C:14]([H:27])([H:28])[H:29])([H:30])[H:31])([H:34])[H:35])[H:38])[H:21])[H:25])[H:23]" dataset=PubChem energy=-22391.516904325505 pbc="F F F"
N        2.62846129      -0.47337997       0.85128496      -2.26437295       1.46405041      -0.61679181
O        3.87667930       0.15309576       2.93885518      -0.77080584      -0.16675431      -0.94865133
C       -0.43522926       1.67612165       1.07701520      -0.99215457      -0.01247478      -0.13197467
C        0.85383110       1.22920782       1.21452442      -1.18858584       0.56828995       0.22289054
C        1.51356583       0.12108636       0.45262274       3.69376559       0.05752710       3.12213002
C       -1.83792217       4.30272979       3.41762093      -0.50050267       0.72687901      -0.01938982
C       -0.66025801       4.50864405       4.15730647       1.43378744      -0.86727163       0.33364340
C       -1.85749275       3.41636652       2.36173728      -0.51703655      -0.15560293       0.15237036
C        0.52269827       3.74838299       3.86861256      -1.24044602       1.64125237       0.75123880
C       -0.71028311       2.69342488       2.08988026      -0.25852857      -1.06428431      -1.80564584
C        0.46144784       2.87763089       2.80820444       0.38204645      -1.75606930      -1.18335590
N        1.36362379       1.97078771       2.25228790       2.92969001       0.03817201       1.70952792
N        0.01169337      -2.20016676      -2.84739968      -0.02333382      -0.98382442       0.19812484
C       -0.67548199      -2.80375534      -4.01253959       0.54859259       1.04736624       0.05583204
C       -0.87466736      -1.83680135      -1.72117885      -0.05325093      -0.77209104      -0.55004570
C        1.10614114      -1.26877349      -3.18493005      -0.59891216      -0.20245694       0.12259848
C       -0.08793150      -1.52340560      -0.45413211       0.72973425      -0.21060237      -1.81318260
C        1.89052455      -0.83311182      -1.94205352      -0.46367045       0.05150182       0.75053299
C        0.88098095      -0.38644796      -0.81737044       0.03235957      -0.44278586      -0.92312254
H        4.57137453      -0.52147426       3.12292171      -0.97385613       0.39414799      -0.75306118
H       -1.18143220       1.28175688       0.40455649       0.12311523       0.10039043      -0.09018339
H       -2.75056584       4.88975615       3.62955311       0.74163881      -0.42679458       0.03423068
H       -0.65902371       5.20462412       5.02131680       0.05761612      -0.55685859      -0.82905694
H       -2.75604875       3.20654792       1.78649894       0.11525121       0.27161903       0.15186659
H        1.44165425       3.87546748       4.41306284       0.00328651       0.12533760       0.25688912
H        2.27741425       1.76809615       2.68069890      -0.57959668      -0.01875239      -0.46437969
H       -1.12791497      -2.04520422      -4.68334695       0.05692563      -0.13683762       0.26664143
H       -1.45606108      -3.51288252      -3.75466462       0.02212620       0.10101822       0.48953378
H        0.04389265      -3.35432463      -4.61343690       0.18072475       0.02570375       0.01533057
H       -1.52301843      -0.99663800      -1.96366402      -0.21280541       0.38349936      -0.13968851
H       -1.54482205      -2.70028859      -1.52496549       0.43534461       0.46279294      -0.22187324
H        0.68037198      -0.37925445      -3.63410136      -0.13550632       0.54236745      -0.38075443
H        1.78563540      -1.71307283      -3.94678756      -0.54716469       0.08426291       0.64089111
H        0.46676859      -2.41642433      -0.22099289       0.35999475      -0.21083932       0.36758427
H       -0.71980394      -1.27643066       0.35825459      -0.66181141       0.32259381       0.71400899
H        2.47917621      -1.68883258      -1.59806892       0.02416208       0.32554448       0.12198346
H        2.55074088       0.03120506      -2.14784428      -0.26018921      -0.65713498      -0.07915051
H        0.27367479       0.42369331      -1.26145431       0.37422561      -0.09352709       0.47319604
