38
Properties=species:S:1:pos:R:3:forces:R:3 id=14824 bond=N-O smiles="[H:22][c:6]1[c:7]([c:9]([c:11]2[c:10]([c:8]1[H:24])[C:3](=[C:4]([N:12]2[H:26])/[C:5](=[N:1][O:2][H:20])/[C:19]3([C:17]([C:15]([N:13]([C:16]([C:18]3([H:36])[H:37])([H:32])[H:33])[C:14]([H:27])([H:28])[H:29])([H:30])[H:31])([H:34])[H:35])[H:38])[H:21])[H:25])[H:23]" dataset=PubChem energy=-22392.706256491052 pbc="F F F"
N        2.73677773      -0.41901637       1.03243775      -0.94540740       0.66510621      -0.20415898
O        3.76836286       0.09873216       2.75770239      -1.57387758       0.16726565      -1.44777794
C       -0.32691282       1.73048525       1.25816799      -0.93375189       0.01260396      -0.08817785
C        0.96214754       1.28357142       1.39567721      -1.28769499       0.47995449       0.08110388
C        1.62188227       0.17544996       0.63377553       3.37268816       0.61226107       3.44237360
C       -1.72960573       4.35709339       3.59877372      -0.48555709       0.74207779       0.00692694
C       -0.55194157       4.56300765       4.33845926       1.40480247      -0.84766364       0.34217462
C       -1.74917631       3.47073012       2.54289007      -0.48675088      -0.17244482       0.14904653
C        0.63101471       3.80274659       4.04976535      -1.24869214       1.61436585       0.72566254
C       -0.60196667       2.74778848       2.27103305      -0.29316516      -1.04288625      -1.79711500
C        0.56976428       2.93199449       2.98935723       0.36683796      -1.71387253      -1.15113712
N        1.47194023       2.02515131       2.43344069       2.91529150       0.09205974       1.73772346
N        0.12000981      -2.14580316      -2.66624689      -0.03041443      -0.99194012       0.18296300
C       -0.56716555      -2.74939174      -3.83138680       0.55522504       1.05312521       0.07063499
C       -0.76635092      -1.78243775      -1.54002606      -0.06442349      -0.79318191      -0.52114640
C        1.21445758      -1.21440989      -3.00377726      -0.58458538      -0.19562585       0.12230097
C        0.02038494      -1.46904200      -0.27297932       0.72317516      -0.19298996      -1.87243361
C        1.99884099      -0.77874822      -1.76090073      -0.48323270       0.03139727       0.75613954
C        0.98929739      -0.33208436      -0.63621765       0.18766137      -0.41927841      -0.71274074
H        4.46305809      -0.57583786       2.94176892      -1.08727318       0.21944394      -1.04697601
H       -1.07311576       1.33612048       0.58570928       0.12757764       0.09828132      -0.09124149
H       -2.64224940       4.94411975       3.81070590       0.74096600      -0.42358884       0.03618213
H       -0.55070727       5.25898772       5.20246959       0.05594931      -0.55461450      -0.82751893
H       -2.64773231       3.26091152       1.96765173       0.11533753       0.27023218       0.15044218
H        1.54997069       3.92983108       4.59421563       0.00690892       0.13299015       0.26138508
H        2.38573069       1.82245975       2.86185169      -0.67320534       0.00387544      -0.53481807
H       -1.01959853      -1.99084062      -4.50219416       0.05444049      -0.13457595       0.26215426
H       -1.34774464      -3.45851892      -3.57351183       0.01975052       0.10029017       0.48914066
H        0.15220909      -3.29996103      -4.43228411       0.18224883       0.02522575       0.01213749
H       -1.41470199      -0.94227440      -1.78251123      -0.21186360       0.38552042      -0.14164269
H       -1.43650561      -2.64592499      -1.34381270       0.42875955       0.45748992      -0.23268595
H        0.78868842      -0.32489085      -3.45294857      -0.14095638       0.54128163      -0.38469752
H        1.89395184      -1.65870923      -3.76563477      -0.54920396       0.07890321       0.63410494
H        0.57508503      -2.36206073      -0.03984010       0.36403534      -0.20907248       0.36801499
H       -0.61148750      -1.22206706       0.53940738      -0.66318839       0.32580940       0.71603437
H        2.58749265      -1.63446898      -1.41691613       0.01549432       0.34363002       0.12193023
H        2.65905732       0.08556866      -1.96669149      -0.25973065      -0.65459309      -0.07661888
H        0.38199123       0.47805691      -1.08030152       0.36832135      -0.10760104       0.46349647
