50
Properties=species:S:1:pos:R:3:forces:R:3 id=37946 bond=C-S smiles="[H:35][C:13]1([C:17]([N:5]([C:18]([C:14]([N:3]1[C:7]([H:21])([H:22])[H:23])([H:37])[H:38])([H:45])[H:46])[C:11]([H:31])([H:32])[C:9]([H:27])([H:28])[S:1][S:2][C:10]([H:29])([H:30])[C:12]([H:33])([H:34])[N:6]2[C:19]([C:15]([N:4]([C:16]([C:20]2([H:49])[H:50])([H:41])[H:42])[C:8]([H:24])([H:25])[H:26])([H:39])[H:40])([H:47])[H:48])([H:43])[H:44])[H:36]" dataset=PubChem energy=-42650.08470521993 pbc="F F F"
S        0.53237318       0.56713559       4.41376843      -1.66069009       9.66699015       9.68519457
S       -1.22764437       1.70544870       4.06375064       0.47589277      -0.82020682       0.52184467
N        3.32021460      -2.47061935      -0.43918249      -3.19218269      -1.83963981      -0.26543325
N       -2.01746015       2.46864291      -1.84049688       1.50557636       0.45287745      -0.15354772
N        2.69547018      -1.80034486       2.28108206       1.37141242       2.10664323       1.18151218
N       -1.10621052       3.84538408       0.61436340       0.17768403       1.02984742       0.71996315
C        3.81375727      -2.86301342      -1.78220138       1.69916189      -0.33350223       2.25414336
C       -2.43595819       1.88710780      -3.17645035      -1.44512654       1.05541673       2.69585170
C        0.70146764      -0.43051401       3.29521051      -1.63504449      -6.73374439      -9.72798292
C       -0.79298704       3.15327592       3.09055723       1.69645061      -0.70810591      -3.08160064
C        2.01832137      -1.07646480       3.43379250       2.49480909      -2.41386074      -1.16986660
C       -1.72883611       3.27564664       1.84956075       2.57738122      -1.63135049      -1.86765865
C        2.72165522      -3.55534306       0.42242360       1.40609847       0.27665526       0.55644108
C        4.16388616      -1.57525436       0.30517140       0.45859941       0.03908081      -0.40134164
C       -2.88626509       3.46024866      -1.11322318       0.69555012      -1.73069731       1.22705927
C       -0.93767385       1.83629032      -0.94756363      -1.14657392       1.82836743      -2.24295640
C        1.98811826      -2.84800282       1.64138927      -0.98899113      -0.51625349      -1.93504912
C        3.32918057      -0.81515172       1.33635124       0.57706271      -0.42281794       1.03604297
C       -2.03018932       4.51823135      -0.29562913      -1.05483016       0.23760829      -1.96222738
C       -0.22368376       2.92929168      -0.10743378      -1.75625045       0.64334898      -2.23694795
H        3.98465690      -1.85158649      -2.20999011       0.38431915      -1.28678218      -0.59008961
H        3.29295191      -3.60854712      -2.42838058      -0.53687513       1.14469545       0.85439154
H        4.72525629      -3.44919482      -1.44595942       0.07852187       0.81521273      -1.47405267
H       -2.58237557       2.66918011      -3.90911947      -0.28166704       0.43299571       0.05963406
H       -1.74693184       1.24171837      -3.64518724       1.16477728      -0.87473281       0.17944697
H       -3.38953237       1.34165408      -3.01266609       0.39552172       0.14280946      -0.49326834
H        0.00960729      -1.24790159       3.46414890      -0.64211592      -0.31744728      -0.97142577
H        0.46638205       0.09920731       2.31551507       0.70580254      -1.27962655       0.56399265
H        0.25538791       3.06431623       2.65188565      -1.21635251      -0.20467181       0.81470816
H       -0.78276997       4.07261391       3.59644903      -0.15202431       0.94921770       1.17442379
H        2.71479306      -0.32344142       3.65038982       1.18792874       1.01212792       0.53199812
H        1.99537453      -1.74478737       4.31172266      -0.01564706       0.13114405      -0.44577216
H       -2.03815036       2.29269858       1.52933087      -0.44475072      -0.58685139       0.60172252
H       -2.55757146       3.82374664       2.06078996      -2.37252212       1.58155961       0.66754839
H        3.53323969      -4.30821839       0.72783951      -0.51676273       1.23983463       0.26800438
H        2.03575453      -4.29124585      -0.06237814       0.07108725       1.39648182      -0.19801201
H        4.97285065      -2.13387290       0.88625824      -0.62007879       0.61357089      -0.69274505
H        4.65063223      -0.87442270      -0.44399891      -0.49984086      -0.70529088       1.10018801
H       -3.60974626       3.95250125      -1.76535950       0.25176197      -0.19727350      -0.10073812
H       -3.44361286       2.86664863      -0.31580560       0.08468990       0.73159420      -0.88923099
H       -0.17720657       1.32122864      -1.56354867      -0.46271465       0.38459816       0.11896797
H       -1.35139756       1.11048337      -0.30583368      -0.77287901      -1.06619762       0.89725148
H        1.65897522      -3.60211745       2.33925917       0.16111516      -0.22957206       0.46210266
H        1.06115714      -2.41865841       1.22211006      -0.06745297      -0.33123354      -0.29428512
H        2.58279046      -0.13998738       0.95587101      -0.54006752       0.00415535      -0.98369309
H        4.03484997      -0.09710720       1.82021632      -0.46248056      -0.93555888       0.44255103
H       -1.52916413       5.14484735      -1.11990390      -0.00106567      -0.93062468       1.46345706
H       -2.75684862       5.25137086       0.18341946       1.05732172      -1.14616830      -0.05072561
H        0.29061235       2.31666155       0.58137043       1.56138387       0.13727959       0.79676172
H        0.29696355       3.55901762      -0.89034365       0.24959395      -0.80865586       1.35255384
