50
Properties=species:S:1:pos:R:3:forces:R:3 id=37946 bond=C-S smiles="[H:35][C:13]1([C:17]([N:5]([C:18]([C:14]([N:3]1[C:7]([H:21])([H:22])[H:23])([H:37])[H:38])([H:45])[H:46])[C:11]([H:31])([H:32])[C:9]([H:27])([H:28])[S:1][S:2][C:10]([H:29])([H:30])[C:12]([H:33])([H:34])[N:6]2[C:19]([C:15]([N:4]([C:16]([C:20]2([H:49])[H:50])([H:41])[H:42])[C:8]([H:24])([H:25])[H:26])([H:39])[H:40])([H:47])[H:48])([H:43])[H:44])[H:36]" dataset=PubChem energy=-42645.61070738562 pbc="F F F"
S        0.54313374       0.50364879       4.34258747      -3.98291495      25.38588411      27.02870936
S       -1.21688381       1.64196190       3.99256968       0.15654195      -0.66074535       0.64630658
N        3.30945404      -2.40713255      -0.36800153      -3.19213768      -1.83683663      -0.25708414
N       -2.00669959       2.40515611      -1.91167784       1.50782039       0.45092668      -0.15765456
N        2.68470962      -1.73685806       2.35226302       1.30918422       2.13043886       1.22588466
N       -1.09544996       3.78189728       0.54318244       0.17762385       1.03458652       0.70896196
C        3.80299671      -2.79952662      -1.71102042       1.70182593      -0.33403627       2.24925985
C       -2.42519763       1.82362100      -3.24763131      -1.44409464       1.05716139       2.69904568
C        0.69070708      -0.36702721       3.36639147       0.53251395     -21.05230326     -25.80488605
C       -0.78222648       3.08978912       3.01937627       1.69594344      -0.72161500      -3.05141126
C        2.00756081      -1.01297800       3.50497346       2.92968698      -3.04748827      -1.45994125
C       -1.71807555       3.21215984       1.77837979       2.58336557      -1.63425510      -1.85503267
C        2.71089466      -3.49185626       0.49360456       1.41507241       0.27898332       0.55124477
C        4.15312560      -1.51176756       0.37635236       0.45840102       0.02746122      -0.40375992
C       -2.87550453       3.39676186      -1.18440414       0.69135239      -1.72833481       1.22886945
C       -0.92691329       1.77280352      -1.01874459      -1.14609189       1.82561429      -2.24273226
C        1.97735770      -2.78451602       1.71257023      -0.99671451      -0.54605686      -1.93417542
C        3.31842001      -0.75166492       1.40753220       0.58933657      -0.39891383       1.02768890
C       -2.01942876       4.45474455      -0.36681009      -1.05004717       0.23391969      -1.95989815
C       -0.21292320       2.86580488      -0.17861474      -1.76117813       0.64856730      -2.23574447
H        3.97389634      -1.78809969      -2.13880915       0.38373038      -1.28750687      -0.59021881
H        3.28219135      -3.54506032      -2.35719962      -0.53687991       1.14559083       0.85523324
H        4.71449573      -3.38570802      -1.37477846       0.07679631       0.81620099      -1.47474644
H       -2.57161501       2.60569331      -3.98030043      -0.28206407       0.43302672       0.05919500
H       -1.73617128       1.17823157      -3.71636820       1.16488263      -0.87502311       0.17887306
H       -3.37877181       1.27816728      -3.08384705       0.39461291       0.14250767      -0.49345893
H       -0.00115327      -1.18441479       3.53532986      -0.59690723      -1.02963402      -1.49675569
H        0.45562149       0.16269411       2.38669603       0.81662065      -1.59399726      -0.05336228
H        0.26614847       3.00082943       2.58070469      -1.18683203      -0.19751645       0.79470776
H       -0.77200941       4.00912711       3.52526807      -0.14367026       0.95029695       1.16344043
H        2.70403250      -0.25995462       3.72157078       1.13330568       1.04884358       0.52243649
H        1.98461397      -1.68130057       4.38290362      -0.06598514       0.16352454      -0.45402223
H       -2.02738980       2.22921178       1.45814991      -0.44556091      -0.58444893       0.60343969
H       -2.54681090       3.76025984       1.98960900      -2.37162850       1.58093764       0.66978441
H        3.52247913      -4.24473159       0.79902047      -0.51915346       1.24042340       0.26854569
H        2.02499397      -4.22775905       0.00880282       0.07057332       1.39840917      -0.19438664
H        4.96209009      -2.07038610       0.95743920      -0.61875071       0.61460148      -0.69321637
H        4.63987167      -0.81093590      -0.37281795      -0.50151327      -0.70472014       1.10530779
H       -3.59898570       3.88901445      -1.83654046       0.25156492      -0.19732277      -0.10178210
H       -3.43285230       2.80316183      -0.38698656       0.08580653       0.73261092      -0.89034346
H       -0.16644601       1.25774184      -1.63472963      -0.46229980       0.38409257       0.11824717
H       -1.34063700       1.04699657      -0.37701464      -0.77208436      -1.06531414       0.89732412
H        1.64821466      -3.53863065       2.41044013       0.16108226      -0.22416230       0.45978906
H        1.05039658      -2.35517161       1.29329102      -0.06064946      -0.31644491      -0.28284326
H        2.57202990      -0.07650058       1.02705197      -0.54979014      -0.00166437      -0.97871554
H        4.02408941      -0.03362040       1.89139728      -0.46431846      -0.93572431       0.44245899
H       -1.51840357       5.08136055      -1.19108486      -0.00135845      -0.92968568       1.46125944
H       -2.74608806       5.18788406       0.11223850       1.05751397      -1.14684321      -0.05048803
H        0.30137291       2.25317475       0.51018947       1.56006978       0.13702489       0.79557472
H        0.30772411       3.49553082      -0.96152461       0.25074522      -0.80869735       1.35054895
