50
Properties=species:S:1:pos:R:3:forces:R:3 id=37946 bond=C-S smiles="[H:35][C:13]1([C:17]([N:5]([C:18]([C:14]([N:3]1[C:7]([H:21])([H:22])[H:23])([H:37])[H:38])([H:45])[H:46])[C:11]([H:31])([H:32])[C:9]([H:27])([H:28])[S:1][S:2][C:10]([H:29])([H:30])[C:12]([H:33])([H:34])[N:6]2[C:19]([C:15]([N:4]([C:16]([C:20]2([H:49])[H:50])([H:41])[H:42])[C:8]([H:24])([H:25])[H:26])([H:39])[H:40])([H:47])[H:48])([H:43])[H:44])[H:36]" dataset=PubChem energy=-42620.61162925659 pbc="F F F"
S        0.56004319       0.40388384       4.23073168     -16.00018190     103.34428194     113.64548984
S       -1.19997436       1.54219695       3.88071389      -0.86967386      -0.16620297       0.85347344
N        3.29254459      -2.30736760      -0.25614574      -3.19059827      -1.83120557      -0.23565933
N       -1.98979014       2.30539116      -2.02353363       1.50763900       0.44853775      -0.17255565
N        2.66780017      -1.63709311       2.46411881       1.11319079       2.27759685       1.37173997
N       -1.07854051       3.68213233       0.43132665       0.18067992       1.04558772       0.68907028
C        3.78608726      -2.69976167      -1.59916463       1.70844555      -0.33468074       2.23671151
C       -2.40828818       1.72385605      -3.35948710      -1.44084117       1.06121326       2.70807622
C        0.67379763      -0.26726226       3.47824726      13.21956641     -95.64850547    -109.24128454
C       -0.76531703       2.99002417       2.90752048       1.71049664      -0.74711205      -2.95407590
C        1.99065136      -0.91321305       3.61682925       3.90126487      -4.67997604      -2.02259717
C       -1.70116610       3.11239489       1.66652400       2.59321507      -1.65991751      -1.83567587
C        2.69398521      -3.39209131       0.60546035       1.44098074       0.28930546       0.53769561
C        4.13621615      -1.41200261       0.48820815       0.45827905      -0.00335893      -0.40868900
C       -2.85859508       3.29699691      -1.29625993       0.68368109      -1.72557366       1.23347543
C       -0.91000384       1.67303857      -1.13060038      -1.14676457       1.81822995      -2.23466124
C        1.96044825      -2.68475107       1.82442602      -1.03165126      -0.65280080      -1.93850963
C        3.30151056      -0.65189997       1.51938799       0.63916471      -0.32048293       0.98124928
C       -2.00251931       4.35497960      -0.47866588      -1.03986173       0.22564379      -1.95138360
C       -0.19601375       2.76603993      -0.29047053      -1.76580428       0.65610288      -2.23125077
H        3.95698689      -1.68833474      -2.02695336       0.38188069      -1.28939717      -0.59067718
H        3.26528190      -3.44529537      -2.24534383      -0.53702560       1.14818181       0.85754062
H        4.69758628      -3.28594307      -1.26292267       0.07294493       0.81843285      -1.47610388
H       -2.55470556       2.50592836      -4.09215622      -0.28311991       0.43318485       0.05746198
H       -1.71926183       1.07846662      -3.82822399       1.16538527      -0.87601628       0.17769569
H       -3.36186236       1.17840233      -3.19570284       0.39232963       0.14131734      -0.49423174
H       -0.01806272      -1.08464984       3.64718565      -0.76800777      -2.99042107      -2.67824389
H        0.43871204       0.26245906       2.49855182       0.80565015      -2.21259759      -1.82295615
H        0.28305792       2.90106448       2.46884890      -1.11230829      -0.17876776       0.74399982
H       -0.75509996       3.90936216       3.41341228      -0.12563433       0.94898603       1.14512742
H        2.68712305      -0.16018967       3.83342657       0.92362565       1.20550089       0.49415429
H        1.96770452      -1.58153562       4.49475941      -0.26240945       0.23753908      -0.49726903
H       -2.01048035       2.12944683       1.34629412      -0.44226792      -0.57816676       0.61186411
H       -2.52990145       3.66049489       1.87775321      -2.36680340       1.58088950       0.68087199
H        3.50556968      -4.14496664       0.91087626      -0.52425665       1.24092585       0.26907057
H        2.00808452      -4.12799410       0.12065861       0.06866122       1.40414116      -0.18361471
H        4.94518064      -1.97062115       1.06929499      -0.61291177       0.61547406      -0.69425680
H        4.62296222      -0.71117095      -0.26096216      -0.50554208      -0.70330107       1.11904472
H       -3.58207625       3.78924950      -1.94839625       0.25099383      -0.19688796      -0.10400811
H       -3.41594285       2.70339688      -0.49884235       0.08876517       0.73466263      -0.89222358
H       -0.14953656       1.15797689      -1.74658542      -0.46046061       0.38362545       0.11525919
H       -1.32372755       0.94723162      -0.48887043      -0.76829262      -1.06045259       0.89729808
H        1.63130521      -3.43886570       2.52229592       0.16168353      -0.20686675       0.45216133
H        1.03348713      -2.25540666       1.40514681      -0.03403245      -0.27773956      -0.24727018
H        2.55512045       0.02326437       1.13890776      -0.57527168      -0.02278722      -0.96111774
H        4.00717996       0.06614455       2.00325307      -0.46712508      -0.93765633       0.44192791
H       -1.50149412       4.98159560      -1.30294065      -0.00161452      -0.92731208       1.45618215
H       -2.72917861       5.08811911       0.00038271       1.05690304      -1.14790173      -0.05010703
H        0.31828236       2.15340980       0.39833368       1.55359404       0.13170389       0.79677944
H        0.32463356       3.39576587      -1.07338040       0.25182617      -0.80685881       1.34460714
