50
Properties=species:S:1:pos:R:3:forces:R:3 id=37946 bond=C-S smiles="[H:35][C:13]1([C:17]([N:5]([C:18]([C:14]([N:3]1[C:7]([H:21])([H:22])[H:23])([H:37])[H:38])([H:45])[H:46])[C:11]([H:31])([H:32])[C:9]([H:27])([H:28])[S:1][S:2][C:10]([H:29])([H:30])[C:12]([H:33])([H:34])[N:6]2[C:19]([C:15]([N:4]([C:16]([C:20]2([H:49])[H:50])([H:41])[H:42])[C:8]([H:24])([H:25])[H:26])([H:39])[H:40])([H:47])[H:48])([H:43])[H:44])[H:36]" dataset=PubChem energy=-42650.595916606115 pbc="F F F"
S        0.48933096       0.82108276       4.69849226      -0.64728966      -1.01080263      -2.44489233
S       -1.27068659       1.95939587       4.34847447       1.02726367      -0.99160194       0.49022733
N        3.36325682      -2.72456652      -0.72390632      -3.19453159      -1.84568229      -0.26816425
N       -2.06050237       2.72259008      -1.55577305       1.50634251       0.44678905      -0.15745914
N        2.73851240      -2.05429203       1.99635823       1.40528186       2.13298568       1.03349303
N       -1.14925274       4.09933125       0.89908723       0.17286379       1.01919823       0.72046768
C        3.85679949      -3.11696059      -2.06692521       1.69856471      -0.33450726       2.25443959
C       -2.47900041       2.14105497      -2.89172652      -1.44677492       1.05507321       2.69469958
C        0.74450986      -0.68446118       3.01048668      -1.97359579       1.25869570      -0.36025892
C       -0.83602926       3.40722309       3.37528106       1.67515765      -0.69191617      -3.11031277
C        2.06136359      -1.33041197       3.14906867       1.81983077      -1.31444905      -0.24315283
C       -1.77187833       3.52959381       2.13428458       2.57097793      -1.62857230      -1.86232079
C        2.76469744      -3.80929023       0.13769977       1.40754538       0.27991859       0.56097206
C        4.20692838      -1.82920153       0.02044757       0.45628612       0.04285712      -0.39736962
C       -2.92930731       3.71419583      -0.82849935       0.69698562      -1.73053047       1.22859999
C       -0.98071607       2.09023749      -0.66283980      -1.15153226       1.83621775      -2.24256414
C        2.03116048      -3.10194999       1.35666544      -1.03310933      -0.53778822      -1.97917117
C        3.37222279      -1.06909889       1.05162741       0.58581693      -0.40623309       0.99716689
C       -2.07323154       4.77217852      -0.01090530      -1.05732989       0.23933382      -1.96057350
C       -0.26672598       3.18323885       0.17729005      -1.74359079       0.63796443      -2.22771056
H        4.02769912      -2.10553366      -2.49471394       0.38403022      -1.28703788      -0.58977833
H        3.33599413      -3.86249429      -2.71310441      -0.53669954       1.14474604       0.85379290
H        4.76829851      -3.70314199      -1.73068325       0.07860612       0.81502830      -1.47378832
H       -2.62541779       2.92312728      -3.62439564      -0.28135393       0.43274455       0.06000954
H       -1.78997406       1.49566554      -3.36046341       1.16464222      -0.87461238       0.17911297
H       -3.43257459       1.59560125      -2.72794226       0.39564445       0.14297111      -0.49338007
H        0.05264951      -1.50184876       3.17942507      -0.95870191       0.70087750       0.15784279
H        0.50942427      -0.15473986       2.03079124       0.44541817      -0.42851058       1.54214712
H        0.21234569       3.31826340       2.93660948      -1.24683308      -0.22338401       0.84773086
H       -0.82581219       4.32656108       3.88117286      -0.16394813       0.95333014       1.18839911
H        2.75783528      -0.57738859       3.36566599       1.21583184       0.96315254       0.52643852
H        2.03841675      -1.99873454       4.02699883       0.01515488       0.10456473      -0.47597884
H       -2.08119258       2.54664575       1.81405470      -0.44302690      -0.59321210       0.59849817
H       -2.60061368       4.07769381       2.34551379      -2.37521619       1.58204238       0.66385169
H        3.57628191      -4.56216556       0.44311568      -0.51627906       1.23909727       0.26816016
H        2.07879675      -4.54519302      -0.34710197       0.07077899       1.39481162      -0.19743198
H        5.01589287      -2.38782007       0.60153441      -0.61937842       0.61201560      -0.69237436
H        4.69367445      -1.12836987      -0.72872274      -0.49870422      -0.70559343       1.09926535
H       -3.65278848       4.20644842      -1.48063567       0.25202339      -0.19786232      -0.10085302
H       -3.48665508       3.12059580      -0.03108177       0.08406367       0.73174554      -0.88916794
H       -0.22024879       1.57517581      -1.27882484      -0.45997382       0.38656330       0.11300539
H       -1.39443978       1.36443054      -0.02110985      -0.77670868      -1.06579381       0.89988909
H        1.70201744      -3.85606462       2.05453534       0.16368295      -0.23314867       0.46764945
H        1.10419936      -2.67260558       0.93738623      -0.05474092      -0.36672980      -0.31309560
H        2.62583268      -0.39393455       0.67114718      -0.51195216       0.00021798      -0.98584464
H        4.07789219      -0.35105437       1.53549249      -0.46484596      -0.93963203       0.44670555
H       -1.57220635       5.39879452      -0.83518007      -0.00085454      -0.93118977       1.46470105
H       -2.79989084       5.50531803       0.46814329       1.05651951      -1.14574959      -0.05129587
H        0.24757013       2.57060872       0.86609426       1.56119000       0.13780750       0.80549729
H        0.25392133       3.81296479      -0.60561982       0.24607115      -0.80796162       1.35180881
