50
Properties=species:S:1:pos:R:3:forces:R:3 id=37946 bond=C-S smiles="[H:35][C:13]1([C:17]([N:5]([C:18]([C:14]([N:3]1[C:7]([H:21])([H:22])[H:23])([H:37])[H:38])([H:45])[H:46])[C:11]([H:31])([H:32])[C:9]([H:27])([H:28])[S:1][S:2][C:10]([H:29])([H:30])[C:12]([H:33])([H:34])[N:6]2[C:19]([C:15]([N:4]([C:16]([C:20]2([H:49])[H:50])([H:41])[H:42])[C:8]([H:24])([H:25])[H:26])([H:39])[H:40])([H:47])[H:48])([H:43])[H:44])[H:36]" dataset=PubChem energy=-42651.03115338034 pbc="F F F"
S        0.49701707       0.77573505       4.64764872      -0.52903857      -0.92267268      -2.23625643
S       -1.26300048       1.91404816       4.29763093       0.93822243      -0.97088919       0.46084740
N        3.35557071      -2.67921881      -0.67306278      -3.19385854      -1.84576643      -0.27010623
N       -2.05281626       2.67724237      -1.60661659       1.50559058       0.44806888      -0.15612182
N        2.73082629      -2.00894432       2.04720177       1.40455095       2.12682353       1.06296767
N       -1.14156663       4.05398354       0.84824369       0.17329997       1.02084904       0.72304430
C        3.84911338      -3.07161288      -2.01608167       1.69797609      -0.33408190       2.25569232
C       -2.47131430       2.09570726      -2.94257006      -1.44656113       1.05489712       2.69432371
C        0.73682375      -0.63911347       3.06133022      -2.14574418       1.41815798      -0.26564746
C       -0.82834315       3.36187538       3.32443752       1.67874616      -0.69314577      -3.11061735
C        2.05367748      -1.28506426       3.19991221       1.88484833      -1.41650667      -0.37124275
C       -1.76419222       3.48424610       2.08344104       2.57217805      -1.62864766      -1.86721399
C        2.75701133      -3.76394252       0.18854331       1.40448835       0.27867404       0.56081680
C        4.19924227      -1.78385382       0.07129111       0.45675584       0.04549726      -0.39761490
C       -2.92162120       3.66884812      -0.87934289       0.69742078      -1.73129584       1.22805065
C       -0.97302996       2.04488978      -0.71368334      -1.15008430       1.83499803      -2.24277983
C        2.02347437      -3.05660228       1.40750898      -1.01936475      -0.52743023      -1.96849230
C        3.36453668      -1.02375118       1.10247095       0.58205726      -0.41522625       1.00731940
C       -2.06554543       4.72683081      -0.06174884      -1.05762366       0.23983777      -1.96148465
C       -0.25903987       3.13789114       0.12644651      -1.74587094       0.63836791      -2.23030219
H        4.02001301      -2.06018595      -2.44387040       0.38423078      -1.28679238      -0.58981720
H        3.32830802      -3.81714658      -2.66226087      -0.53674949       1.14452930       0.85371954
H        4.76061240      -3.65779428      -1.67983971       0.07899734       0.81478246      -1.47367620
H       -2.61773168       2.87777957      -3.67523918      -0.28136390       0.43283548       0.06004629
H       -1.78228795       1.45031783      -3.41130695       1.16454932      -0.87454730       0.17931619
H       -3.42488848       1.55025354      -2.77878580       0.39582039       0.14300658      -0.49330409
H        0.04496340      -1.45650105       3.23026861      -0.91241890       0.63158979       0.03739093
H        0.50173816      -0.10939215       2.08163478       0.47013160      -0.53523183       1.46890715
H        0.22003180       3.27291569       2.88576594      -1.24599685      -0.22010983       0.84411177
H       -0.81812608       4.28121337       3.83032932      -0.16299637       0.95198484       1.18792096
H        2.75014917      -0.53204088       3.41650953       1.21590087       0.96696856       0.52895664
H        2.03073064      -1.95338683       4.07784237       0.01560707       0.10354320      -0.46879548
H       -2.07350647       2.50129804       1.76321116      -0.44285572      -0.59206966       0.59926620
H       -2.59292757       4.03234610       2.29467025      -2.37479037       1.58225491       0.66429936
H        3.56859580      -4.51681785       0.49395922      -0.51587455       1.23908332       0.26813228
H        2.07111064      -4.49984531      -0.29625843       0.07103542       1.39473441      -0.19857869
H        5.00820676      -2.34247236       0.65237795      -0.61985727       0.61216558      -0.69220681
H        4.68598834      -1.08302216      -0.67787920      -0.49855548      -0.70573462       1.09821222
H       -3.64510237       4.16110071      -1.53147921       0.25201436      -0.19772420      -0.10067773
H       -3.47896897       3.07524809      -0.08192531       0.08398175       0.73160857      -0.88903972
H       -0.21256268       1.52982810      -1.32966838      -0.46072612       0.38620512       0.11457738
H       -1.38675367       1.31908283      -0.07195339      -0.77607933      -1.06610185       0.89926771
H        1.69433133      -3.81071691       2.10537888       0.16304194      -0.23369048       0.46671772
H        1.09651325      -2.62725787       0.98822977      -0.06009520      -0.36153811      -0.31173783
H        2.61814657      -0.34858684       0.72199072      -0.51624882       0.00259855      -0.98658094
H        4.07020608      -0.30570666       1.58633603      -0.46376923      -0.93869823       0.44548428
H       -1.56452024       5.35344681      -0.88602361      -0.00086240      -0.93121601       1.46479393
H       -2.79220473       5.45997032       0.41729975       1.05668464      -1.14573550      -0.05108289
H        0.25525624       2.52526101       0.81525072       1.56161037       0.13773725       0.80436873
H        0.26160744       3.76761708      -0.65646336       0.24672143      -0.80813055       1.35234493
