26
Properties=species:S:1:pos:R:3:forces:R:3 id=6711 bond=C-S smiles="[H:15][C:4]1([C:5]([C:8]([C:10]([C:9]([C:6]1([H:19])[H:20])([H:25])[H:26])([C:7]([H:21])([H:22])[C:3]([H:13])([H:14])[S:1][H:11])[S:2][H:12])([H:23])[H:24])([H:17])[H:18])[H:16]" dataset=PubChem energy=-30224.31931394878 pbc="F F F"
S        0.41034736       3.58095314      -1.78913016      -0.73312637       1.93420651      -0.14150349
S        0.80695171      -0.85566244      -1.43433977       4.02618082     -35.94570413     -53.33240344
C       -0.18215909       1.91590454      -1.60782022       3.71542952       0.66025978       3.65849474
C        0.18980277      -0.07356007       2.60580664      -0.40587327      -0.87492460       1.12796283
C        1.60669908      -0.15746169       2.07329970       0.79063101      -1.34389938      -0.25604986
C       -0.84955564       0.31241578       1.57467847      -1.96585790       0.67717649      -1.15602394
C        1.01322091       1.18578036      -0.78728396       1.71609468       4.49287066       0.99129802
C        1.71152720      -0.79053758       0.66046643      -0.28583649       0.50138220       3.18910467
C       -0.69288459      -0.40343372       0.20688610      -0.93506029       1.33816149       0.79819079
C        0.74703239      -0.23277734      -0.40260905      -3.64148135      29.79076059      49.85030612
H        1.57549855       3.50142266      -2.41767306       0.21222549      -0.65456058      -0.18915705
H        2.12677974      -1.35284874      -1.31842328      -0.95092353       0.17518898      -1.41894884
H       -1.04709032       2.04873468      -1.01909274      -0.99025067      -0.05390962       0.61005766
H       -0.38060352       1.47838702      -2.49995750      -0.52994917      -1.49699703      -2.43354674
H       -0.08080640      -1.05210589       3.11932688       0.21613868       1.14453338      -0.71391680
H        0.15782073       0.71389042       3.36110120       0.01350236      -0.32619413       0.25139503
H        2.29172501      -0.74285016       2.74201208      -0.86480712       0.25639509      -0.38177598
H        2.09064743       0.78989096       2.06476885       0.07355808       1.08061332      -0.21077276
H       -1.91747441       0.10849579       1.90225750       1.33881536       0.01594059       0.01390298
H       -0.87104013       1.42321088       1.43559318       0.35242722      -0.80589627      -0.07367909
H        1.58363030       1.80275120       0.04660940      -1.98933000      -0.45403588      -1.32957261
H        1.80410490       1.10924603      -1.57049400      -0.37720054       0.27183594       0.73641005
H        1.50865976      -1.87950967       0.75243917       0.12454832       0.67279797      -0.37906723
H        2.73756466      -0.62676112       0.35328291       0.06342589      -0.10119281      -0.57507792
H       -1.51331701      -0.15583305      -0.56166000       1.38217718      -0.16708208       1.18351050
H       -0.72501603      -1.45951663       0.35467478      -0.35229662      -0.79699093       0.17559457
