26
Properties=species:S:1:pos:R:3:forces:R:3 id=6711 bond=C-S smiles="[H:15][C:4]1([C:5]([C:8]([C:10]([C:9]([C:6]1([H:19])[H:20])([H:25])[H:26])([C:7]([H:21])([H:22])[C:3]([H:13])([H:14])[S:1][H:11])[S:2][H:12])([H:23])[H:24])([H:17])[H:18])[H:16]" dataset=PubChem energy=-30232.677166845886 pbc="F F F"
S        0.35451346       4.16136881      -0.82774472      -0.72854469       1.93712672      -0.02854891
S        0.86278561      -1.43607811      -2.39572521       1.36007938       0.21592316       1.38970165
C       -0.23799299       2.49632021      -0.64643478       3.75873943       0.70008619       3.66245509
C        0.13396887       0.50685560       3.56719208      -0.38186821      -0.94213274       1.12124058
C        1.55086518       0.42295398       3.03468514       0.28441116      -0.91369043       0.01274465
C       -0.90538954       0.89283145       2.53606391      -1.47311358       0.91660868      -0.81694197
C        0.95738701       1.76619603       0.17410148       0.75935964      -0.03550212      -2.35874660
C        1.65569330      -0.21012191       1.62185187       0.05910156      -1.15137295      -1.23980928
C       -0.74871849       0.17698195       1.16827154       0.15957414      -0.45977670      -2.64955687
C        0.69119849       0.34763833       0.55877639      -1.37821977       1.70386575       4.02457023
H        1.51966465       4.08183833      -1.45628762       0.21107218      -0.65627611      -0.20954106
H        2.18261364      -1.93326441      -2.27980872      -1.52699489       0.64801164      -0.01184739
H       -1.10292422       2.62915035      -0.05770730      -0.99706278      -0.06378266       0.59566867
H       -0.43643742       2.05880269      -1.53857206      -0.48092112      -1.60370196      -2.44816672
H       -0.13664030      -0.47169022       4.08071232       0.22562605       1.16165011      -0.72854266
H        0.10198683       1.29430609       4.32248664       0.01990193      -0.30350796       0.25285111
H        2.23589111      -0.16243449       3.70339752      -0.87036034       0.21344739      -0.55070291
H        2.03481353       1.37030663       3.02615429       0.07830076       1.06246084      -0.24146027
H       -1.97330831       0.68891146       2.86364294       1.36819826      -0.04214730      -0.14032821
H       -0.92687403       2.00362655       2.39697862       0.35458896      -0.82171149      -0.08041626
H        1.52779640       2.38316687       1.00799484      -1.73745219      -1.14882838      -1.40873425
H        1.74827100       1.68966170      -0.60910856      -0.22252539       0.22020431       0.50056539
H        1.45282586      -1.29909400       1.71382461       0.30260337       0.64830019      -0.12079149
H        2.68173076      -0.04634545       1.31466835       0.18268644      -0.29976100      -0.24629237
H       -1.56915091       0.42458262       0.39972544       1.27801214      -0.16427925       1.38950009
H       -0.78084993      -0.87910096       1.31606022      -0.60266108      -0.82273623       0.33109057
