26
Properties=species:S:1:pos:R:3:forces:R:3 id=6711 bond=C-S smiles="[H:15][C:4]1([C:5]([C:8]([C:10]([C:9]([C:6]1([H:19])[H:20])([H:25])[H:26])([C:7]([H:21])([H:22])[C:3]([H:13])([H:14])[S:1][H:11])[S:2][H:12])([H:23])[H:24])([H:17])[H:18])[H:16]" dataset=PubChem energy=-30233.398994352756 pbc="F F F"
S        0.36404608       4.06227345      -0.99188370      -0.73435984       1.94741795      -0.05087728
S        0.85325299      -1.33698275      -2.23158623       1.28968889       0.45009265       1.79696062
C       -0.22846037       2.39722485      -0.81057376       3.77186847       0.68597713       3.68300670
C        0.14350149       0.40776024       3.40305310      -0.38087374      -0.91529925       1.14381766
C        1.56039780       0.32385862       2.87054616       0.31814108      -0.95505096      -0.06417731
C       -0.89585692       0.79373609       2.37192493      -1.51474407       0.86328586      -0.89289753
C        0.96691963       1.66710067       0.00996250       0.87063044       0.11639372      -2.24842614
C        1.66522592      -0.30921727       1.45771289       0.05431788      -1.08368197      -1.05712942
C       -0.73918587       0.07788659       1.00413256       0.17509390      -0.34916389      -2.47628989
C        0.70073111       0.24854297       0.39463741      -1.33798115       1.15197598       3.19429596
H        1.52919727       3.98274297      -1.62042660       0.21104883      -0.65552433      -0.20429268
H        2.17308102      -1.83416905      -2.11566974      -1.52556584       0.66993863       0.02898751
H       -1.09339160       2.53005499      -0.22184628      -0.99975076      -0.06208355       0.59540571
H       -0.42690480       1.95970733      -1.70271104      -0.48030723      -1.59913992      -2.44613280
H       -0.12710768      -0.57078558       3.91657334       0.22425117       1.15760201      -0.72664660
H        0.11151945       1.19521073       4.15834766       0.01744829      -0.30866459       0.25937298
H        2.24542373      -0.26152985       3.53925854      -0.86989163       0.21885804      -0.53645026
H        2.04434615       1.27121127       2.86201531       0.07460530       1.06454029      -0.22721863
H       -1.96377569       0.58981610       2.69950396       1.36724255      -0.03167029      -0.11976440
H       -0.91734141       1.90453119       2.23283964       0.35485012      -0.81705118      -0.07426767
H        1.53732902       2.28407151       0.84385586      -1.79514159      -1.13035471      -1.41615127
H        1.75780362       1.59056634      -0.77324754      -0.26168608       0.21744282       0.52816799
H        1.46235848      -1.39818936       1.54968563       0.30326982       0.65352518      -0.13329684
H        2.69126338      -0.14544081       1.15052937       0.18238223      -0.30335348      -0.25593511
H       -1.55961829       0.32548726       0.23558646       1.28054509      -0.16597052       1.38165472
H       -0.77131731      -0.97819632       1.15192124      -0.59334821      -0.82297218       0.31841951
