26
Properties=species:S:1:pos:R:3:forces:R:3 id=6711 bond=C-S smiles="[H:15][C:4]1([C:5]([C:8]([C:10]([C:9]([C:6]1([H:19])[H:20])([H:25])[H:26])([C:7]([H:21])([H:22])[C:3]([H:13])([H:14])[S:1][H:11])[S:2][H:12])([H:23])[H:24])([H:17])[H:18])[H:16]" dataset=PubChem energy=-30234.3388862465 pbc="F F F"
S        0.37357870       3.96317809      -1.15602268      -0.74248780       1.95692144      -0.08004925
S        0.84372037      -1.23788739      -2.06744725       1.19801721       0.68576047       2.27100139
C       -0.21892775       2.29812949      -0.97471274       3.78955060       0.67638674       3.71029653
C        0.15303411       0.30866488       3.23891412      -0.37940045      -0.88387982       1.16411510
C        1.56993042       0.22476326       2.70640718       0.37484187      -1.01813634      -0.15691922
C       -0.88632430       0.69464073       2.20778595      -1.58448219       0.79134577      -0.98878683
C        0.97645225       1.56800531      -0.15417648       1.02215902       0.35861284      -2.03600298
C        1.67475854      -0.40831263       1.29357391       0.03201462      -0.96318647      -0.78544052
C       -0.72965325      -0.02120877       0.83999358       0.19901927      -0.17560866      -2.20547683
C        0.71026373       0.14944761       0.23049843      -1.27379385       0.37598842       2.02446777
H        1.53872989       3.88364761      -1.78456558       0.21225699      -0.65519369      -0.19762060
H        2.16354840      -1.73507369      -1.95153076      -1.52736371       0.69828183       0.07810570
H       -1.08385898       2.43095963      -0.38598526      -1.00254465      -0.06132504       0.59476323
H       -0.41737218       1.86061197      -1.86685002      -0.48608477      -1.58645653      -2.44675965
H       -0.11757506      -0.66988094       3.75243436       0.22258770       1.15214600      -0.72376990
H        0.12105207       1.09611537       3.99420868       0.01487661      -0.31450052       0.26678441
H        2.25495635      -0.36062521       3.37511956      -0.86965722       0.22772481      -0.51423879
H        2.05387877       1.17211591       2.69787633       0.07077681       1.06674868      -0.21075174
H       -1.95424307       0.49072074       2.53536498       1.36517782      -0.01672127      -0.08908487
H       -0.90780879       1.80543583       2.06870066       0.35545441      -0.81139568      -0.06782966
H        1.54686164       2.18497615       0.67971688      -1.86996690      -1.09052521      -1.43004218
H        1.76733624       1.49147098      -0.93738652      -0.30289737       0.23026688       0.56091185
H        1.47189110      -1.49728472       1.38554665       0.30420472       0.65226638      -0.14397624
H        2.70079600      -0.24453617       0.98639039       0.18931549      -0.30574052      -0.26745608
H       -1.55008567       0.22639190       0.07144748       1.27541881      -0.16641448       1.36945654
H       -0.76178469      -1.07729168       0.98778226      -0.58457707      -0.82614641       0.30686137
