26
Properties=species:S:1:pos:R:3:forces:R:3 id=6711 bond=C-S smiles="[H:15][C:4]1([C:5]([C:8]([C:10]([C:9]([C:6]1([H:19])[H:20])([H:25])[H:26])([C:7]([H:21])([H:22])[C:3]([H:13])([H:14])[S:1][H:11])[S:2][H:12])([H:23])[H:24])([H:17])[H:18])[H:16]" dataset=PubChem energy=-30236.428778045003 pbc="F F F"
S        0.39473564       3.74324324      -1.52031706      -0.76107952       1.96638499      -0.14812303
S        0.82256343      -1.01795254      -1.70315287       1.15561488      -1.30304572       0.15890692
C       -0.19777081       2.07819464      -1.33900712       3.81548229       0.68914341       3.74444964
C        0.17419105       0.08873003       2.87461974      -0.37908531      -0.84105337       1.16497570
C        1.59108736       0.00482841       2.34211280       0.59184394      -1.23306501      -0.33367215
C       -0.86516736       0.47470588       1.84349157      -1.84263039       0.61325924      -1.19916203
C        0.99760919       1.34807046      -0.51847086       1.43217447       1.59198190      -0.82472209
C        1.69591548      -0.62824748       0.92927953      -0.13988730      -0.36544835       0.39343694
C       -0.70849631      -0.24114362       0.47569920       0.13487649       0.50129005      -1.06016213
C        0.73142067      -0.07048724      -0.13379595      -1.10120540      -0.24434768       1.05584462
H        1.55988683       3.66371276      -2.14885996       0.21512359      -0.65464843      -0.18390217
H        2.14239146      -1.51513884      -1.58723638      -1.54885454       0.72090935      -0.00602263
H       -1.06270204       2.21102478      -0.75027964      -1.00240870      -0.06424464       0.59723238
H       -0.39621524       1.64067712      -2.23114440      -0.52366344      -1.52920135      -2.45847655
H       -0.09641812      -0.88981579       3.38813998       0.21806305       1.14183593      -0.71582936
H        0.14220901       0.87618052       3.62991430       0.01262335      -0.32255864       0.27382277
H        2.27611329      -0.58056006       3.01082518      -0.87014523       0.25787544      -0.43818262
H        2.07503571       0.95218106       2.33358195       0.06709793       1.07314697      -0.18998515
H       -1.93308613       0.27078589       2.17107060       1.35611911       0.02337707       0.00205722
H       -0.88665185       1.58550098       1.70440628       0.35894372      -0.79943739      -0.06604506
H        1.56801858       1.96504130       0.31542250      -2.03482227      -0.86422022      -1.47229405
H        1.78849318       1.27153613      -1.30168090      -0.34730329       0.32556646       0.62781450
H        1.49304804      -1.71721957       1.02125227       0.28485441       0.61313450      -0.17974548
H        2.72195294      -0.46447102       0.62209601       0.22575534      -0.28380410      -0.33252687
H       -1.52892873       0.00645705      -0.29284690       1.24258951      -0.16984312       1.30824846
H       -0.74062775      -1.29722653       0.62348788      -0.55561508      -0.84332355       0.28398118
