40
Properties=species:S:1:pos:R:3:forces:R:3 id=42366 bond=C-N smiles="[H:29][c:7]1[c:4]([c:10]([c:16]2[c:19]([c:13]1[H:35])[C:24]([c:20]3[c:14]([c:8]([c:5]([c:11]([c:17]3[N:21]2[C:23]([H:37])([H:38])[H:39])[H:33])[H:27])[H:30])[H:36])([H:40])[N:22]4[c:18]5[c:12]([c:6]([c:3]([c:9]([c:15]5[N:1]=[N:2]4)[H:31])[H:25])[H:28])[H:34])[H:32])[H:26]" dataset=PubChem energy=-26972.731955525094 pbc="F F F"
N        3.39624165      -2.51247195       0.22481635      -0.27485912       1.41350389       0.47282186
N        2.94370399      -1.32217876       0.48410177       0.27030283      -0.06935891       0.59626059
C        1.29867418      -4.89529088      -1.75684576       0.27271375       0.31176198       1.05307888
C        0.70675178       0.49010524       4.59517235      -0.00777116       0.66673556      -0.49224411
C        1.79093163       3.62831613      -1.80890303       0.03836391       0.54643403       0.35630174
C        0.24101679      -4.00525954      -2.01723628       0.31135591       1.20948973       0.06155025
C        0.62929781      -0.79140726       4.06180377       0.22115451       0.48593011      -0.06259555
C        1.91649167       2.41253349      -2.47009997      -0.24692360      -0.48808029       1.01974385
C        2.38533638      -4.50301793      -0.96853023       0.18273658      -0.21416510      -0.50383000
C        0.73635908       1.59915181       3.74445671      -0.42830179      -0.97133330       0.56374899
C        1.30383201       3.67283698      -0.51137345       0.19411638       0.71630563      -0.29986571
C        0.33923249      -2.68760565      -1.57502990      -1.06832827       0.18442074       0.23208792
C        0.69149534      -0.98058084       2.69717402      -0.26739170       0.78564267      -1.31352267
C        1.56193863       1.21189221      -1.83420496       0.00720876       1.47845374       1.26509622
C        2.44899843      -3.15996269      -0.50782364      -0.38108434      -1.33768148      -0.50784657
C        0.65143974       1.44077906       2.36325461      -0.53501402      -0.02008591      -2.53659660
C        1.03079198       2.48818060       0.16582207      -1.97463222      -0.67779800       1.52988209
C        1.39381163      -2.29244688      -0.73457890      -0.64270673      -0.38251966      -0.63352938
C        0.70952724       0.14656693       1.80303783       0.11849067      -1.48256675       1.03537504
C        1.14055495       1.25471803      -0.49215608       0.20826721      -1.06423357      -0.49000727
N        0.55268244       2.55246755       1.49376244       1.64219550       1.26334364       1.08010974
N        1.70432328      -1.14743522      -0.04371186       0.06177151      -1.27878204      -0.90068659
C       -1.44881350       4.57658179       2.02351007      -1.30005281       1.26784447      -0.53272799
C        0.78726192      -0.05538463       0.27800255       0.40154843       1.40903337       0.46694546
H        1.18114254      -5.90291217      -2.11080103       0.30613873      -0.25707489       0.02482888
H        0.71839337       0.59860018       5.67247480       0.03943178       0.21893881      -0.12432524
H        2.09330581       4.58681055      -2.25161725      -0.19169428      -0.67342788      -0.09051012
H       -0.65392937      -4.31146053      -2.57179813       0.61058387       0.11537754       0.14376708
H        0.56111173      -1.62197450       4.73581261       0.00143763      -0.34788186       0.05137778
H        2.35091172       2.37855574      -3.43026667       0.20461432      -0.02617131      -0.99746518
H        3.19431852      -5.21279052      -0.72100394      -0.54850883       0.57236491      -0.24137205
H        0.76726763       2.58637997       4.12640137      -0.04008901       0.73983887       0.30921278
H        1.15102978       4.65324112      -0.03775023       0.04628436      -0.75623972      -0.00239782
H       -0.43770994      -1.96559743      -1.82107239       0.03683869      -0.25063408       0.09017187
H        0.65047987      -2.01474646       2.34169430       0.19756627       0.53312345      -0.22575867
H        1.66168736       0.29088854      -2.34872966       0.09924307      -0.70819557      -0.30334860
H       -2.08978480       4.80167254       1.14722321       0.97562917      -0.72496462      -0.11326668
H       -2.13906974       4.28104193       2.79472599       0.31670179      -1.04920811       0.48884534
H       -0.98521906       5.52081449       2.34622130       0.86324415      -0.83591486      -0.26683258
H       -0.21964993      -0.34731725      -0.03431230       0.28027378      -0.30366146      -0.20230493
