40
Properties=species:S:1:pos:R:3:forces:R:3 id=42366 bond=C-N smiles="[H:29][c:7]1[c:4]([c:10]([c:16]2[c:19]([c:13]1[H:35])[C:24]([c:20]3[c:14]([c:8]([c:5]([c:11]([c:17]3[N:21]2[C:23]([H:37])([H:38])[H:39])[H:33])[H:27])[H:30])[H:36])([H:40])[N:22]4[c:18]5[c:12]([c:6]([c:3]([c:9]([c:15]5[N:1]=[N:2]4)[H:31])[H:25])[H:28])[H:34])[H:32])[H:26]" dataset=PubChem energy=-26972.971931954922 pbc="F F F"
N        3.35005329      -2.46576162       0.23704130      -0.27209038       1.40606629       0.47095164
N        2.89751563      -1.27546843       0.49632672       0.26025441      -0.06824754       0.59072571
C        1.25248582      -4.84858055      -1.74462081       0.27252247       0.31101289       1.05259798
C        0.66056342       0.53681557       4.60739730      -0.02183044       0.64069569      -0.49353419
C        1.74474327       3.67502646      -1.79667808       0.02763641       0.52872580       0.33981239
C        0.19482843      -3.95854921      -2.00501133       0.31126688       1.20977142       0.06145045
C        0.58310945      -0.74469693       4.07402872       0.22217895       0.47749512      -0.05696176
C        1.87030331       2.45924382      -2.45787502      -0.24736595      -0.49740404       1.00602261
C        2.33914802      -4.45630760      -0.95630528       0.18242887      -0.21324461      -0.50354145
C        0.69017072       1.64586214       3.75668166      -0.40905031      -0.99693646       0.51704926
C        1.25764365       3.71954731      -0.49914850       0.20589304       0.65680662      -0.29583447
C        0.29304413      -2.64089532      -1.56280495      -1.06876393       0.18311870       0.23154660
C        0.64530698      -0.93387051       2.70939897      -0.25067450       0.80176427      -1.27029018
C        1.51575027       1.25860254      -1.82198001       0.03580676       1.52383477       1.24858009
C        2.40281007      -3.11325236      -0.49559869      -0.37825562      -1.33849686      -0.50718902
C        0.60525138       1.48748939       2.37547956      -0.59636898      -0.02206129      -2.34652921
C        0.98460362       2.53489093       0.17804702      -1.96426725      -0.52139404       1.39545295
C        1.34762327      -2.24573655      -0.72235395      -0.63966870      -0.37600363      -0.62899014
C        0.66333888       0.19327726       1.81526278       0.10571764      -1.41700114       1.01413770
C        1.09436659       1.30142836      -0.47993113       0.17950661      -1.03463311      -0.42410259
N        0.50649408       2.59917788       1.50598739       1.42587357       1.40421123       1.10611651
N        1.65813492      -1.10072489      -0.03148691       0.07425413      -1.28499180      -0.89888666
C       -1.40262514       4.52987146       2.01128512      -1.11493587       1.05743093      -0.58529446
C        0.74107356      -0.00867430       0.29022750       0.36766232       1.40837793       0.45830689
H        1.13495418      -5.85620184      -2.09857608       0.30600629      -0.25752415       0.02474719
H        0.67220501       0.64531051       5.68469975       0.03838391       0.21789403      -0.12210205
H        2.04711745       4.63352088      -2.23939230      -0.19076778      -0.67137579      -0.09141313
H       -0.70011773      -4.26475020      -2.55957318       0.61036111       0.11514164       0.14346923
H        0.51492337      -1.57526417       4.74803756       0.00271321      -0.34767259       0.05177425
H        2.30472336       2.42526607      -3.41804172       0.20560771      -0.02590199      -0.99649963
H        3.14813016      -5.16608019      -0.70877899      -0.54834974       0.57208131      -0.24132586
H        0.72107927       2.63309030       4.13862632      -0.03469766       0.74007453       0.31272075
H        1.10484142       4.69995145      -0.02552528       0.05484102      -0.75077258      -0.00482581
H       -0.48389830      -1.91888710      -1.80884744       0.03766328      -0.25039513       0.09058233
H        0.60429151      -1.96803613       2.35391925       0.19886779       0.53452161      -0.22903478
H        1.61549900       0.33759887      -2.33650471       0.09964678      -0.70965191      -0.30014866
H       -2.04359644       4.75496221       1.13499826       1.00250836      -0.75020441      -0.11808351
H       -2.09288138       4.23433160       2.78250104       0.34288589      -1.07130322       0.48056950
H       -0.93903070       5.47410416       2.33399635       0.88065592      -0.87127975      -0.27655682
H       -0.26583829      -0.30060692      -0.02208735       0.28714935      -0.31420249      -0.20550523
