40
Properties=species:S:1:pos:R:3:forces:R:3 id=42366 bond=C-N smiles="[H:29][c:7]1[c:4]([c:10]([c:16]2[c:19]([c:13]1[H:35])[C:24]([c:20]3[c:14]([c:8]([c:5]([c:11]([c:17]3[N:21]2[C:23]([H:37])([H:38])[H:39])[H:33])[H:27])[H:30])[H:36])([H:40])[N:22]4[c:18]5[c:12]([c:6]([c:3]([c:9]([c:15]5[N:1]=[N:2]4)[H:31])[H:25])[H:28])[H:34])[H:32])[H:26]" dataset=PubChem energy=-26973.511530490392 pbc="F F F"
N        3.27307267      -2.38791107       0.25741621      -0.26751198       1.39336046       0.46770790
N        2.82053501      -1.19761788       0.51670163       0.24339338      -0.06647280       0.58111976
C        1.17550520      -4.77073000      -1.72424590       0.27224315       0.30979378       1.05181551
C        0.58358280       0.61466612       4.62777221      -0.05346771       0.58689777      -0.50044535
C        1.66776265       3.75287701      -1.77630317       0.00389560       0.49151701       0.30624587
C        0.11784781      -3.88069866      -1.98463642       0.31122285       1.21028132       0.06130928
C        0.50612883      -0.66684638       4.09440363       0.22576304       0.46052037      -0.04066282
C        1.79332269       2.53709437      -2.43750011      -0.24514960      -0.51213351       0.97781639
C        2.26216740      -4.37845705      -0.93593037       0.18187775      -0.21170590      -0.50307711
C        0.61319010       1.72371269       3.77705657      -0.38871048      -1.04010092       0.43011207
C        1.18066303       3.79739786      -0.47877359       0.20894695       0.55485821      -0.28939291
C        0.21606351      -2.56304477      -1.54243004      -1.06963884       0.18069899       0.23042150
C        0.56832636      -0.85601996       2.72977388      -0.23520624       0.84130282      -1.18858390
C        1.43876965       1.33645309      -1.80160510       0.07525063       1.61725752       1.21805452
C        2.32582945      -3.03540181      -0.47522378      -0.37364591      -1.33992814      -0.50616087
C        0.52827076       1.56533994       2.39585447      -0.61911526      -0.01680991      -1.94837141
C        0.90762300       2.61274148       0.19842193      -1.85310299      -0.21811641       1.15981106
C        1.27064265      -2.16788600      -0.70197904      -0.63480297      -0.36399954      -0.62116914
C        0.58635826       0.27112781       1.83563769       0.11226463      -1.27877992       0.96414663
C        1.01738597       1.37927891      -0.45955622       0.15103346      -0.98145734      -0.27579614
N        0.42951346       2.67702843       1.52636230       0.69088775       1.66865921       1.07938458
N        1.58115430      -1.02287434      -0.01111200       0.09712134      -1.29541748      -0.89546496
C       -1.32564452       4.45202091       1.99091021      -0.58708762       0.58688302      -0.68201667
C        0.66409294       0.06917625       0.31060241       0.30153919       1.40012660       0.43847375
H        1.05797356      -5.77835129      -2.07820117       0.30577151      -0.25835193       0.02459625
H        0.59522439       0.72316106       5.70507466       0.03683609       0.21674825      -0.11848579
H        1.97013683       4.71137143      -2.21901739      -0.18923310      -0.66764740      -0.09204857
H       -0.77709835      -4.18689965      -2.53919827       0.60993777       0.11470926       0.14293405
H        0.43794275      -1.49741362       4.76841247       0.00732422      -0.34699310       0.05249231
H        2.22774274       2.50311662      -3.39766681       0.20877044      -0.02547366      -0.99372171
H        3.07114954      -5.08822964      -0.68840408      -0.54806660       0.57156730      -0.24124440
H        0.64409865       2.71094085       4.15900123      -0.01719074       0.73936640       0.32315457
H        1.02786080       4.77780200      -0.00515037       0.07945849      -0.73828096      -0.00955953
H       -0.56087892      -1.84103655      -1.78847253       0.03911459      -0.24999624       0.09138596
H        0.52731089      -1.89018558       2.37429416       0.19874537       0.53856795      -0.23612525
H        1.53851838       0.41544942      -2.31612980       0.09668207      -0.71237320      -0.29344313
H       -1.96661582       4.67711166       1.11462335       1.05637705      -0.79703763      -0.12681786
H       -2.01590076       4.15648105       2.76212613       0.39230857      -1.10614417       0.46546417
H       -0.86205008       5.39625361       2.31362144       0.87493801      -0.92160357      -0.29085733
H       -0.34281891      -0.22275637      -0.00171244       0.30111789      -0.33588254      -0.21292333
