16
Properties=species:S:1:pos:R:3:forces:R:3 id=44004 bond=C-N smiles="[H:12][C:4]([H:13])([H:14])[C:5]([H:15])([H:16])[N:1]([C:2]([H:6])([H:7])[H:8])[C:3]([H:9])([H:10])[H:11]" dataset="DES370K Monomers" energy=-5805.415003737971 pbc="F F F"
N       -0.16141864      -0.18490541      -0.14933576       8.44681504     -89.65795284     -25.69224226
C        1.23274829      -0.57291668      -0.39205093       0.06974276      -3.07525155      -0.77699575
C       -1.08058677      -0.64208770      -1.18412680      -0.17558761      -2.48591069      -0.84403576
C        0.18056316       0.87310016       1.52604014       0.36014105       3.20090520       2.64123865
C       -0.24785488       0.69595211       0.07543043      -9.72469151      85.94269230      25.09829542
H        1.87392595      -0.31139373       0.43288743       0.00147970      -0.05132321      -0.26217991
H        1.54426851      -0.05202993      -1.29860026       0.03632390       0.25321846      -0.10584810
H        1.27285936      -1.65483224      -0.54498381       0.29388071       0.16900239      -0.05508845
H       -0.95857493      -1.71689796      -1.40433580       0.07235299       0.49020563      -0.04786087
H       -2.10844872      -0.50695133      -0.80652291       0.56397131       0.13594093      -0.11781440
H       -0.94274393      -0.06202295      -2.10907513       0.04406279       0.11895092       0.08437931
H        0.10572014       1.92784857       1.82659942       0.23941510      -0.17241240       0.28459954
H        1.21242771       0.54164165       1.64885897      -0.43843556       0.37067995       0.39319895
H       -0.46226950       0.28165489       2.19180233       0.07887619       0.03321395      -0.40887460
H        0.35371450       1.37022721      -0.57000476       0.58121125       3.11587855      -0.82498247
H       -1.28448524       1.03636538      -0.00522518      -0.44906810       1.61196945       0.63356526
