16
Properties=species:S:1:pos:R:3:forces:R:3 id=44004 bond=C-N smiles="[H:12][C:4]([H:13])([H:14])[C:5]([H:15])([H:16])[N:1]([C:2]([H:6])([H:7])[H:8])[C:3]([H:9])([H:10])[H:11]" dataset="DES370K Monomers" energy=-5818.105290882614 pbc="F F F"
N       -0.10238900      -0.78646664      -0.30283463      -0.42602610       1.70693054       2.17681792
C        1.29177793      -1.17447791      -0.54554980      -1.25419923       1.12254480      -0.76283836
C       -1.02155713      -1.24364893      -1.33762567      -0.11681000       1.13031596       0.27267139
C        0.12153352       1.47466139       1.67953901      -0.02853958      -1.06747840      -0.29224823
C       -0.30688452       1.29751334       0.22892930       0.55907672      -0.94289557      -0.38505690
H        1.93295559      -0.91295496       0.27938856       0.10981396       0.14832186       0.28725304
H        1.60329815      -0.65359116      -1.45209913       0.73667843      -0.25632012      -0.20863226
H        1.33188900      -2.25639347      -0.69848268      -0.05457115       0.10124219      -0.00581284
H       -0.89954529      -2.31845919      -1.55783467       0.26274006       0.41165816       0.22303852
H       -2.04941908      -1.10851256      -0.96002178       0.38401538       0.01491277      -0.35042012
H       -0.88371429      -0.66358418      -2.26257400      -0.23489387      -0.32236258      -0.15674447
H        0.04669050       2.52940980       1.98009829       0.01521046      -0.22144349      -0.25075819
H        1.15339807       1.14320288       1.80235784      -0.06482146       0.11044094       0.17726643
H       -0.52129914       0.88321612       2.34530120       0.26284055       0.17942801      -0.17602462
H        0.29468486       1.97178844      -0.41650589      -0.11282081      -1.11896977      -0.07009926
H       -1.34351488       1.63792661       0.14827369      -0.03858091      -0.99762012      -0.47921169
