16
Properties=species:S:1:pos:R:3:forces:R:3 id=44004 bond=C-N smiles="[H:12][C:4]([H:13])([H:14])[C:5]([H:15])([H:16])[N:1]([C:2]([H:6])([H:7])[H:8])[C:3]([H:9])([H:10])[H:11]" dataset="DES370K Monomers" energy=-5818.301295741773 pbc="F F F"
N       -0.10449720      -0.76498231      -0.29735252      -0.43618504       1.85970615       2.18211842
C        1.28966973      -1.15299358      -0.54006769      -1.25604947       1.09489633      -0.75144438
C       -1.02366533      -1.22216460      -1.33214356      -0.12055583       1.10809805       0.27858934
C        0.12364172       1.45317706       1.67405690      -0.03318535      -1.01636347      -0.27478674
C       -0.30477632       1.27602901       0.22344719       0.57199967      -1.14348956      -0.43749803
H        1.93084739      -0.89147063       0.28487067       0.11284856       0.14715853       0.28626872
H        1.60118995      -0.63210683      -1.44661702       0.73675356      -0.25015867      -0.20943257
H        1.32978080      -2.23490914      -0.69300057      -0.04910704       0.10921793      -0.00255754
H       -0.90165349      -2.29697486      -1.55235256       0.25712276       0.41916178       0.22512996
H       -2.05152728      -1.08702823      -0.95453967       0.38187683       0.01352434      -0.35201774
H       -0.88582249      -0.64209985      -2.25709189      -0.23508987      -0.31720914      -0.15847353
H        0.04879870       2.50792547       1.97461618       0.02004407      -0.22833238      -0.24573749
H        1.15550627       1.12171855       1.79687573      -0.06559085       0.10863583       0.17554996
H       -0.51919094       0.86173179       2.33981909       0.26297361       0.17705763      -0.18050004
H        0.29679306       1.95030411      -0.42198800      -0.11685845      -1.10148925      -0.06369917
H       -1.34140668       1.61644228       0.14279158      -0.03185062      -0.98166294      -0.47220491
