16
Properties=species:S:1:pos:R:3:forces:R:3 id=44004 bond=C-N smiles="[H:12][C:4]([H:13])([H:14])[C:5]([H:15])([H:16])[N:1]([C:2]([H:6])([H:7])[H:8])[C:3]([H:9])([H:10])[H:11]" dataset="DES370K Monomers" energy=-5816.847529698312 pbc="F F F"
N       -0.08657749      -0.94759911      -0.34395039      -0.31362645       0.63698358       1.97415318
C        1.30758944      -1.33561038      -0.58666556      -1.28463932       1.18717505      -0.80962886
C       -1.00574562      -1.40478140      -1.37874143      -0.05820037       1.16069493       0.27783758
C        0.10572201       1.63579386       1.72065477      -0.00503147      -1.32962725      -0.39425065
C       -0.32269603       1.45864581       0.27004506       0.43593122       0.47261779       0.03583197
H        1.94876710      -1.07408743       0.23827280       0.08170558       0.16231870       0.28955548
H        1.61910966      -0.81472363      -1.49321489       0.71320083      -0.28617730      -0.20490115
H        1.34770051      -2.41752594      -0.73959844      -0.06753174       0.04487251      -0.04703654
H       -0.88373378      -2.47959166      -1.59895043       0.29167284       0.35979404       0.18037556
H       -2.03360757      -1.26964503      -1.00113754       0.40287029       0.03413431      -0.33624339
H       -0.86790278      -0.82471665      -2.30368976      -0.21908938      -0.34323829      -0.13367460
H        0.03087899       2.69054227       2.02121405      -0.00901166      -0.17165601      -0.26239278
H        1.13758656       1.30433535       1.84347360      -0.05896601       0.12528896       0.19129826
H       -0.53711065       1.04434859       2.38641696       0.25837435       0.19495100      -0.14464575
H        0.27887335       2.13292091      -0.37539013      -0.08518449      -1.19006641      -0.10816835
H       -1.35932639       1.79905908       0.18938945      -0.08289019      -1.05836000      -0.50882867
