11
Properties=species:S:1:pos:R:3:forces:R:3 id=27559 bond=C-S smiles="[H:9][C:5]([H:10])([H:11])[C:3](=[S:1])[S:2][C:4]([H:6])([H:7])[H:8]" dataset=PubChem energy=-24871.455921880788 pbc="F F F"
S        1.16935069       1.53901119      -0.68224398      -1.38730081       1.22327033      -2.94514228
S        0.83036754      -0.16604295       1.15015783      31.58674586     -30.96056710      55.67215930
C        0.29548899       0.36331165       0.27816369     -32.13405525      31.13634778     -55.79113877
C        1.90748581       1.10779676       1.73925551       3.44318387      -0.75517948       2.62565957
C       -0.93587797      -0.20165645      -0.39841954      -1.83659646      -0.06059653       0.23762371
H        2.95858488       0.72790907       1.61285266      -0.83244078       0.78632603      -0.03733103
H        1.76356611       2.06528351       1.24410662      -0.06071106      -0.60177311       0.23313991
H        1.78110585       1.22736612       2.81238362      -0.16676703      -0.49254884       0.43014847
H       -0.65533405      -1.12955837      -0.90621869      -0.33982146       0.09774868       0.20270941
H       -1.76007300      -0.35390227       0.37329050       1.13351177      -0.25830433      -0.87452211
H       -1.37143688       0.48082841      -1.13782147       0.58867390      -0.10925802       0.23986852
