11
Properties=species:S:1:pos:R:3:forces:R:3 id=27559 bond=C-S smiles="[H:9][C:5]([H:10])([H:11])[C:3](=[S:1])[S:2][C:4]([H:6])([H:7])[H:8]" dataset=PubChem energy=-24880.032061974143 pbc="F F F"
S        0.69814815       2.00534738      -1.45042928      -1.95189120      -3.37456059       3.78307771
S        1.30157008      -0.63237914       1.91834313      -1.45192772       0.50751087      -1.55165296
C       -0.17571355       0.82964784      -0.49002161       2.82932489       3.19868885      -3.86182149
C        2.37868835       0.64146057       2.50744081       1.56355814      -0.70740961       0.41991390
C       -1.40708051       0.26467974      -1.16660484      -1.37559211      -0.18392598       1.93700258
H        3.42978742       0.26157288       2.38103796      -0.87202516       0.75293777      -0.19912178
H        2.23476865       1.59894732       2.01229192       0.03780638      -0.02618093      -0.16742994
H        2.25230839       0.76102993       3.58056892      -0.29845438       0.26008933       0.02316141
H       -1.12653659      -0.66322218      -1.67440399      -0.15295333      -0.02642268       0.36967886
H       -2.23127554       0.11243392      -0.39489480       1.13576063      -0.36293789      -0.93630724
H       -1.84263942       0.94716460      -1.90600677       0.53629449      -0.03789984       0.18386339
