11
Properties=species:S:1:pos:R:3:forces:R:3 id=27559 bond=C-S smiles="[H:9][C:5]([H:10])([H:11])[C:3](=[S:1])[S:2][C:4]([H:6])([H:7])[H:8]" dataset=PubChem energy=-24883.65287306933 pbc="F F F"
S        1.08020426       1.62723695      -0.82757633      -1.63773872      -0.68150937       0.74068909
S        0.91951397      -0.25426871       1.29549018       1.49212847      -2.82599933       5.76191513
C        0.20634256       0.45153741       0.13283134      -1.11309887       4.21375027      -8.21427817
C        1.99663224       1.01957100       1.88458786       2.37219567      -0.39084373       0.91768469
C       -1.02502440      -0.11343069      -0.54375189      -1.31287234      -0.01920640       1.33080508
H        3.04773131       0.63968331       1.75818501      -0.91673517       0.73745975      -0.11455160
H        1.85271254       1.97705775       1.38943897      -0.00407790      -0.43074813      -0.09491387
H        1.87025228       1.13914036       2.95771597      -0.26746698      -0.22417468       0.09712828
H       -0.74448048      -1.04133261      -1.05155104      -0.30053064       0.02983630       0.25045329
H       -1.84921943      -0.26567651       0.22795815       1.06823114      -0.31890854      -0.91355716
H       -1.46058331       0.56905417      -1.28315382       0.62124291      -0.09144287       0.24179306
