11
Properties=species:S:1:pos:R:3:forces:R:3 id=27559 bond=C-S smiles="[H:9][C:5]([H:10])([H:11])[C:3](=[S:1])[S:2][C:4]([H:6])([H:7])[H:8]" dataset=PubChem energy=-24881.48731784834 pbc="F F F"
S        0.83186779       1.87300873      -1.23243075      -1.86454139      -3.04728065       3.57206452
S        1.16785044      -0.50004049       1.70034460      -2.14340424       0.86229220      -2.32089514
C       -0.04199391       0.69730919      -0.27202308       3.32873794       2.41642719      -2.85532295
C        2.24496871       0.77379922       2.28944228       1.60857611      -0.49837119       0.32512709
C       -1.27336087       0.13234109      -0.94860631      -1.26182828      -0.20232237       2.03172364
H        3.29606778       0.39391153       2.16303943      -0.90893713       0.73202191      -0.18849796
H        2.10104901       1.73128597       1.79429339       0.04360473      -0.05889980      -0.19500240
H        2.11858875       0.89336858       3.36257039      -0.31530360       0.19729486       0.00286663
H       -0.99281695      -0.79556083      -1.45640546      -0.18017697      -0.02476107       0.35298708
H       -2.09755590      -0.01990473      -0.17689627       1.10248914      -0.35758867      -0.93732946
H       -1.70891978       0.81482595      -1.68800824       0.59168619      -0.01807240       0.21294041
