11
Properties=species:S:1:pos:R:3:forces:R:3 id=27559 bond=C-S smiles="[H:9][C:5]([H:10])([H:11])[C:3](=[S:1])[S:2][C:4]([H:6])([H:7])[H:8]" dataset=PubChem energy=-24882.534013173496 pbc="F F F"
S        0.90191141       1.80368849      -1.11824104      -1.80929459      -2.72150859       3.27886099
S        1.09780682      -0.43072025       1.58615489      -2.56709869       1.06548396      -2.68652154
C        0.02804971       0.62798895      -0.15783337       3.60009875       1.83527997      -2.15449075
C        2.17492509       0.84311946       2.17525257       1.67701660      -0.36359400       0.30316366
C       -1.20331725       0.06302085      -0.83441660      -1.19892317      -0.16511497       2.01774884
H        3.22602416       0.46323177       2.04884972      -0.92941281       0.72128455      -0.17333751
H        2.03100539       1.80060621       1.68010368       0.04396058      -0.11045990      -0.20235027
H        2.04854513       0.96268882       3.24838068      -0.31561432       0.13647277      -0.00835428
H       -0.92277333      -0.86488107      -1.34221575      -0.20151664      -0.02236973       0.33597269
H       -2.02751228      -0.08922497      -0.06270656       1.08526593      -0.35235083      -0.93551812
H       -1.63887616       0.74550571      -1.57381853       0.61720969      -0.02196556       0.22602212
