21
Properties=species:S:1:pos:R:3:forces:R:3 id=43592 bond=C-N smiles="[H:11][C:4]([H:12])([H:13])[C:6]([H:17])([H:18])[C:8]([H:21])([C:2](=[S:1])[N:3]([H:9])[H:10])[C:7]([H:19])([H:20])[C:5]([H:14])([H:15])[H:16]" dataset=PubChem energy=-18762.15503508393 pbc="F F F"
S        3.37614740       1.14148561      -1.23952501      -3.58455786      -0.12551795       0.34610536
C        1.82170274       0.90172438      -0.70476728       2.91451468       2.61363653      -1.25375394
N        0.29327918       2.36536218      -1.64669421       0.65966117      -2.68490967       0.64512375
C        0.33916240      -2.03250071       1.36747522       0.35528661      -0.19390039       0.17514154
C        0.02823587       1.55963305       1.86935873      -1.12022232      -0.86902104       0.57380136
C        0.47230764      -1.02233812       0.23062704      -0.74288814      -0.28354098      -0.20617653
C        1.36023595       0.82192782       1.78358610       0.03034687      -0.33794766       0.60196929
C        1.56488039      -0.00317319       0.48429809      -0.13881097       0.18698449       0.33434919
H       -0.59282491       2.51062728      -1.14209809       1.19302520       0.14031906      -0.10388772
H        0.68937179       3.12233425      -2.20896056       0.19978714      -0.34693993       0.99129306
H       -0.16739045      -1.60573360       2.24818213       0.29127660      -0.24376579      -0.34153298
H       -0.19911490      -2.91730710       1.03246878      -0.26555043       0.14819651       0.04330422
H        1.33153238      -2.41704222       1.65413988      -0.28290475       0.29968647       0.11957345
H       -0.18342994       1.95883397       2.87667472       0.38593568      -0.18315075      -0.36818822
H       -0.84884665       0.88604418       1.64911850       0.92327701       0.70061521       0.05966045
H        0.02482142       2.39305405       1.18651778      -0.12650224       0.15357350      -0.31067304
H        0.74002383      -1.55017503      -0.68672388      -0.14369433       0.00735635       0.02305170
H       -0.51177917      -0.55046281       0.05567236       0.59622450      -0.07077917      -0.04897128
H        1.53184809       0.12297665       2.63985033      -0.43307837       0.42697399      -0.69761344
H        2.14957108       1.55866960       1.89398617       0.23971767       0.01129659      -0.23252743
H        2.52873697      -0.57047119       0.62642426      -0.95411176       0.64971627      -0.34916488
