21
Properties=species:S:1:pos:R:3:forces:R:3 id=43592 bond=C-N smiles="[H:11][C:4]([H:12])([H:13])[C:6]([H:17])([H:18])[C:8]([H:21])([C:2](=[S:1])[N:3]([H:9])[H:10])[C:7]([H:19])([H:20])[C:5]([H:14])([H:15])[H:16]" dataset=PubChem energy=-18762.702151554102 pbc="F F F"
S        3.33205825       1.18370593      -1.26669598      -3.29833778      -0.16116546       0.32047873
C        1.77761359       0.94394470      -0.73193825       2.28438249       3.03572815      -1.48337719
N        0.33736833       2.32314186      -1.61952324       0.96569707      -2.92357950       1.03256774
C        0.29507325      -1.99028039       1.34030425       0.34797272      -0.19629756       0.17140076
C       -0.01585328       1.60185337       1.84218776      -1.11725406      -0.87664288       0.58235072
C        0.42821849      -0.98011780       0.20345607      -0.72945089      -0.28666177      -0.19509068
C        1.31614680       0.86414814       1.75641513       0.03611246      -0.35573469       0.59806506
C        1.52079124       0.03904713       0.45712712      -0.10784308       0.21777039       0.28918223
H       -0.54873576       2.46840696      -1.11492712       1.19172996       0.06827068      -0.16880006
H        0.73346094       3.08011393      -2.18178959       0.21082558      -0.44467260       0.94454152
H       -0.21147960      -1.56351328       2.22101116       0.29086805      -0.24409417      -0.33997361
H       -0.24320405      -2.87508678       1.00529781      -0.26675855       0.14586422       0.04545363
H        1.28744323      -2.37482190       1.62696891      -0.28319749       0.30252419       0.11764202
H       -0.22751909       2.00105429       2.84950375       0.38133039      -0.17914137      -0.37181944
H       -0.89293580       0.92826450       1.62194753       0.91968285       0.69782289       0.06119905
H       -0.01926773       2.43527437       1.15934681      -0.12112550       0.15995060      -0.29452417
H        0.69593468      -1.50795471      -0.71389485      -0.14311013       0.00937132       0.02251250
H       -0.55586832      -0.50824249       0.02850139       0.58790063      -0.07448283      -0.04802234
H        1.48775894       0.16519697       2.61267936      -0.43893239       0.43336164      -0.69132990
H        2.10548193       1.60088992       1.86681520       0.23896817       0.01002129      -0.23466794
H        2.48464782      -0.52825087       0.59925329      -0.95187024       0.66116443      -0.35833710
