21
Properties=species:S:1:pos:R:3:forces:R:3 id=43592 bond=C-N smiles="[H:11][C:4]([H:12])([H:13])[C:6]([H:17])([H:18])[C:8]([H:21])([C:2](=[S:1])[N:3]([H:9])[H:10])[C:7]([H:19])([H:20])[C:5]([H:14])([H:15])[H:16]" dataset=PubChem energy=-18766.046284566204 pbc="F F F"
S        3.00873789       1.49332162      -1.46594976       1.51376526      -0.77898533      -0.11128134
C        1.45429323       1.25356039      -0.93119203       7.64419840      -4.72295467       3.69748284
N        0.66068869       2.01352617      -1.42026946      -8.36674701       6.01128561      -2.34474328
C       -0.02824711      -1.68066470       1.14105047       0.27284668      -0.22215442       0.14330045
C       -0.33917364       1.91146906       1.64293398      -1.08266377      -1.01104399       0.66556541
C        0.10489813      -0.67050211       0.00420229      -0.54456202      -0.23892702      -0.12904588
C        0.99282644       1.17376383       1.55716135       0.14326875      -0.50801111       0.53403872
C        1.19747088       0.34866282       0.25787334       0.86203579      -0.27723718       0.32291566
H       -0.22541540       2.15879127      -0.91567334       0.36493107       0.03323944      -0.95144037
H        1.05678130       2.77049824      -1.98253581      -0.60294026      -0.45176706       0.04234142
H       -0.53479996      -1.25389759       2.02175738       0.28555908      -0.24783905      -0.33114963
H       -0.56652441      -2.56547109       0.80604403      -0.27778039       0.13121273       0.06302900
H        0.96412287      -2.06520621       1.42771513      -0.29171259       0.33848368       0.08889975
H       -0.55083945       2.31066998       2.65024997       0.34247440      -0.11369397      -0.43570551
H       -1.21625616       1.23788019       1.42269375       0.88588180       0.69197580       0.06580526
H       -0.34258809       2.74489006       0.96009303      -0.18060174       0.32743759      -0.15462389
H        0.37261432      -1.19833902      -0.91314863      -0.13004446       0.00839729       0.01017516
H       -0.87918868      -0.19862680      -0.17075239       0.44569986      -0.11152223      -0.03617460
H        1.16443858       0.47481266       2.41342558      -0.48115235       0.50840371      -0.66204321
H        1.78216157       1.91050561       1.66756142       0.24863811       0.00244132      -0.23699517
H        2.16132746      -0.21863518       0.39999951      -1.05185161       0.62914155      -0.24083641
