13
Properties=species:S:1:pos:R:3:forces:R:3 id=7256 bond=C-O smiles="[H:7][C:3]([H:8])([H:9])[O:1][C:4]([H:10])([H:11])[C:5]([H:12])([H:13])[S:2][H:6]" dataset="DES370K Monomers" energy=-16119.00119170492 pbc="F F F"
O        0.54273040       0.77957277       0.85540129     -18.99521271      60.54157866       8.21688081
S        1.02068069       0.06166638      -2.03590919      -0.02924064      -0.00580268       0.78839812
C       -0.84439292       1.09183501       0.57270933      -0.73821532       3.20801512       0.17569982
C        0.77185502      -0.14995479       0.71098368      14.96778856     -54.95976784      -7.87763554
C        1.79821672      -0.31432729      -0.38357643       1.08477815      -2.90976540      -1.80915562
H        2.11949625       0.16811601      -2.77083827       0.28591155       0.02988827      -0.05135556
H       -1.27064624       0.42830645      -0.18145070       0.46241947      -0.32900223       0.35814735
H       -0.91164472       2.08908581       0.11687953       0.18184089      -0.11936613       0.41231316
H       -1.42910566       1.10327958       1.51162458       0.37818800      -0.30967987      -0.42005369
H       -0.10570586      -0.75126516       0.46699261       0.16312344      -2.56100317      -0.31287332
H        1.16931905      -0.53023606       1.64635180       1.50439187      -2.84998520       1.00588774
H        2.01503315      -1.39205538      -0.35616932       0.73400791       0.40397589      -0.40061700
H        2.65008559       0.33422704      -0.19416156       0.00372797      -0.14236592      -0.08308971
