13
Properties=species:S:1:pos:R:3:forces:R:3 id=7256 bond=C-O smiles="[H:7][C:3]([H:8])([H:9])[O:1][C:4]([H:10])([H:11])[C:5]([H:12])([H:13])[S:2][H:6]" dataset="DES370K Monomers" energy=-16123.74197096518 pbc="F F F"
O        0.34670155       1.57483524       0.97895858      -0.84912746      -1.94148335      -0.87895691
S        1.21670954      -0.73359609      -2.15946648      -0.07745624      -0.06546062       0.77932091
C       -1.04042177       1.88709748       0.69626662       1.36654167      -0.35358335       0.62201680
C        0.96788387      -0.94521726       0.58742639       0.25857514      -0.58169084      -0.55768644
C        1.99424557      -1.10958976      -0.50713372      -1.11746118       1.33622096      -0.32747266
H        2.31552510      -0.62714646      -2.89439556       0.36083407      -0.07017966       0.00941422
H       -1.46667509       1.22356892      -0.05789341      -0.08028634      -0.17548197       0.20837683
H       -1.10767357       2.88434828       0.24043682       0.32708767       0.00564861       0.12873597
H       -1.62513451       1.89854205       1.63518187       0.05948996      -0.22292588      -0.50990028
H        0.09032299      -1.54652763       0.34343532      -0.64251034       1.06260677       0.11315244
H        1.36534790      -1.32549853       1.52279451      -0.07619223       1.07785484       0.48867510
H        2.21106200      -2.18731785      -0.47972661       0.31908767       0.27921264       0.09551860
H        2.84611444      -0.46103543      -0.31771885       0.15497307      -0.35223728      -0.17059571
