13
Properties=species:S:1:pos:R:3:forces:R:3 id=7256 bond=C-O smiles="[H:7][C:3]([H:8])([H:9])[O:1][C:4]([H:10])([H:11])[C:5]([H:12])([H:13])[S:2][H:6]" dataset="DES370K Monomers" energy=-16125.99324334928 pbc="F F F"
O        0.41798477       1.28564889       0.93402866       0.15307490      -3.55835919      -0.94332906
S        1.14542632      -0.44440974      -2.11453656      -0.09486771      -0.03567662       0.79122605
C       -0.96913855       1.59791113       0.65133670       0.85607277      -0.34361630       0.27832586
C        0.89660065      -0.65603091       0.63235631      -0.62531936       1.83478786      -0.06836148
C        1.92296235      -0.82040341      -0.46220380      -0.93619678       0.80291183      -0.33097189
H        2.24424188      -0.33796011      -2.84946564       0.35010569      -0.06422559       0.00244566
H       -1.39539187       0.93438257      -0.10282333      -0.10387258      -0.17472929       0.26736788
H       -1.03639035       2.59516193       0.19550690       0.36948804      -0.07481191       0.23182131
H       -1.55385129       1.60935570       1.59025195       0.10053135      -0.22166994      -0.51026240
H        0.01903977      -1.25734128       0.38836524      -0.50051205       0.89190761       0.11258873
H        1.29406468      -1.03631218       1.56772443      -0.05800028       0.85808483       0.33449195
H        2.13977878      -1.89813150      -0.43479669       0.39020020       0.39419630       0.00509363
H        2.77483122      -0.17184908      -0.27278893       0.10195695      -0.31167895      -0.16854101
