33
Properties=species:S:1:pos:R:3:forces:R:3 id=7024 bond=C-N smiles="[H:33][C@@:16]1([C@@:15]([C@:13]([O:3][C:12]([C@@:14]1([H:31])[O:4][H:17])([H:28])[H:29])([H:30])[N:7]([C:10]([H:24])([H:25])[C:8]([H:20])([H:21])[Cl:1])[C:11]([H:26])([H:27])[C:9]([H:22])([H:23])[Cl:2])([H:32])[O:5][H:18])[O:6][H:19]" dataset=PubChem energy=-44347.7434553382 pbc="F F F"
Cl      -3.36049378       0.67455161      -2.65285495       0.80273589       0.68168127       0.49602854
Cl      -0.37001968       4.43809661       2.23380312      -0.50410991      -1.03096332      -0.74976477
O       -0.08422990       0.10338648       1.19292863      -1.35816054      -1.77933206       1.98689417
O        1.95657639      -2.55230431       1.31520088       0.16635172      -1.35610248       1.51815254
O        2.73872392      -0.68342595      -0.46886556       0.93606552       0.73051956      -0.37879394
O        3.88533346      -0.50983481       1.91813822      -1.14203100       0.91148609      -0.71636881
N        0.19931513       1.46454808      -0.54107538      -2.33029809       5.03001710      -1.99310149
C       -2.21954429       1.03693059      -1.30084149      -0.54041647      -2.02935801       2.92569636
C       -0.84536159       3.00668558       1.13577863      -2.67920173       0.46572917       0.87402040
C       -0.82068646       1.37920061      -1.60984496       2.38963042       0.32342407      -2.36220857
C        0.27960861       2.72597226       0.24364003       1.94483166      -1.17138337      -0.63758547
C        0.04043750      -1.18677442       1.90325459       2.03687530       2.20640027       0.38113404
C        0.68848692       0.39152364       0.03872152       1.38873681      -4.87834569       0.88071839
C        1.53430955      -1.52205615       2.19192977       0.17608484       2.62342577      -3.07825061
C        2.17824928       0.35923910       0.37263956       1.27408681      -1.73473374       0.75709191
C        2.44853823      -0.21403735       1.77281042      -0.87932860       0.99367385       3.47667525
H        2.27813403      -2.20381765       0.47715034      -0.29269004       0.47130733       0.09312725
H        3.60446755      -0.85971229      -0.04145531      -0.39946087       0.24672535      -0.55959334
H        4.09149901      -1.37129263       2.28212496      -0.65790312      -0.17563490       0.05994959
H       -2.55284059       1.81230530      -0.58229998      -0.73502280      -0.67633694      -0.79216514
H       -2.11532318       0.06859517      -0.74248449      -0.75063563       0.88200819      -0.27779356
H       -1.78452766       3.30379185       0.55249436       1.35525355      -0.13414944       1.07876582
H       -1.08620262       2.11525258       1.76381978       0.25712241       1.06185926      -0.37947561
H       -0.88487351       2.38618526      -2.05735925       0.68294924      -0.44928478      -0.26024921
H       -0.40088904       0.61542727      -2.34296874      -0.58009241       1.19085370       0.58876323
H        0.54758164       3.59321031      -0.34516052      -0.29219929       0.02957439      -0.61207361
H        1.15519667       2.59320125       0.87473869       0.05759945      -0.00139378       0.14381211
H       -0.38990142      -1.10365884       2.88100561      -0.65601933       0.95203707       0.35580410
H       -0.45891859      -2.02324323       1.50185843      -0.41956426      -0.75514287      -1.41611996
H        0.65374483      -0.48669784      -0.64445499      -0.53285457       0.51438044       0.09276489
H        1.55059258      -1.69406609       3.27012785       1.00136471      -0.74250010      -0.36764491
H        2.71686570       1.31848295       0.28323700      -0.25041428      -0.46790689      -0.30964909
H        2.19509225       0.69317256       2.47580727       0.53266820      -1.93186183      -0.81414333
