33
Properties=species:S:1:pos:R:3:forces:R:3 id=7024 bond=C-N smiles="[H:33][C@@:16]1([C@@:15]([C@:13]([O:3][C:12]([C@@:14]1([H:31])[O:4][H:17])([H:28])[H:29])([H:30])[N:7]([C:10]([H:24])([H:25])[C:8]([H:20])([H:21])[Cl:1])[C:11]([H:26])([H:27])[C:9]([H:22])([H:23])[Cl:2])([H:32])[O:5][H:18])[O:6][H:19]" dataset=PubChem energy=-44347.899932658765 pbc="F F F"
Cl      -3.38536692       0.72911217      -2.68233615       0.78263564       0.67594588       0.48895190
Cl      -0.39489282       4.49265717       2.20432192      -0.51246602      -1.02276983      -0.72976045
O       -0.05935676       0.04882592       1.22240983      -1.23243674      -1.17642031       1.40382146
O        1.98144953      -2.60686487       1.34468208       0.15968232      -1.34804408       1.52032535
O        2.76359706      -0.73798651      -0.43938436       0.89885432       0.74116631      -0.37877622
O        3.91020660      -0.56439537       1.94761942      -1.16911058       0.92500407      -0.73757111
N        0.17444199       1.51910864      -0.57055658      -0.26043956       0.58106334       0.46839121
C       -2.24441743       1.09149115      -1.33032269      -0.54747599      -2.02065418       2.91003170
C       -0.87023473       3.06124614       1.10629743      -2.64246097       0.45612712       0.85335916
C       -0.84555960       1.43376117      -1.63932616       2.50627691       0.07184100      -2.21533135
C        0.25473547       2.78053282       0.21415883       1.97199084      -1.48881949      -0.56410471
C        0.06531064      -1.24133498       1.93273579       2.08567728       2.13569086       0.33689001
C        0.71336006       0.33696308       0.06820272      -0.71449451      -0.97089341      -0.81103490
C        1.55918269      -1.57661671       2.22141097       0.18466900       2.61246584      -3.07846461
C        2.20312242       0.30467854       0.40212076       1.15268990      -1.43329167       0.53725402
C        2.47341137      -0.26859791       1.80229162      -0.91915005       0.99767587       3.52137754
H        2.30300717      -2.25837821       0.50663154      -0.29003676       0.46482154       0.09329283
H        3.62934069      -0.91427285      -0.01197411      -0.40140188       0.24701572      -0.55570274
H        4.11637215      -1.42585319       2.31160616      -0.66015279      -0.17967295       0.05870117
H       -2.57771373       1.86686586      -0.61178118      -0.73595234      -0.67156118      -0.79184019
H       -2.14019632       0.12315573      -0.77196569      -0.74411489       0.88045641      -0.27872400
H       -1.80940080       3.35835241       0.52301316       1.35234677      -0.14132040       1.08389193
H       -1.11107576       2.16981314       1.73433858       0.25289652       1.02467061      -0.36436496
H       -0.90974665       2.44074582      -2.08684045       0.70848663      -0.43315206      -0.24429792
H       -0.42576218       0.66998783      -2.37244994      -0.60487375       1.19235044       0.56297447
H        0.52270850       3.64777087      -0.37464172      -0.28264825       0.02578096      -0.62717091
H        1.13032353       2.64776181       0.84525749       0.09970575      -0.00706627       0.15060178
H       -0.36502828      -1.15821940       2.91048681      -0.66056864       0.98655137       0.33666230
H       -0.43404545      -2.07780379       1.53133963      -0.42067071      -0.74852730      -1.42206495
H        0.67861797      -0.54125840      -0.61497379      -0.63333581       0.75653037      -0.04033239
H        1.57546572      -1.74862665       3.29960905       0.99871523      -0.74179822      -0.36811194
H        2.74173884       1.26392239       0.31271820      -0.25503489      -0.45494660      -0.29080314
H        2.21996539       0.63861200       2.50528847       0.53408263      -1.93664520      -0.82387266
